# sto-3g

title

0 1
 Pd                -4.68477124   -1.45865901    0.77025885 0
 C                 -2.84692079    0.47053055   -0.22135912 0
 O                 -4.18329730    0.33049082    0.01681802 0
 O                 -2.36581645    1.50252147   -0.71451610 0
 C                 -1.92366831   -0.73877964    0.16083159 0
 H                 -1.28477603   -0.38960802    0.98702635 0
 C                 -1.03784720   -1.13056518   -1.03926089 0
 H                 -0.30754279   -1.89974836   -0.76256625 0
 H                 -1.65045462   -1.50479131   -1.86721391 0
 H                 -0.50125077   -0.23786043   -1.37877227 0
 N                 -2.79207507   -1.82500107    0.62627132 0
 C                 -2.73011904   -3.04324913    1.16748062 0 14 15 1
 O                 -3.92665925   -3.50072535    1.49759302 0
 C                 -1.47883787   -3.84521895    1.38208639 3
 H                 -1.32538928   -4.52964624    0.53800221 3
 H                 -0.59533097   -3.20574359    1.47654294 3
 H                 -1.59553289   -4.44854186    2.28725341 3

