# STO-3G

title

0 1
C      1.214780590211     3.264785987620    -1.730821376350
C      2.270752126537     4.088810142326    -1.281295602698
C      2.885579788751     4.999068309179    -2.167629930890
C      2.450320642867     5.096483787580    -3.502992650484
C      1.397063964410     4.276256963686    -3.952371372185
C      0.782414136150     3.361151701262    -3.072406113269
H      0.157165971573    -0.394534473756     4.272171529825
H      2.629838447032     4.024048859098    -0.255601302539
H      3.699288970022     5.628423016395    -1.812272562690
H      2.922867763349     5.801383727657    -4.183179476467
H      1.052485514066     4.344490260815    -4.982630978605
H     -0.025528926583     2.729097566627    -3.438966653460
C     -0.351927998149     3.526219950708     0.893282135854
H     -0.442261082572     2.990027645570     1.833568168310
H      0.438149449014     4.266444483449     0.825013816926
C     -1.299851795822     3.430384171472    -0.127204753740
H     -1.213224606038     4.063006154210    -0.998188507124
C     -2.580789080898     2.706325945391    -0.024076346402
O     -3.291050450657     2.602961501238    -1.057527609632
O     -2.976967211513     2.137392651725     1.198189326746
C     -4.231493910445     1.442206299611     1.190918693202
H     -4.434548280029     1.040148967753     2.207012629927
H     -5.063798632803     2.129775591038     0.917665521401
H     -4.206929022983     0.587935827122     0.476850604402
Pd     0.370222860093     1.925080836300    -0.510799837278
C     -0.415751169238     0.277362932536     2.042076383330
O     -0.611977708187     0.469450845432     0.740512776755
O      0.004692500344     1.158418793319     2.836814594518
C     -0.714137714878    -1.149494182601     2.543172652836
H     -0.317754451020    -1.890414903301     1.838928338817
C     -2.197308951643    -1.398471106711     2.720945336533
H     -2.355691254714    -2.440815535751     3.068205986494
H     -2.593781207456    -0.702921259851     3.488977280119
H     -2.730587659466    -1.250648267275     1.760119269745
N     -0.055999097066    -1.288898963340     3.835171363538
C      0.473734715257    -2.477842443504     4.215836147606
O      0.368979369793    -3.540215724840     3.554556742000
C      1.210372103253    -2.496799255964     5.498234626995
H      2.244827043249    -2.808690700232     5.280699462321
H      1.196472921933    -1.495736035391     5.961745537851
H      0.716326461582    -3.230630605367     6.157204287043
N      1.391540992048     0.328824973746    -1.495903737419
C      2.597072740997     0.529418445690    -2.121559000497
C      3.128293019218    -0.445285645860    -2.940184361009
C      2.466012316125    -1.635214723154    -3.135708324679
C      1.278155729024    -1.828711073773    -2.485286086416
C      0.767425747760    -0.816178536567    -1.646010892165
H      3.145934789880     1.450199058130    -1.972224705869
H      4.073086579110    -0.269901154272    -3.428687897687
H      2.881493612576    -2.406039749891    -3.779634032270
H      0.723337767232    -2.741866287394    -2.577090176569
O     -0.358092661391    -1.135287800688    -1.049571268066
H     -0.618588641225    -0.503497690636    -0.232495326064

