# STO-3G

title

0 1
C      0.363372222756     1.307470698809     0.854784798513
C      0.287315955353     0.221065103528     1.768282890350
C      1.233490597997     0.105638363591     2.818064395203
C      2.227521404980     1.082890331704     2.970963092233
C      2.287678430769     2.186788413022     2.082999649033
C      1.365681628824     2.297746091311     1.034626499017
H     -0.437965632579     1.414165546590     0.132500838827
H     -0.560898136017    -0.453203144235     1.713833344056
H      1.164907191024    -0.723185852383     3.517720777395
H      2.943451932474     1.009778623591     3.786623506701
H      3.047699673600     2.952422744283     2.222862790918
H      1.407693995848     3.151122432265     0.362212250939
C     -0.027366449389     1.028636124660    -3.047121826080
H      0.648334759401     1.060824179078    -3.900579145295
H     -0.221403198267     0.054943677050    -2.608132842029
C     -0.657556141977     2.122725030521    -2.547005608367
H     -1.331890096003     1.991087114609    -1.712439532262
C     -0.519028869517     3.493264849806    -3.069044346358
O      0.223197739960     3.715759355572    -4.063216250466
O     -1.200986898535     4.535355268447    -2.417671575845
C     -1.003663007939     5.848969484515    -2.959352547811
H     -1.588811976925     6.583757748168    -2.365414712735
H      0.070496515244     6.139504572861    -2.911320254418
H     -1.353194184588     5.898173062538    -4.015641600893
Pd     1.078764221433    -0.766018857993    -0.499787502516
C      0.993167807375    -3.525313311763    -1.234750268993
O      1.885728371121    -2.507576882783    -1.094204763695
O      1.337820013314    -4.719797238296    -1.207332916785
C     -0.460764064883    -3.056592846426    -1.507663378350
H     -1.133805799766    -3.824422320176    -1.102476552368
C     -0.678432529998    -2.949467678730    -3.009055660451
H     -1.688276764149    -2.562283313309    -3.242137273845
H      0.072632795391    -2.260592778343    -3.447868605890
H     -0.562928147530    -3.948639531635    -3.480169328800
N     -0.667150024838    -1.722997876963    -0.902829990137
C     -1.848917874719    -1.131098395196    -0.650488683754
O     -1.973060235560     0.105738863074    -0.377613366661
C     -3.077061707348    -1.964467509692    -0.615101541091
H     -3.926035225271    -1.320343675604    -0.320228588069
H     -3.270153264472    -2.380860809717    -1.613995025273
H     -2.942012208530    -2.758507477574     0.139506857150
N      3.016124843554    -0.060374746429    -0.376601480766
C      3.883812717753    -0.808376279085     0.373799023702
C      5.220255262053    -0.462260716982     0.426357857039
C      5.688570177005     0.622453707685    -0.283362849268
C      4.796252796581     1.341038057837    -1.036739332248
C      3.442975721538     0.949690164151    -1.059633187418
H      3.517609170480    -1.657522292346     0.939235427092
H      5.896530838773    -1.052815808721     1.021732637079
H      6.739157155921     0.898059251608    -0.250100374868
H      5.094384592089     2.190097674962    -1.618342364545
O      2.673673972077     1.714489070102    -1.831881774700
H      1.725888747751     1.432981915147    -1.923602129563

