# STO-3G

title

0 1
C     -0.419868593897    -2.315540804224     0.992451637453
C     -1.106822614127    -3.115386884032     0.041641744291
C     -2.463709173013    -3.427127575456     0.236559894318
C     -3.129964251506    -2.969271412393     1.395206745889
C     -2.449185741441    -2.184929427198     2.350841848013
C     -1.096326121103    -1.850505237380     2.150925708640
H      0.664854693302    -2.231858035565     0.955233745639
H     -0.576816415911    -3.501492572468    -0.825875172450
H     -2.993233467680    -4.038040681707    -0.490610314482
H     -4.172778384017    -3.234989975580     1.556374399931
H     -2.965949564600    -1.846653242539     3.245679983924
H     -0.531676459657    -1.260675754025     2.865618329568
C      0.320215275753     2.128378672384     1.003781777175
H     -0.187003509969     1.887239550594     1.933395911027
H      1.378251514635     1.892700960781     0.977160263341
C     -0.285799412106     2.688542127210    -0.072855648496
H      0.283067437452     2.861059995988    -0.977113563960
C     -1.708428931372     3.059517267955    -0.146365940584
O     -2.477454530829     2.813122161828     0.823417336093
O     -2.194441979926     3.624936917456    -1.338100915805
C     -3.603805055057     3.885822469850    -1.379599876299
H     -3.867392303377     4.320723262278    -2.367445765485
H     -4.183158193117     2.944199054505    -1.248972683669
H     -3.894814502774     4.612907581493    -0.588100428580
Pd     0.351687186169    -0.361513024201    -0.383973584351
C      2.771323418785     0.188708000024    -1.960733602468
O      1.445859833455     0.504885922596    -1.929652975371
O      3.537243508807     0.562166786972    -2.860794926370
C      3.211416720382    -0.699512852230    -0.760681808354
H      4.214152879110    -0.352888786379    -0.477494637377
C      3.305579885970    -2.155059827816    -1.170224453425
H      3.652227692036    -2.765369684632    -0.311324787246
H      2.307059770377    -2.521207729196    -1.486013031323
H      4.022889080287    -2.272673716718    -2.009948964782
N      2.224212384655    -0.600288844466     0.321213057612
C      2.434826255938    -0.483503862967     1.644763420079
O      1.493351802755    -0.363694604424     2.488275658066
C      3.828240250405    -0.509021231439     2.149567377796
H      3.798237878766    -0.457363981609     3.253572859171
H      4.296803804630    -1.456453416154     1.836921106294
H      4.367297630702     0.369801463661     1.756613502703
N     -1.479909755926     0.010336098102    -1.326034842215
C     -2.628864487304    -0.113699677966    -0.590068141311
C     -3.860727704262    -0.039672598299    -1.207826883943
C     -3.952348533475     0.173551244703    -2.563868579144
C     -2.793798199951     0.336492058452    -3.274102183516
C     -1.551034310557     0.262094932500    -2.609141415578
H     -2.572185624959    -0.241920901229     0.479868025117
H     -4.752997686100    -0.142393774252    -0.612707598273
H     -4.920099900159     0.234319510067    -3.054152529252
H     -2.794204090176     0.539199701758    -4.326344969132
O     -0.514789822166     0.479221021299    -3.383113977417
H      0.416387834902     0.545266820532    -2.902428560859

