# STO-3G

title

0 1
Pd    -4.640067207005    -1.519588026029     0.648437907236 0
C     -2.860227416618     0.473963327370    -0.188689068512 0
O     -4.164034956061     0.275042917832    -0.059567852635 0
O     -2.382126566265     1.492440316271    -0.619147603297 0
C     -1.936686906173    -0.708794968069     0.246910632523 0 14 6 1
H     -1.227348913855    -0.323403318824     0.999193802443 0
N     -2.756366481190    -1.770425815202     0.775616646513 0
C     -2.739309697590    -3.034041696764     1.164433447177 0
O     -3.904551666871    -3.512539191100     1.366026818988 0
C     -1.494214367292    -3.842281743579     1.361422669036 0
H     -1.501859436935    -4.691755852386     0.660533414253 0
H     -0.584287143847    -3.246860036346     1.204470356199 0
H     -1.493208686315    -4.257114510094     2.380933564885 0
H     -1.357980313975    -1.026876453086    -0.638091834816 4

