# STO-3G

title

0 1
Pd    -4.620985318679    -1.416024989081     0.899840156354 0
C     -2.862403199898     0.429316761141    -0.241293473027 0
O     -4.138131626944     0.334348133483     0.093882948553 0
O     -2.389646734481     1.407532410269    -0.767978017756 0
C     -1.948693232961    -0.796688769737     0.104397567035 0 14 15 3
H     -1.346870798693    -0.477862346477     0.978151555454 0
N     -2.820110232361    -1.900184130315     0.478954090141 0
C     -2.760522203185    -3.034265223307     1.174026468387 0
O     -3.890666438141    -3.413619252667     1.615586650225 0
C     -1.503408501564    -3.821120838115     1.393010304001 0
H     -1.223074785256    -4.344313014472     0.464690879526 0
H     -0.666562291649    -3.164635605048     1.676756373242 0
H     -1.680412242270    -4.565611794299     2.180210127506 0
C     -1.018114822724    -1.123905624052    -1.060783541880 4
H     -0.274395789387    -1.888247277074    -0.788489924355 4
H     -1.592213447074    -1.480003777065    -1.929592093594 4
H     -0.494078204740    -0.199309963185    -1.344893889822 4

