# STO-3G

title

0 1
Pd    -4.709254149922    -1.653219527953     0.688266081514 0
C     -3.068617970667     0.462673141542    -0.114255420416 0
O     -4.354626628240     0.182138481305     0.021392465094 0
O     -2.672257446879     1.561974357588    -0.425240781154 0
C     -2.052460580254    -0.698587997935     0.151790008118 0 14 17 3
H     -1.438986217644    -0.376958845187     1.012536052479 0
N     -2.825379131930    -1.876945730679     0.514002996300 0
C     -2.709152213679    -3.055149894924     1.109938106616 0
O     -3.833313011613    -3.583602041630     1.399659701310 0
C     -1.407840234593    -3.739728471690     1.399581377764 0
H     -1.160276908358    -4.421822813386     0.570042916026 0
H     -0.583378015036    -3.022587296164     1.518258698000 0
H     -1.519554514553    -4.341917480151     2.311950137116 0
C     -1.142024888288    -0.983812627289    -1.062365618429 4
H     -0.540430011297    -1.878339387600    -0.817196426726 4
H     -1.788305673461    -1.271978048463    -1.909002025526 4
C     -0.185083071559     0.141093106732    -1.504897819633 4
H     -0.800522645669     1.000051026339    -1.813191385062 4
C      0.625558833518    -0.333446731543    -2.718346260802 4
H     -0.030355111735    -0.652267523858    -3.544895401429 4
H      1.273673810043     0.472091651847    -3.098732943620 4
H      1.275036819583    -1.188216806096    -2.459001576627 4
C      0.736292344269     0.617565379828    -0.375136523940 4
H      1.462583645751     1.355112613352    -0.752414883738 4
H      0.170449357893     1.108860325198     0.430974162574 4
H      1.312634414315    -0.218718689191     0.060231694213 4

