# sto-3g

title

0 1
 Pd                -4.60687827   -1.32174144    0.93273908 0
 C                 -2.75755795    0.44980127   -0.19196631 0
 O                 -4.04357672    0.39455886    0.10634220 0
 O                 -2.22014658    1.43099444   -0.63941301 0
 C                 -1.90985119   -0.85071423    0.10762764 0 14 15 2
 H                 -1.25792406   -0.56699065    0.95521139 0
 N                 -2.83482004   -1.89440691    0.50833763 0
 C                 -2.81754599   -3.01922382    1.22354341 0
 O                 -3.96066088   -3.34014788    1.67632077 0
 C                 -1.58449785   -3.82917549    1.47914256 0
 H                 -0.95096397   -3.87856141    0.58183266 0
 H                 -0.99577268   -3.35966216    2.28517368 0
 H                 -1.87597376   -4.83807860    1.79982177 0
 C                 -1.03600900   -1.22336488   -1.07729733 4
 C                  0.18988969   -0.56439083   -1.25182624 4
 C                  0.98980103   -0.84234070   -2.36205874 4
 C                  0.57681879   -1.78542182   -3.30858539 4
 C                 -0.64437209   -2.44411639   -3.14082771 4
 C                 -1.44931390   -2.16252096   -2.03292566 4
 H                  0.51123749    0.18115524   -0.52075884 4
 H                  1.94165144   -0.32011470   -2.48767879 4
 H                  1.20554139   -2.00558840   -4.17501498 4
 H                 -0.97704628   -3.17896155   -3.87844925 4
 H                 -2.40727272   -2.67241830   -1.90960257 4


