# STO-3G

title

0 1
Pd    -4.626032566819    -1.815194844416     0.391845605436 0
C     -2.979682622253     0.356034409536    -0.178373879507 0
O     -4.254430313631     0.012001025782    -0.278971564617 0
O     -2.605663344565     1.495671947896    -0.322729149645 0
C     -1.952608672882    -0.803497899306     0.086379059431 0 14 16 3
H     -1.326248445610    -0.500697618989     0.946218878146 0
N     -2.721517176961    -1.994025841517     0.421125519527 0
C     -2.661704302814    -3.061564955062     1.213032532607 0
O     -3.793901979686    -3.620469961627     1.388646364695 0
C     -1.414574301650    -3.597773395740     1.846856289818 0
H     -1.011626421100    -4.417399317648     1.231097999856 0
H     -0.638383130353    -2.827688294826     1.951406738999 0
H     -1.674343221793    -4.011395910408     2.831407457874 0
C     -1.038332670898    -0.992475405233    -1.167165243957 4
H     -1.708124962268    -0.992739132318    -2.046042935092 4
C     -0.051574454371     0.174544613179    -1.302796880425 4
H      0.524020145769     0.075954573425    -2.236831646384 4
H     -0.565583909098     1.143597047486    -1.304269193680 4
H      0.669107441865     0.171657985402    -0.466406419822 4
C     -0.287877131382    -2.328618254178    -1.159404190450 4
H      0.406161254912    -2.396943060016    -0.304574229789 4
H     -0.969802001740    -3.190929369059    -1.127105957038 4
H      0.316776427347    -2.421345352354    -2.075270635976 4

