# STO-3G

title

0 1
Pd    -4.628408549018    -2.034066441053     1.145611310560 0
C     -3.922688560331    -0.085391361102    -0.723764470713 0
O     -5.001701773213    -0.545533618744    -0.119207715962 0
O     -3.960464743567     0.785981945914    -1.562625257468 0
C     -2.550503271165    -0.701744761604    -0.287055325070 0 14 17 3
H     -2.083645165390     0.053846191055     0.372760471685 0
N     -2.842261521651    -1.907051875520     0.476439429241 0
C     -2.244113078157    -2.653427584651     1.406151156048 0
O     -3.063561720910    -3.287832005827     2.141871295256 0
C     -0.759518512511    -2.784153370348     1.558329822025 0
H     -0.409439458091    -3.650811054624     0.973762032345 0
H     -0.228343734875    -1.889367796973     1.203576186349 0
H     -0.525077702277    -2.972789327448     2.615098776180 0
C     -1.612916574715    -0.965762126359    -1.501305935572 4
H     -1.194151215339    -1.977925971486    -1.398934129318 4
H     -2.229197972760    -0.970285252814    -2.414225494036 4
C     -0.484804872929     0.034519441887    -1.647194321246 4
C     -0.754851719321     1.392885372348    -1.893063519781 4
C      0.853527023089    -0.374028854864    -1.535337228259 4
C      0.289754005139     2.311874252917    -2.017253587182 4
H     -1.795055224185     1.714653851969    -1.988097718477 4
C      1.899862022400     0.545868533495    -1.662728384434 4
H      1.082866789105    -1.429268357381    -1.357239676284 4
C      1.620079367079     1.893233463352    -1.902498787682 4
H      0.062757840064     3.363680986281    -2.210666142630 4
H      2.935503670504     0.206417050235    -1.576541515298 4
H      2.435054813025     2.614638301372    -2.003353400263 4

