# STO-3G

title

0 1
C      2.163125704903     1.960473658979     2.209158028360
C      2.093700640420     3.231987942751     1.597461041774
C      2.771492488545     4.330866696655     2.168792491656
C      3.518398408356     4.169166811897     3.350742174323
C      3.591268954355     2.900320875802     3.958837848915
C      2.921173734546     1.798132382563     3.389265558617
H     -0.760215669709    -0.526312617153    -0.721562949938
H      1.526129617793     3.380555737857     0.680357538843
H      2.711952017434     5.306657935082     1.690649067715
H      4.037487650568     5.017153280776     3.791359614364
H      4.170509732741     2.763279304608     4.869957399994
H      3.000919060566     0.820698962500     3.862503428130
C     -0.809063545446     1.341471084213     1.561748269682
H     -1.442468210916     0.824980542128     0.846710585142
H     -0.585979509944     2.379920229749     1.344025525030
C     -0.497018067625     0.808172324391     2.811059763735
H      0.017429316652     1.415051460257     3.539031012515
C     -1.013686047406    -0.466814709525     3.341806491343
O     -1.880697546272    -1.114539821089     2.700907780822
O     -0.486365339530    -0.945640098604     4.551897368316
C     -0.922918228445    -2.253974652488     4.947730653860
H     -0.439182989332    -2.529807817815     5.909345463425
H     -2.026975784271    -2.277518321904     5.093154503516
H     -0.635064747723    -3.014234889760     4.185335401827
Pd     1.245178476750     0.396574976077     1.360567205569
C     -0.045936387300    -2.375867816433     0.657690909608
O      0.223757666240    -1.156919077561     0.268018352639
O      0.598529188258    -2.940123978015     1.613406185440
C     -1.174319985793    -3.181526574103    -0.046070065194
H     -1.510532241907    -3.893122461326     0.717632451968
C     -0.609637532489    -3.989614930880    -1.199239011744
H     -1.395119897109    -4.665009969083    -1.598473747104
H     -0.293140373497    -3.297318411158    -2.006171553749
H      0.254957738950    -4.599796002831    -0.864852982138
N     -2.362109186501    -2.507029052357    -0.558529823319
C     -2.536524355503    -1.318660114764    -1.001584455134
O     -1.650853923057    -0.276974494463    -1.141297811395
C     -3.892423736008    -1.008704609413    -1.466861837725
H     -4.138930783814    -1.720695052876    -2.271902994464
H     -4.571840001340    -1.148963419240    -0.609661896555
H     -3.933866410879     0.031363425966    -1.835105099657
N      3.142382282327    -0.318837801823     0.880656812236
C      3.990870974203     0.460145060394     0.139848305326
C      5.322830653902     0.120750974181     0.029740670608
C      5.812633108046    -1.001314224718     0.658944860221
C      4.943116361753    -1.772085157383     1.383836444080
C      3.581537134389    -1.404383471201     1.467044185536
H      3.615732351366     1.349381437228    -0.353214246784
H      5.983120745971     0.745238615394    -0.549247372597
H      6.862535049225    -1.270579380086     0.579712798607
H      5.260881528304    -2.660345163375     1.892342052251
O      2.851108763602    -2.217690356611     2.184742890491
H      1.801212643602    -2.422839369443     1.984409591778

