# STO-3G

title

0 1
C      0.383053078407     0.448255222464    -2.946154937958
C      0.540229868937    -0.843799342212    -3.489632159191
C     -0.382077301659    -1.327159864486    -4.438451490521
C     -1.455635992183    -0.515246121936    -4.857023067574
C     -1.599163852710     0.785960614567    -4.335196597693
C     -0.678453249867     1.267598751983    -3.383473277617
H      1.102097267046     0.802245363653    -2.213099589220
H      1.383556430839    -1.456843881238    -3.179023450207
H     -0.257236500956    -2.323054343858    -4.857935126579
H     -2.162607760714    -0.886146249266    -5.596159249738
H     -2.411074710070     1.423411193776    -4.679529612968
H     -0.781882274696     2.281452584412    -3.001224722034
C      0.323642791072     2.720426868974    -0.322631249174
H      0.959504234464     2.719520303062    -1.201348687744
H     -0.720262444269     2.977587798684    -0.460687304654
C      0.864453696238     2.663861261182     0.959070377554
H      0.225805744363     2.783065198135     1.825013422529
C      2.311816425583     2.627277630025     1.242545768013
O      3.134775255556     2.905027661518     0.329190532124
O      2.730893314822     2.431788674154     2.569497057177
C      4.149832501659     2.374007460263     2.771428162690
H      4.362301841462     2.202338932319     3.848350982566
H      4.596938595302     1.535861712149     2.188988478868
H      4.632152957684     3.331418506678     2.469570644566
Pd     0.117434702072     0.549320459467     0.453992887760
C      2.111428470639    -1.352400180816    -0.165067462861
O      3.056236662575    -1.894581839317    -0.763687265634
O      1.999236854965    -0.016089598562     0.005914908240
C      0.939420314675    -2.201244553918     0.453982711381
H      1.415388026634    -3.039896338738     0.979787899415
C      0.014391628157    -2.758652904350    -0.603159110360
H     -0.745120765583    -3.410280282952    -0.124742702674
H     -0.510477219274    -1.929654480958    -1.119429619080
H      0.589678163431    -3.352966378853    -1.343656892832
N      0.138306008148    -1.310188183306     1.305521390715
C     -0.144389240188    -1.443941841224     2.578227069043
O     -0.657430760160    -0.522096480791     3.344123915658
C      0.118475488771    -2.728127389121     3.258283931671
H     -0.395093611957    -3.529765835403     2.700766393388
H      1.208879156298    -2.886689841455     3.297525868483
H     -0.277809268671    -2.684334227026     4.290505346400
N     -1.879334292652     0.952963470263     0.637810285760
C     -2.681219638465     0.776209787906    -0.455993244931
C     -3.967063764841     1.274445958408    -0.449728896802
C     -4.462971368774     1.926525478058     0.659812406051
C     -3.655578074125     2.052074893964     1.760450714958
C     -2.346522971504     1.522215023238     1.731211826862
H     -2.298690709177     0.264432248453    -1.330249368876
H     -4.588799695996     1.145536841865    -1.320671544270
H     -5.476904186046     2.317782518417     0.667586108277
H     -3.988862791196     2.520327788448     2.664885074421
O     -1.645081337036     1.614121661108     2.814796564598
H     -1.001570988697     0.511576567949     3.051739433789

