# STO-3G

title

0 1
C      0.914989429560     2.892326509451    -1.645717718290
C      2.304064790879     3.120668303522    -1.595811126035
C      2.887269468283     4.073043099667    -2.457909966840
C      2.092579515961     4.792625722321    -3.371799177074
C      0.705570391551     4.555304761052    -3.424171431432
C      0.113916437633     3.610409094619    -2.558791978547
H     -2.092572809963    -0.685828832928     3.592007195469
H      2.926058454881     2.537391416246    -0.925509265450
H      3.961407801359     4.243493104676    -2.419525155560
H      2.547202068540     5.523512280129    -4.036738796712
H      0.082091834151     5.098692072074    -4.131544252829
H     -0.960052424801     3.436278435041    -2.612289419025
C      0.631390105566     2.561083686651     1.368955377116
H      0.591131182770     1.754823648485     2.095613359485
H      1.620928616590     2.923369013367     1.115505235737
C     -0.514756018716     3.248691251282     0.936156190419
H     -0.403751639541     4.117712217479     0.305531834526
C     -1.863154109627     3.064114513652     1.500938416876
O     -2.836182614544     3.606123995215     0.914417042878
O     -2.023063948881     2.410293200135     2.734243763086
C     -3.375470452546     2.138794104990     3.125892212135
H     -3.376515482134     1.607691452483     4.101818363072
H     -3.954416038641     3.083058143703     3.240724863503
H     -3.874748140622     1.481355715911     2.378483547934
Pd    -0.025345988467     1.578633316437    -0.478364390937
C     -1.119878278675    -1.012994220254     0.734148978298
O     -0.858779345166    -1.646856641885    -0.381745633258
O     -1.183956849270     0.257429443549     0.829116113957
C     -1.294969809638    -1.876863117643     2.001000549637
H     -0.454633651485    -2.580485142134     1.998478517185
C     -2.590029527200    -2.659964577871     2.004777767646
H     -2.639078983350    -3.285438971690     2.920131953325
H     -3.448392219560    -1.958084325542     2.003348959666
H     -2.644246664224    -3.317094858629     1.112193455115
N     -1.236356682010    -1.060294368376     3.205453661871
C     -0.050888553817    -0.495589752862     3.575265590937
O      1.029171486946    -0.649482288866     2.960275944934
C     -0.086922079555     0.323564211273     4.804925072112
H      0.932433304564     0.690151667470     5.015806427805
H     -0.772295502062     1.167866390146     4.628476427941
H     -0.450531423767    -0.313015764330     5.629491224513
N      2.479010906966    -0.069514608873    -1.486274889146
C      3.726441146770    -0.498378422638    -1.854932554307
C      3.879224317995    -1.319327073867    -2.958602483440
C      2.780111620296    -1.714401073830    -3.692828875271
C      1.543329428893    -1.273117352081    -3.298409078752
C      1.452501154726    -0.430438761736    -2.166168711708
H      4.592127965456    -0.191801741852    -1.279691815306
H      4.864779329398    -1.650450024299    -3.240529301145
H      2.891925933404    -2.358780189345    -4.560636107755
H      0.647410030372    -1.534379763111    -3.823215113726
O      0.192789852159    -0.048322786384    -1.836874159085
H     -0.419849548125    -0.945498261505    -1.198715796938

