# STO-3G

title

0 1
C     -0.385315966570     3.335576497361    -0.357103944524
C     -0.672683855847     3.474577474889    -1.733793343116
C     -1.958324726783     3.840968710481    -2.164792960471
C     -2.975909583512     4.098194107723    -1.225309418043
C     -2.697892904930     3.981578649570     0.151106815523
C     -1.412487820784     3.602110913539     0.581558205828
H     -2.499185709479     1.441400307230     1.076531527631
H      0.101261357332     3.261298997944    -2.466824011091
H     -2.167056003536     3.917837050865    -3.228411263726
H     -3.967786595246     4.392105393029    -1.559504379348
H     -3.470919312264     4.206204548460     0.882792185500
H     -1.189858413590     3.563456727899     1.645557132819
C      0.992386397403     3.020748358872     0.105866756792
H      3.113539104844     1.624551184531    -0.795013275428
H      1.781075166921     3.628838401427    -0.333624814991
C      1.270300311412     2.255846550734     1.248462377496
H      0.467630999210     1.704184475807     1.717611223818
C      2.526264237949     2.308871606767     2.008892483200
O      3.580704219461     2.610422639486     1.388726427950
O      2.575724097701     1.650165325407     3.247594747487
C      3.812580566404     1.690202738621     3.981266108937
H      3.615170506500     2.060744173535     5.010885269040
H      4.225697346624     0.661470850930     4.063600224364
H      4.590835261064     2.348256031662     3.531009518698
Pd     1.733163667668     0.978466702573    -0.549100456686
C     -1.175575009958    -0.005865833609    -0.916921323666
O     -0.127174933464     0.047564935997    -0.071285449390
O     -1.096289351868     0.168060213568    -2.153244995627
C     -2.501550138502    -0.284790153712    -0.150151475037
H     -2.540830901259    -1.358605406874     0.074100309278
C     -3.733931122891     0.117482330683    -0.928131971527
H     -4.639859571198    -0.104378250108    -0.327687896556
H     -3.694672794566     1.207148617293    -1.132663131633
H     -3.781876054148    -0.438705046939    -1.886557718809
N     -2.509998951133     0.427924462949     1.124158771614
C     -2.169814012859    -0.203445406983     2.280959134315
O     -1.907943208667    -1.422628359601     2.386889765928
C     -2.156792612572     0.654901531808     3.485868176112
H     -3.166688211979     1.082912484191     3.600054738536
H     -1.897292848120     0.029637491748     4.357583494345
H     -1.408552206993     1.450380283022     3.339597589317
N      2.460055815379    -0.781056772275    -1.392897690799
C      3.386453464831    -0.768528457423    -2.401307241053
C      4.016055262560    -1.935830081425    -2.777081738800
C      3.708248219882    -3.127844745747    -2.158394377398
C      2.763031290412    -3.118998355870    -1.167630156288
C      2.134020142867    -1.907479079958    -0.812997003929
H      3.636661898364     0.163558932476    -2.894488987046
H      4.748391671990    -1.915899430615    -3.568132979796
H      4.197202845240    -4.052626777130    -2.453749563355
H      2.464554804133    -4.013800774404    -0.656771448693
O      1.224722155711    -2.026665991981     0.129866655330
H      0.586793047983    -1.205245002752     0.229001447784

