# STO-3G

title

0 1
C      1.019328727599     3.069523312410    -0.032910708412
C      2.024916207487     4.031362942275    -0.232137937996
C      1.656260329944     5.346572738758    -0.592530671667
C      0.300123878238     5.688863065726    -0.751149020873
C     -0.696217030454     4.713709274640    -0.544835114413
C     -0.343705533318     3.396338933945    -0.185206037801
H     -0.784795922990    -0.213724538092     1.411412357893
H      3.075622658939     3.781319991286    -0.101524756893
H      2.431806982991     6.095579183480    -0.739842924026
H      0.023486424192     6.703958215788    -1.026210171894
H     -1.747009245315     4.973647661080    -0.655384759384
H     -1.112776501317     2.646990565177    -0.012493717919
C      2.374669226193     1.039006076689     2.410394374166
H      3.293501198800     1.617428246897     2.407117291150
H      2.470044253007    -0.044929071397     2.397372258864
C      1.134732666176     1.607779452863     2.684385238776
H      0.288121323825     0.958967480412     2.855116789898
C      0.931111825806     3.026332536462     3.030115427171
O      1.916955548607     3.812522931489     3.035879294243
O     -0.372069869038     3.481671010926     3.287035163565
C     -0.519471928946     4.901088693863     3.429198520060
H     -1.587582089545     5.142603083198     3.616917820269
H      0.079943816004     5.278008702719     4.288664076080
H     -0.203022848596     5.424336087141     2.497482005775
Pd     1.454115435650     1.177503582246     0.376479977087
C     -0.512490254410    -2.404193231396     2.299549611747
O      0.424062423081    -1.430552573811     1.976757122596
O     -0.761347560971    -2.675649963872     3.477729152798
C     -1.271477926173    -3.048348418169     1.097430004554
H     -2.157006237025    -3.516192312479     1.548862126450
C     -0.456837692734    -4.152556103658     0.458178254819
H     -0.187238278678    -4.921002389579     1.212333328702
H     -1.059335503148    -4.627417908655    -0.343815336220
H      0.465929275516    -3.735922656304     0.006402689347
N     -1.746482566594    -2.210468135265     0.002078029408
C     -1.812669931427    -0.943161223308    -0.130918383674
O     -1.420168227982     0.085729042197     0.713228734920
C     -2.446437376178    -0.459935911646    -1.361843807918
H     -3.473611606228    -0.861097291984    -1.387485420741
H     -2.459534685809     0.643210716827    -1.364975305167
H     -1.864886420134    -0.843059402438    -2.217849472083
N      1.184742212428     0.545311162221    -1.565777150243
C      0.875978400891     1.062132319302    -2.790712486394
C      0.676523049297     0.204647516489    -3.856233018141
C      0.797182204943    -1.163193361061    -3.695812418533
C      1.114484775463    -1.654989956892    -2.454075063630
C      1.302262830108    -0.751542791728    -1.387919269343
H      0.782070735012     2.134298773380    -2.921042081970
H      0.428428415804     0.612494304137    -4.822513630821
H      0.639758477421    -1.836029971123    -4.534644362695
H      1.210255927446    -2.703257651203    -2.258643576154
O      1.596291173993    -1.209574985828    -0.200534679168
H      0.867183193155    -1.482317592046     1.034513727497

