# STO-3G

title

0 1
C      0.941364033062     2.675077393423    -1.401599170461
C      2.036130622878     3.339042787987    -0.814761728047
C      2.374684923758     4.639341066235    -1.247573831621
C      1.626030865319     5.273055107868    -2.257459676071
C      0.533513466870     4.601502596600    -2.840336268407
C      0.188514540955     3.300971708020    -2.417111590545
H     -2.091342548632    -0.729649837335     3.457883424697
H      2.627188778725     2.862739567844    -0.035938763747
H      3.220224524785     5.150135543089    -0.791298676596
H      1.890093694434     6.275702278886    -2.585370424257
H     -0.052449123061     5.083277321658    -3.620611956257
H     -0.659983326624     2.793825689178    -2.872799416288
C      0.166776107738     1.227732868524     1.260789743288
H      0.798435498852     2.046542677354     1.587932966265
H      0.446089069220     0.250438349683     1.641165438796
C     -1.072803759092     1.427304730526     0.648054707652
H     -1.723560032288     0.574629314219     0.502955560283
C     -1.671285594240     2.751294320389     0.409607643735
O     -2.703916220563     2.830193263124    -0.304996560268
O     -1.013294584368     3.901965340341     0.878875720831
C     -1.561823522258     5.156613994250     0.453382232893
H     -0.956785093420     5.985259065988     0.879726807251
H     -1.530371622952     5.243951352221    -0.656342917908
H     -2.611751022148     5.271163183906     0.806305951752
Pd     0.488232724969     0.810762280955    -0.905566570343
C     -0.769594420828    -2.143995057900     1.652732549554
O     -1.692799983257    -1.475016938770     1.130715175043
O      0.179622018521    -2.806324896035     0.972243614738
C     -0.590263682512    -2.183396041846     3.187036546277
H      0.476283526984    -2.233463292274     3.419324104433
C     -1.302057395649    -3.353293020580     3.828259554329
H     -1.125937030281    -3.334585123351     4.923628648089
H     -2.392616898334    -3.266866045781     3.642017778283
H     -0.923577395525    -4.309270760552     3.411830109710
N     -1.141661647710    -0.948037215298     3.741476464870
C     -0.334898564211     0.034197052629     4.229672496395
O      0.915297810501    -0.024278446740     4.298396867088
C     -1.037915904369     1.250886109122     4.687086118211
H     -0.292256942162     1.970733239752     5.066613917714
H     -1.581674739841     1.671144682712     3.824596972224
H     -1.740368706325     0.958476776458     5.486534779010
N      1.384197548749    -0.087028234469    -2.542788741525
C      2.101005802295     0.220862070738    -3.662333906258
C      2.587081607238    -0.800185731752    -4.457890425449
C      2.353114372955    -2.124195469915    -4.133872716571
C      1.629708558535    -2.408789987271    -3.001475348859
C      1.150206961312    -1.340982621928    -2.215483016702
H      2.286198046584     1.257331440564    -3.920955703404
H      3.152492888356    -0.555923304881    -5.342361218883
H      2.734099657329    -2.923994027266    -4.763515347096
H      1.409173525306    -3.411547999530    -2.697391084445
O      0.464568555642    -1.576722616251    -1.138528712141
H      0.270595925606    -2.475794197335    -0.010977896416

