# MIN/B3LYP/Def2SVP

0 1
 C                  1.29312168    1.88612545   -0.82599387
 C                  0.44909701    2.22795248   -1.91809982
 C                 -0.04081003    3.55812816   -2.04373792
 C                  0.30964668    4.52582464   -1.09573668
 C                  1.14028015    4.18257091    0.00405085
 C                  1.62369529    2.87624040    0.14311400
 H                  1.75969862    0.90908019   -0.73079964
 H                  0.22680230    1.50308314   -2.69616064
 H                 -0.68233014    3.81183571   -2.88299186
 H                 -0.06004789    5.54340491   -1.19650247
 H                  1.39827882    4.93893969    0.74140214
 H                  2.25019806    2.57615796    0.97683351
 C                  1.09524781   -1.75290970   -1.21929975
 H                  2.16098698   -1.97025044   -1.22458220
 H                  0.74934115   -0.97499008   -1.89386681
 C                  0.22602180   -2.38211182   -0.39812862
 H                 -0.81326757   -2.08675229   -0.39490241
 C                  0.58120026   -3.43896466    0.56259382
 O                  1.70671497   -4.00486661    0.49899414
 O                 -0.40108942   -3.86550421    1.47625157
 C                  0.02851242   -4.83879179    2.43821549
 H                 -0.81842619   -5.09552798    3.10965942
 H                  0.36687920   -5.77225954    1.93316231
 H                  0.85884704   -4.43438708    3.06168152
 Pd                -0.78518011    0.95389672   -0.13038133
 C                 -3.11317793   -0.28235639   -1.27510272
 O                 -2.01633700    0.44829035   -1.63504235
 O                 -3.91678468   -0.71907602   -2.11176606
 C                 -3.29194282   -0.52623502    0.27153568
 H                 -3.48727018   -1.59789327    0.41915041
 C                 -4.45305397    0.27462626    0.81965865
 H                 -4.58996882    0.05712075    1.89744394
 H                 -4.24919319    1.35828038    0.69325165
 H                 -5.38643317    0.01176627    0.27865541
 N                 -2.07633146   -0.08223949    0.92684873
 C                 -1.42213878   -0.30465034    2.03921004
 O                 -0.25850092    0.27800826    2.16181214
 C                 -1.94500138   -1.19366353    3.08525715
 H                 -2.88767536   -0.76717994    3.46384293
 H                 -2.10766737   -2.18891941    2.63818797
 H                 -1.19811083   -1.26109414    3.89725998
 N                  3.24568779    0.16493980    1.01554675
 C                  4.47471458    0.38781925    0.45275317
 C                  5.45871037   -0.58098762    0.52682009
 C                  5.21520768   -1.77580114    1.17184529
 C                  3.98498776   -1.96468553    1.74335620
 C                  3.01692675   -0.94302408    1.63620723
 H                  4.66786136    1.32145499   -0.06261705
 H                  6.41775507   -0.39995462    0.07088323
 H                  5.97770167   -2.54823842    1.22326143
 H                  3.71546254   -2.87765096    2.23548878
 O                  1.85169176   -1.24652785    2.22101748
 H                  1.13464671   -0.54132052    2.18114558
Options
GauProc=24
GauMem=2000
EigenCheck
MinFreqValue=50

