# STO-3G

title

0 1
C      1.503698632449     2.364725426725     1.458575218271
C      2.372627884497     2.072743593457     2.541972292221
C      3.391003858777     2.968339734482     2.910800030627
C      3.575877262327     4.167379877738     2.194775241489
C      2.738904494333     4.454339669203     1.099613893660
C      1.717170522244     3.560004439975     0.731772425406
H     -1.512911356757    -2.004146149693     1.575073506766
H      2.235754770759     1.146613670428     3.097512413116
H      4.039909304283     2.728727045864     3.750297305836
H      4.366485394720     4.858802309794     2.477248114295
H      2.887538939341     5.366966531717     0.526690357817
H      1.109586421897     3.778299239173    -0.142966996401
C      0.438317509085     1.362845585331     1.168520823488
H      0.758149364793     0.357262105882     1.431668013535
H     -0.420014773762    -0.669981022616    -0.490842960320
C     -0.970870615566     1.531228745043     1.086650034163
H     -1.582457861930     0.661440500319     1.298408361986
C     -1.690450373102     2.809542878399     1.181906709770
O     -2.847952714319     2.793026208232     1.673558832099
O     -1.313570012646     3.830817223655     0.293573814097
C     -2.080610369220     5.040791333782     0.376725637569
H     -1.678864865070     5.784847251461    -0.344382173590
H     -3.149232612137     4.854055194748     0.122330361855
H     -2.015855298760     5.480562111099     1.398303713834
Pd    -0.183684788113     1.239582957372    -0.905129266984
C      0.026984519376    -2.759079322824    -0.366699476213
O     -0.637803844658    -1.633947444454    -0.847005610884
O      0.207155518276    -3.734510911386    -1.096557676484
C      0.460994506767    -2.650861751046     1.111072349943
H      1.401018424175    -2.082542573671     1.161318502731
C      0.691210097191    -4.008741627158     1.741384444839
H      1.049041180361    -3.883534398507     2.784487253821
H     -0.262698142234    -4.574779661519     1.754492587428
H      1.452374106911    -4.577764349737     1.168065514524
N     -0.554866057649    -1.938500891529     1.896792536931
C     -0.218100438488    -1.270900141168     3.036202907061
O      0.962855932595    -1.096825731473     3.416887676249
C     -1.321463911886    -0.711781521578     3.845931701875
H     -1.256614518351    -1.167709005969     4.847939611318
H     -1.162281793483     0.377582394197     3.916742804170
H     -2.302393461029    -0.932963292592     3.390766764514
N     -0.071098867862     1.091230153608    -3.014346157418
C      0.427655574029     2.222087243783    -3.608876513568
C      0.367274653794     2.372581625590    -4.977536468252
C     -0.185309113691     1.387621841092    -5.765289325466
C     -0.665413053876     0.262699219484    -5.150598793191
C     -0.580373547669     0.142594793498    -3.747416639032
H      0.860958818473     3.005693958130    -2.997604612052
H      0.759043765008     3.267711624535    -5.433727015183
H     -0.234798275606     1.497741392162    -6.845635474190
H     -1.097781411703    -0.547091865244    -5.706283035632
O     -1.063511129354    -1.000218788937    -3.297737250555
H     -0.926634900650    -1.258774026795    -2.325296062853

