# STO-3G

title

0 1
C      3.062883097794    -1.094983510356    -0.332413450259
C      2.812064461008    -2.477866160952    -0.203770365188
C      3.654726748634    -3.281968368681     0.588688289808
C      4.757786738385    -2.708574662622     1.251894699802
C      5.023399297705    -1.332292315277     1.108999506622
C      4.180502376509    -0.530780970331     0.314707236239
H      2.418620276921    -0.460256574188    -0.936239372637
H      1.971417572875    -2.937350119681    -0.719640213915
H      3.458643848905    -4.348013451712     0.679799672396
H      5.411656305969    -3.330201059880     1.859410963010
H      5.884110588654    -0.887096156508     1.602645568456
H      4.402673571160     0.527415287737     0.192707768041
C      0.251304465666     2.686646874940     0.857467986048
H     -0.436954281807     2.849497590814     1.683854800970
H     -0.071095318096     3.019371697753    -0.123835136991
C      1.551822397697     2.227144730281     1.054821913119
H      2.224865775251     2.179440239866     0.211739937338
C      2.168396096744     2.054188142363     2.383239301726
O      1.514009302394     2.327433011814     3.424219739888
O      3.499007062966     1.609960779798     2.455086219645
C      4.015562394970     1.394821045801     3.775814728545
H      5.065001650307     1.036631659626     3.707506974568
H      4.007691273590     2.341461000813     4.362789565556
H      3.417999401805     0.623358502672     4.312926716184
Pd     0.109249157558     0.504293503774     0.336548200484
C      0.181544437366     0.207106149307    -2.516807324078
O      0.376070018300     0.397492252330    -3.727664568569
O      0.467584423515     1.123827409425    -1.558479325155
C     -0.353277255253    -1.137386253935    -1.899523252783
H      0.525081154300    -1.669943422138    -1.516362337609
C     -1.021990819595    -2.061399211917    -2.897990323512
H     -1.457064889473    -2.937720169923    -2.377855943348
H     -1.782789013443    -1.521747154873    -3.491680424664
H     -0.259043939413    -2.433343788509    -3.613987495711
N     -1.157467658635    -0.778644932001    -0.708965513718
C     -2.438590117363    -0.540433171446    -0.477656007104
O     -2.881200742149     0.154946788836     0.517204887404
C     -3.496068274511    -1.066470100961    -1.362904569814
H     -3.420952093563    -0.560902490863    -2.337412846532
H     -3.392274413161    -2.159963735065    -1.427521791761
H     -4.485226032654    -0.831691080539    -0.925664860940
N     -0.048479059064    -0.207325441553     2.255806750500
C      0.956647184284    -0.995058626010     2.750019412108
C      0.999228410968    -1.299287738729     4.094542873905
C      0.030805000925    -0.822144566380     4.951203120517
C     -0.987442341041    -0.068976883850     4.430336979884
C     -1.006685246245     0.218023045115     3.048290799960
H      1.735206069518    -1.354840933569     2.093917261931
H      1.804102204250    -1.905905580705     4.474571119098
H      0.065864604127    -1.049909273022     6.013011737350
H     -1.779292452571     0.320400759890     5.037244928911
O     -2.030679973638     0.898089235856     2.619375210610
H     -2.363896385055     0.627894464940     1.557721915495

