# STO-3G

title

0 1
C     -0.535512969185    -1.486910045448     2.583273181777
C     -1.685001019076    -0.872196265897     3.149748860706
C     -1.828977960874    -0.809908188499     4.559722300893
C     -0.846908526379    -1.366186535177     5.396523965360
C      0.294087223244    -1.991543136266     4.834304526469
C      0.448336746398    -2.048423693759     3.438977954442
H     -0.471669059759    -1.623051290467     1.507152992796
H     -2.478116452712    -0.546836522101     2.482004318215
H     -2.716806017734    -0.351423699781     4.988714205018
H     -0.971223974112    -1.339425400592     6.476914588837
H      1.037323126529    -2.446881944085     5.485249261723
H      1.309385586802    -2.551574172345     3.004231962095
C      2.649530625161    -0.060161761919     0.677465934188
H      3.601781054898    -0.537992685151     0.894643754119
H      1.916722004338    -0.030088414989     1.485057359413
C      2.342183974381     0.490317945356    -0.524378587320
H      1.359477026522     0.917442673345    -0.668157675556
C      3.223253800782     0.514829502209    -1.703644339694
O      4.366531384509    -0.013697554169    -1.641730724540
O      2.824779463403     1.261678048876    -2.828129339432
C      3.727756022155     1.239703199100    -3.942374314701
H      3.308539826609     1.851437245089    -4.769504627348
H      4.716229195458     1.668035179330    -3.659328227533
H      3.869290749360     0.199255559647    -4.313993953922
Pd    -0.242025129204     1.011002552186     2.246001807495
C      1.550851523365     0.959578754759     5.211611266400
O      1.041752478720     1.262164006129     4.177079880246
O      2.085112784138     0.696124961881     6.241930086748
C     -0.274024794388     2.582414747339     0.763141810933
H      0.741029353247     2.897782473511     0.521302970136
C     -1.300627519904     3.649026452088     0.998652376728
H     -1.624549884748     4.068625847232     0.024761222158
H     -2.178528362132     3.221017280613     1.524261353454
H     -0.861131770829     4.456931932477     1.618233765113
N     -0.773298266058     1.397383616248     0.318092776820
C     -1.850551423270     0.865434455938    -0.297713975395
O     -2.535952152513    -0.097108916659     0.136755332206
C     -2.173504707433     1.429475003875    -1.625336388734
H     -3.193119840973     1.845337063853    -1.576685419100
H     -1.438603828112     2.206108189455    -1.897534679733
H     -2.132744113671     0.604355334417    -2.357154879959
N      0.723102239830    -1.231997799598    -2.520180470213
C      0.249793271040    -1.067705216315    -3.794188758972
C     -0.999707231947    -1.557391110871    -4.136903817071
C     -1.771573883037    -2.221109178324    -3.202746419635
C     -1.269236638702    -2.371215306558    -1.936613216446
C      0.007355575041    -1.848741154944    -1.650231137462
H      0.853528149673    -0.548265968232    -4.529178930454
H     -1.364834293748    -1.424318809348    -5.141660053428
H     -2.754903479619    -2.604942626151    -3.460791168316
H     -1.820817869812    -2.844486154264    -1.147911869735
O      0.415716794784    -2.037436650679    -0.374310724697
H      1.250670962261    -1.541724209654    -0.201806050985

