62

C      2.233044050819    4.155242201526   -1.591317638591
H      3.223215544353    4.472064850278    0.307606653195
C     -0.281457282955    2.960234560557   -2.358328746142
H     -0.917001590534    2.076625392432   -2.251038533270
H      0.421926770521    2.963153141638   -3.192869911802
C     -0.705502253363    4.169554521214   -1.782702382623
H     -0.305041690349    5.127102478901   -2.126386480534
C     -2.038038636933    4.239389544310   -1.092185799423
O     -2.954079526690    3.485106946966   -1.302838060637
O     -2.100069203795    5.274750951888   -0.231294026658
Pd     0.785373309850    3.251386531530   -0.527281250349
C     -0.907725997179    2.828892787444    1.882306503928
O     -0.730283202312    2.380198094982    0.666361993391
O     -1.799450153498    2.490816339788    2.632451155255
C      0.090556722390    3.906698830598    2.360523963042
H      0.321393877282    3.675194528365    3.411796204441
N      1.276163892387    4.034695102270    1.525924764889
C      2.397205809071    4.411197340129    2.021535489607
O      3.476284834821    4.566551493602    1.251112395176
O      0.009030454546    0.027721018491   -0.095131054049
H     -0.393829294215    0.901948710919    0.196585788149
C      2.387801672622    5.552676160486   -1.545164529819
C      3.400981724893    6.222026335224   -2.255156338504
C      4.289593567996    5.472064032037   -3.058319338418
C      4.122437701807    4.081508589209   -3.117838912146
C      3.112439684015    3.425467139238   -2.406128360787
H      1.707619653950    6.152882975453   -0.932861472465
H      4.799473656372    3.491938871696   -3.743905647026
H      3.015245530913    2.341452898865   -2.497106913623
C      3.528344928949    7.722552176503   -2.158986478235
H      4.513450230097    8.022577241835   -1.762453718340
H      3.430759323439    8.202428143544   -3.147750302890
H      2.757640247027    8.150018895871   -1.501380157384
C      5.388493436039    6.149026993937   -3.839398734757
H      4.985879214596    6.885072398418   -4.556226329273
H      6.078159823903    6.702006949076   -3.178818452784
H      5.983056137538    5.419406535333   -4.408094352047
C     -3.330397728374    5.415831488737    0.507615779638
H     -4.174625091801    5.387649880211   -0.198820808080
H     -3.434307713545    4.548215329156    1.179364011019
C     -3.274396624463    6.722190041672    1.271899233239
H     -3.159475470034    7.577836940363    0.588207491655
H     -4.204670643691    6.859645985447    1.844730012936
H     -2.433290324249    6.733666046369    1.982819208820
C      2.667759670141    4.729368932332    3.468404186355
H      2.060906867249    5.588747348389    3.794044244278
H      2.405400060838    3.877538479600    4.113930229996
H      3.729154621715    4.970697206707    3.601011450661
H     -0.465473722599    4.861917681619    2.358942329494
N      1.997175546695    1.218864949792   -0.016495556840
C      1.328723876191    0.050110231564   -0.039818783839
C      2.008600711486   -1.191055017681   -0.017757265059
C      3.392605416229   -1.231312626239    0.076477387496
C      4.073562101062    0.004352530719    0.153106232209
C      3.339988203863    1.176998478722    0.101370440843
H      1.405083358603   -2.099585565723   -0.056216719413
H      5.160754658959    0.046089264997    0.247516945791
H      3.847033296511    2.143210659325    0.151256534130
C      4.148082713681   -2.533545462923    0.110531687172
H      4.753900458373   -2.612354855478    1.028340894493
H      3.471265501944   -3.398646460089    0.070142544568
H      4.846005401218   -2.603220374793   -0.740445479451
