59

C      2.288018745524    4.590713019598   -1.431510567297
H      3.508888723431    4.313490741596    0.200437478925
C      0.031816436237    2.815014158859   -2.196318445335
H     -0.423195529555    1.861113010722   -1.914449818102
H      0.850822794927    2.796247765162   -2.916635538108
C     -0.640687037400    3.991212425409   -1.916658528312
H     -0.351888293972    4.938954551723   -2.380616129280
C     -2.008585384208    3.945645515053   -1.279641072997
O     -2.775504201763    3.027431837778   -1.417363691139
O     -2.265769684643    5.059477716769   -0.580842043790
Pd     0.865989513338    3.670729132124   -0.347721529321
C     -0.701133524181    3.318312610362    2.082647718512
O     -0.594889089530    2.786764469868    0.892221957508
O     -1.644981014337    3.193781584223    2.833413367513
C      0.495411768641    4.188174577484    2.532787932760
H      0.792837046886    3.823702326737    3.527963510681
N      1.604441964000    4.194228987221    1.579948213138
C      2.822302402183    4.336819093729    1.977394884849
O      3.838016874321    4.344208745672    1.127884585485
O     -0.295225894303    0.225414602960    0.334560577550
H     -0.438260097930    1.185816627054    0.583695703517
C      2.321798320405    5.993611621376   -1.530447741176
C      3.308260342855    6.670543696584   -2.264633404970
C      4.312592770167    5.922941627264   -2.926683271829
C      4.282534377549    4.527225924868   -2.824984577427
C      3.286842506113    3.860814473466   -2.096913638115
H      1.560154094789    6.589783067911   -1.018108714361
H      5.054427536492    3.939376358170   -3.330974309455
H      3.303912562178    2.767908398915   -2.052145525701
C      3.296980210354    8.177420838695   -2.341470589219
H      4.228021182808    8.611983023539   -1.939228160101
H      3.213570255155    8.529777629244   -3.383697025975
H      2.455547417176    8.602309684391   -1.775348125059
C      5.392343378948    6.612420497294   -3.723166556120
H      4.969979043067    7.218375299259   -4.542888285816
H      5.983407805579    7.302705013224   -3.097275920512
H      6.087342870026    5.885683711838   -4.167985745969
C     -3.507340660438    5.074851062653    0.160079028443
H     -4.335530035934    4.874209361301   -0.537569043694
H     -3.476712944338    4.254309081706    0.894252875791
C     -3.638270552041    6.426608127822    0.828078141298
H     -3.638113793777    7.240960973516    0.086670810169
H     -4.583410253928    6.471602439084    1.391043554650
H     -2.813322905256    6.598459315125    1.536494683510
C      3.252887988237    4.504617447412    3.409345230264
H      2.756208331254    5.372888149362    3.867844446344
H      2.982380628299    3.616263526675    4.001199954972
H      4.339428976989    4.644678414236    3.449869094819
H      0.112086323325    5.215013811251    2.669645808141
N      1.924308932611    0.857115902719    0.351004119428
C      0.985145816071   -0.086301061786    0.256814829439
C      1.351851610385   -1.448105352821    0.057941814749
C      2.693764873067   -1.789532691164   -0.023593259495
C      3.653343859132   -0.773923410471    0.093965299355
C      3.220856280746    0.535488860216    0.280355717972
H      2.989431971654   -2.828643542555   -0.172368919756
H      3.946145618773    1.349994593271    0.374226937845
Cl     0.118735748292   -2.664435163550   -0.076810559199
Cl     5.357722877855   -1.143874346052    0.005071786770
