65

C      2.192019423136    4.624793207221   -1.307397503541
H      3.472771810534    4.339395046035    0.273554388339
C      0.002548450879    2.686987526324   -2.008247551201
H     -0.487968571394    1.769152389186   -1.672604530063
H      0.834266811461    2.594577604593   -2.708383667628
C     -0.628607452292    3.903532430668   -1.820788505747
H     -0.293673441347    4.804257463922   -2.341335630936
C     -2.007596129453    3.970087881066   -1.222889290302
O     -2.771148251681    3.041066019034   -1.161617229757
O     -2.294489868902    5.216845676039   -0.807275319849
Pd     0.843039091981    3.618066807507   -0.204856329421
C     -0.438025253159    2.911064776332    2.342600128362
O     -0.492383081015    2.591194175810    1.072604783544
O     -1.086339858645    2.395508180870    3.227262411463
C      0.519882898168    4.082405047974    2.684889672225
H      0.909676700030    3.858408269027    3.687682699907
N      1.610966233876    4.157465089301    1.702112358075
C      2.838004606621    4.305655304571    2.069778634337
O      3.828479645112    4.354395819940    1.191017815976
O     -0.114619451436    0.090919832135    0.389522100132
H     -0.305173776585    1.035847244944    0.684633592239
C      2.179305148267    6.030464016227   -1.362874177803
C      3.117654622055    6.759912353965   -2.109253857104
C      4.119561035738    6.064782872651   -2.829982116971
C      4.135436343474    4.666581774769   -2.771796856137
C      3.187440771458    3.947306991222   -2.030109922392
H      1.418052702696    6.585545344489   -0.806071254539
H      4.906597973893    4.118722943273   -3.321773601584
H      3.242840724006    2.854942788711   -2.017350943216
C      3.058631378032    8.267395750836   -2.137195223097
H      3.989909828764    8.717763891438   -1.753287956861
H      2.928138328054    8.649385361430   -3.164061531148
H      2.225381435467    8.648116728717   -1.529089240342
C      5.148996845380    6.812091388944   -3.640727634430
H      4.679661772393    7.430665152454   -4.424720918234
H      5.741510695352    7.499787340191   -3.013357123415
H      5.848755980720    6.121545984257   -4.133147508141
C     -3.602630306289    5.413253199059   -0.234913781626
H     -4.359276170248    5.072169849055   -0.959495155492
H     -3.696520839280    4.771497441505    0.655878529861
C     -3.756400650878    6.881966694744    0.098863724479
H     -3.650337004129    7.505793817875   -0.802167697218
H     -4.753407310064    7.064140617466    0.529066059943
H     -3.002524012337    7.204804730239    0.833504743113
C      3.319889616898    4.424739811261    3.491834468295
H      2.790455334544    5.225670389328    4.027278381450
H      3.144611235262    3.483571692822    4.036017046316
H      4.395153263861    4.638971179201    3.490779655124
C     -0.268776815156    5.398006113871    2.740803232330
H      0.380084738673    6.238729309717    3.033974292412
H     -0.711494908338    5.627177145488    1.758698011808
H     -1.079376510068    5.303764150565    3.478265332373
N      2.059503333904    0.856171216328    0.361838634208
C      1.177064000960   -0.147969641584    0.264073376262
C      1.589648372981   -1.483038319944    0.016766648521
C      2.938000344258   -1.748815845909   -0.118137250036
C      3.863861932248   -0.692798384063   -0.004344448149
C      3.362996992660    0.584490719446    0.237535293077
H      0.831422331644   -2.264183777395   -0.050259678707
H      3.285457604226   -2.768664129085   -0.300457404500
H      4.048210937225    1.432098924215    0.339432008034
C      5.332554297707   -0.942763393419   -0.177599367880
F      5.737319605520   -2.029994472381    0.507860305768
F      5.657913656597   -1.165692964058   -1.468996044632
F      6.076493827712    0.098046149581    0.238840102461
