62

C      2.237175512595    4.155571236654   -1.575727512823
H      3.229252419482    4.473575691439    0.313340523246
C     -0.268653213606    2.938477959569   -2.342062471566
H     -0.899946321652    2.052740982439   -2.227671253410
H      0.439008396084    2.936070688809   -3.172969354737
C     -0.700627077435    4.151302339836   -1.781185092065
H     -0.302738937862    5.107179359405   -2.132377461403
C     -2.034849849365    4.221929556802   -1.093699495425
O     -2.946810210546    3.461101328590   -1.298474656540
O     -2.103073482998    5.265543671507   -0.243706097132
Pd     0.790045152987    3.253815399236   -0.509013687543
C     -0.898201580274    2.835655221651    1.904249577114
O     -0.725938283899    2.386621983334    0.687446720246
O     -1.784551954845    2.494840100202    2.659328253486
C      0.099419040972    3.917149579625    2.374820771232
H      0.333327332586    3.691145225948    3.426531526858
N      1.283107429932    4.042051660727    1.536504345689
C      2.404522203239    4.423773536961    2.028216584616
O      3.482143546264    4.576145754082    1.256161127941
O      0.002574241174    0.032101707535   -0.064387374946
H     -0.394228411818    0.910969028252    0.224883361292
C      2.385451043974    5.554047000586   -1.541622672123
C      3.397297665464    6.221454330973   -2.255178593581
C      4.291409984963    5.468158244743   -3.049185760499
C      4.131048518984    4.076362983713   -3.096196663232
C      3.122082131693    3.422169774967   -2.381233300674
H      1.701493827375    6.156545062117   -0.935817531475
H      4.812736266289    3.484087794379   -3.714568960478
H      3.030788699874    2.336851618714   -2.461867090707
C      3.517874070801    7.723319296910   -2.172197128676
H      4.500603728579    8.031147595533   -1.775769450681
H      3.420897147135    8.193864530368   -3.165489316561
H      2.743566230729    8.153320683662   -1.520500104427
C      5.389314169357    6.142965005935   -3.833493897353
H      4.985271432370    6.870701880668   -4.557951841645
H      6.074702233796    6.704948105209   -3.176081663551
H      5.988656234858    5.410927233318   -4.393974018151
C     -3.335029925007    5.408299475583    0.492099665541
H     -4.177909346311    5.373937945748   -0.215714958390
H     -3.438406808767    4.544493295443    1.168831005134
C     -3.283283094029    6.719316918536    1.248606869563
H     -3.168957344331    7.571072449370    0.559995493333
H     -4.214899178629    6.858195557655    1.818886748816
H     -2.443464558006    6.736775733759    1.960914157677
C      2.675619561600    4.751087717893    3.472898692327
H      2.063289680102    5.607578357933    3.795814067477
H      2.420919733269    3.900296606116    4.122932333436
H      3.735610284435    5.000344224951    3.601987569045
H     -0.457733250905    4.871790630778    2.369905436505
N      2.000455262426    1.202909800823    0.014815935922
C      1.325273087460    0.041445322400   -0.008388765495
C      1.981201301070   -1.224295404106    0.014467114992
C      3.365795093080   -1.219697931658    0.113021253502
C      4.069689607484   -0.006475094704    0.190260763577
C      3.342949163407    1.171299581834    0.135109066074
H      3.904478901443   -2.171356660549    0.143678188973
H      5.156313686618    0.018999793379    0.286694414071
H      3.846554578314    2.139128991634    0.183124948545
C      1.156047470575   -2.478765548340   -0.045770968798
H      0.433890524133   -2.513798274884    0.785982556292
H      0.557561305328   -2.516705105078   -0.970733972286
H      1.791571094076   -3.375166645238   -0.001977627468
