72

C      2.171968089988    4.523221541942   -1.225711510169
H      3.462556759690    4.200714817811    0.368715151743
C     -0.015841052805    2.549163557206   -1.888150739376
H     -0.515403790403    1.646766681711   -1.525164776580
H      0.815625310600    2.425234229468   -2.583866973357
C     -0.626481519593    3.781969601516   -1.737582224013
H     -0.275310511058    4.659665126871   -2.285328064590
C     -2.003397758824    3.897194932542   -1.147056230712
O     -2.771966768671    2.981269916804   -1.004487558282
O     -2.286964804068    5.177575059075   -0.836898566806
Pd     0.840369284268    3.507719292661   -0.110598844509
C     -0.335058978388    2.753315889181    2.468629602610
O     -0.461449997433    2.466388306934    1.197200870971
O     -0.819745955782    2.122442234828    3.384984084554
C      0.490580179830    4.037464395017    2.752646588229
H      0.858112642571    3.949965652375    3.785333634833
N      1.601908163779    4.090486545101    1.792747205622
C      2.833628298575    4.154361404582    2.166017044576
O      3.824273258445    4.177589047931    1.283134640903
O     -0.008640678787   -0.013627867008    0.412640525177
H     -0.224543671925    0.901842286359    0.761017532569
C      2.147442728457    5.928685015671   -1.284282065165
C      3.073727417273    6.664270369808   -2.039566020505
C      4.074683896841    5.975726282258   -2.767667656663
C      4.101475802995    4.577836587330   -2.707086952821
C      3.166065590867    3.851977029033   -1.955695646286
H      1.383829688657    6.478302210201   -0.725503174022
H      4.871789318511    4.035259899815   -3.263768298436
H      3.230403121077    2.760339353217   -1.938533669082
C      3.001824032356    8.171291783758   -2.070544314950
H      3.932327050121    8.630841546915   -1.695545849058
H      2.859063393481    8.550061879768   -3.097044480063
H      2.170569589384    8.546183414035   -1.456095227329
C      5.090639524895    6.729672821162   -3.589484666391
H      4.609495344408    7.342708944513   -4.370747611724
H      5.683601532935    7.423757735100   -2.969501812363
H      5.791378171517    6.043596514413   -4.086967289133
C     -3.593884446029    5.426765285916   -0.286288082505
H     -4.351150092006    5.009181722125   -0.968892313765
H     -3.684373871198    4.881678461613    0.667294135863
C     -3.753221728562    6.921681240373   -0.105658193454
H     -3.652071325363    7.448846352602   -1.066986385946
H     -4.749726264010    7.144073088161    0.306559951007
H     -2.997811031405    7.321766364596    0.588299041469
C      3.326203524590    4.199120796469    3.588447701115
H      2.917339020789    5.069643598778    4.120858792736
H      3.014497867955    3.294387760969    4.131981123442
H      4.420951688059    4.259254229239    3.588106453274
C     -0.402300996879    5.306758425728    2.656001659166
H     -0.805785248123    5.331121236655    1.627741543322
C     -1.580863882437    5.231885994384    3.635683971707
H     -2.223428280502    6.120378835116    3.525964525680
H     -2.197180051703    4.335745053035    3.479244430463
H     -1.226276463232    5.204651232862    4.679967931456
C      0.406972273834    6.590455772072    2.876476335085
H      0.826050737658    6.627029896999    3.897135366670
H      1.236530241382    6.685415965382    2.159543461145
H     -0.236395384025    7.477074425425    2.758036028527
N      2.141000399778    0.834014266202    0.384821109205
C      1.297569188052   -0.185578168644    0.271124183056
C      1.758123577948   -1.512498054228   -0.021908722493
C      3.125206857471   -1.715197161546   -0.164826447330
C      4.003880755527   -0.623312292915   -0.020139191667
C      3.466109798531    0.622606125984    0.252403481828
H      3.521592279541   -2.708149373312   -0.380535082813
H      5.082794621242   -0.757685903410   -0.119425834496
H      4.109704069646    1.499442437131    0.377385779405
O      0.800318247878   -2.459385127104   -0.129435924242
C      1.185723861146   -3.787070530890   -0.394102898461
H      1.839162949146   -4.192267094786    0.400671300328
H      0.262293101481   -4.380190870634   -0.432152552577
H      1.710672007148   -3.879043629552   -1.363234948546
