74

C      2.151307860339    4.217209915479   -1.428930612904
H      3.233606588801    4.440567044563    0.331171940487
C     -0.248698553652    2.686716574484   -2.126663930927
H     -0.864741399062    1.813816494956   -1.894142081288
H      0.502432120020    2.572406163312   -2.910420343858
C     -0.714779605056    3.959225124284   -1.780065324448
H     -0.297187794884    4.854646434968   -2.244684001557
C     -2.076076669670    4.140712316900   -1.182640813230
O     -2.906192732023    3.274130125524   -1.066502243951
O     -2.276361563938    5.431986940893   -0.835485208769
Pd     0.763234316351    3.260965716877   -0.326467509491
C     -0.586229174910    2.555494342319    2.212773647236
O     -0.649590939473    2.309484840006    0.928872617087
O     -1.158765183131    1.913662959209    3.071749062614
C      0.261221830051    3.786207092832    2.618359921320
H      0.646242751498    3.554892885731    3.620523982869
N      1.370114871531    3.984994430256    1.675198366011
C      2.537441269951    4.315571096646    2.098895188285
O      3.553533478117    4.505495277155    1.257691387250
O      0.026657832704   -0.039374929898    0.079090645551
H     -0.348974321512    0.834456832330    0.414218328784
C      2.224251135952    5.622552311088   -1.428220018238
C      3.184398575226    6.326355191030   -2.175208636297
C      4.106816367116    5.603643610006   -2.967039355774
C      4.025834815850    4.204920013180   -2.976267043657
C      3.065510896962    3.513634075178   -2.228208351061
H      1.517821155140    6.198806846808   -0.822860985054
H      4.731875206655    3.635912601359   -3.589098859566
H      3.039109194112    2.422753922273   -2.276146671784
C      3.223317786908    7.834162066867   -2.130062732742
H      4.193979453645    8.204878640059   -1.758508119239
H      3.084258658476    8.274113188485   -3.132349560853
H      2.437168308376    8.236615124872   -1.475060880619
C      5.152249701901    6.319121949195   -3.786106956748
H      4.696143891762    7.005684381451   -4.519748434829
H      5.815671821795    6.933997320572   -3.154016626475
H      5.782337699859    5.608225951199   -4.340024089748
C     -3.580625230486    5.780216906197   -0.333963150026
H     -3.934181370365    4.977238933896    0.329576674031
H     -3.414908319864    6.690766161072    0.259482726050
C     -4.570792917867    6.031936425250   -1.459538962411
H     -4.755929536097    5.110546586628   -2.030686673598
H     -5.531556590172    6.373095750982   -1.041598699329
H     -4.198876297273    6.808894808640   -2.145793415114
C      2.942128727519    4.512334488177    3.537406207122
H      2.276135134611    5.222781747594    4.047118791497
H      2.891529976926    3.557246329635    4.083507779357
H      3.971183810439    4.889086505600    3.576703896841
C     -0.604278143194    5.064440282012    2.696344234292
H      0.062418247880    5.898948717389    2.985074122450
H     -0.963292478970    5.297542395438    1.679675171666
C     -1.800667463766    5.024243376126    3.667727857461
H     -2.508048480187    4.261368707289    3.299387376152
C     -2.517521390407    6.381054976668    3.657585521846
H     -2.823946965057    6.671744640890    2.639780576960
H     -3.422360858181    6.356814870892    4.285801268237
H     -1.863297408030    7.180335607372    4.047895302172
C     -1.402547827808    4.621511253729    5.093920809720
H     -2.263089849419    4.710153759488    5.776661928830
H     -1.063125926632    3.576396013717    5.128981062640
H     -0.602442470706    5.274135324861    5.488215338911
N      2.027876412832    1.123641496860    0.146533221192
C      1.348492211142   -0.035393638516    0.083229905365
C      2.014998906980   -1.282163348121    0.008902433659
C      3.401704155151   -1.336734079764    0.041409432175
C      4.098160235853   -0.112464402447    0.154778257108
C      3.372728812625    1.066629816393    0.201371157546
H      1.402724484897   -2.183604367690   -0.053218238184
H      5.188950613706   -0.085019566545    0.202993007773
H      3.889937373553    2.026534138243    0.283859269954
C      4.145468614217   -2.644746434908   -0.026341365717
H      4.779891246906   -2.782371111650    0.864906091358
H      3.459184534385   -3.500704356002   -0.094240520185
H      4.814689701470   -2.670327729391   -0.902456682639
