74

C      2.148856363684    4.480491477893   -1.298744820173
H      3.377643549788    4.277086462742    0.325365608665
C     -0.017315614833    2.533932125535   -2.039058093782
H     -0.524817090287    1.622681590049   -1.711395837480
H      0.830169124016    2.427707426100   -2.718029363600
C     -0.638654268749    3.760657713490   -1.876754046134
H     -0.279404106696    4.651929628958   -2.396512927711
C     -2.034488987814    3.853809517788   -1.327829730221
O     -2.798028225533    2.926836139269   -1.234191640380
O     -2.333223837719    5.126020281230   -0.997559431694
Pd     0.789922458820    3.455429992467   -0.224070738021
C     -0.506407874108    2.701951400589    2.301487434690
O     -0.569550579035    2.423161342962    1.025148306241
O     -1.099516254613    2.106912255421    3.179566549559
C      0.381893769615    3.917884738273    2.665540947455
H      0.763317365019    3.717930731359    3.674929790552
N      1.492832179619    4.029387430628    1.707038767308
C      2.702531793371    4.226943916787    2.104844476765
O      3.712581309691    4.314022099329    1.249691453843
O     -0.079964124525   -0.059397784049    0.276578245063
H     -0.318698841956    0.861861338640    0.592835823251
C      2.119295728513    5.886472311601   -1.348712920322
C      3.057020004092    6.631394512404   -2.080439312610
C      4.074890169427    5.952163174319   -2.793456738965
C      4.107114741753    4.553862966385   -2.741307843929
C      3.160921862222    3.819059191142   -2.012944105141
H      1.344549515937    6.428918476242   -0.798145825001
H      4.890940761528    4.018602339830   -3.286057221153
H      3.229779127365    2.727751568751   -2.001797900391
C      2.979512160167    8.138263837384   -2.101415346330
H      3.900588530368    8.598495168185   -1.704648761235
H      2.855416671471    8.524310002326   -3.127615385516
H      2.134800943107    8.505035602705   -1.500597798784
C      5.103469039290    6.716063975467   -3.589884071810
H      4.634988040142    7.332447126305   -4.376150620601
H      5.680795364298    7.408368582170   -2.953427695841
H      5.816971084772    6.036579046270   -4.078119223598
C     -3.660435645897    5.378140379093   -0.493502246092
H     -3.958842056968    4.539914330519    0.153042640778
H     -3.556155807971    6.285682363784    0.118299277298
C     -4.660601623293    5.583478462443   -1.618974076774
H     -4.781410757908    4.662509902055   -2.207957702928
H     -5.643638147032    5.850949165855   -1.199294217184
H     -4.340045924359    6.396498396781   -2.289113450499
C      3.145510060748    4.366446943920    3.537810347160
H      2.562944550363    5.135651422789    4.064167598878
H      3.007708375326    3.414681157996    4.074389538655
H      4.207964791306    4.636380659693    3.561733402140
C     -0.433469618525    5.229733427568    2.680935955815
H      0.260478187513    6.050705690696    2.943034688030
H     -0.773649643450    5.431604434936    1.650586511089
C     -1.644359468533    5.272015710159    3.633014349751
H     -2.366350892258    4.509788442035    3.292655723902
C     -2.324176510716    6.644486250837    3.538437639325
H     -2.606369125944    6.887919143899    2.500726520083
H     -3.238946120393    6.677844903031    4.151605088093
H     -1.655000792106    7.446631981502    3.895962620331
C     -1.277612554129    4.932061728728    5.083582599100
H     -2.145426012837    5.074914027184    5.747620888307
H     -0.964909595406    3.881905628391    5.175757805525
H     -0.466998710343    5.583607606609    5.457365340697
N      2.054158881829    0.820008135166    0.286989398603
C      1.235864765442   -0.230124669315    0.181092857734
C      1.703472035067   -1.557040466089   -0.045201155205
C      3.079649048156   -1.728742474096   -0.138628072632
C      3.946750780552   -0.631205208580   -0.008484836828
C      3.379325969573    0.618259200494    0.203624940142
H      3.483769130732   -2.731500453225   -0.307656494421
H      5.030174463353   -0.749607727662   -0.069819926838
H      4.009899137201    1.507631293867    0.314713200269
C      0.714708307516   -2.683014574365   -0.158360330305
H      0.094891753585   -2.754341149062    0.750351417766
H      0.013168409441   -2.513613241784   -0.991929258558
H      1.222109888333   -3.646030598099   -0.317008066647
