18

C      0.007690602802    0.010129441422    0.000026579486
H     -0.539123342154   -0.936387833075    0.000055754885
C      1.405433945833    0.010149418992    0.000128911194
C      2.138685968621    1.205356944302    0.000104832253
C      1.441029263907    2.437162912900   -0.000038646886
C      0.038899366887    2.422967592365   -0.000156724183
C     -0.679936750138    1.224237250293   -0.000121980275
H      1.944456117629   -0.941942381358    0.000237663692
H     -0.500451576204    3.374873253278   -0.000277154919
H     -1.772906058697    1.242041975140   -0.000214863089
C      3.647552753288    1.175835233776    0.000309472327
H      4.066108334527    1.688389747481   -0.882867458876
H      4.065792709485    1.687005633917    0.884452211299
H      4.027838450347    0.143921950851   -0.000415048779
C      2.191655680664    3.746425785189   -0.000089154368
H      2.845977747477    3.842021883590    0.883451615854
H      2.845646119563    3.842114848315   -0.883869788195
H      1.502213135512    4.603240888675    0.000075234226
