75

C      2.215068402380    4.695673326313   -1.311512260429
H      3.400489641788    4.558588094295    0.355127989956
C      0.177956833077    2.640191185865   -2.117727497260
H     -0.290763135356    1.706772532014   -1.794643734265
H      1.056223276743    2.573066080213   -2.762055022203
C     -0.513174403342    3.831831456237   -1.993062733838
H     -0.182185524484    4.735443324530   -2.510764415953
C     -1.922636615579    3.865815284375   -1.466649630193
O     -2.657254468623    2.911924547830   -1.422001859657
O     -2.252371790331    5.111318028132   -1.085892922082
Pd     0.857204641612    3.631208386626   -0.278394048400
C     -0.502671978082    2.799522425363    2.190675220386
O     -0.487340125492    2.523095517729    0.916132579997
O     -1.131190195093    2.199426086051    3.037684996609
C      0.367749762583    4.021438585853    2.618906880046
H      0.751989271740    3.738964143170    3.609900838010
N      1.475777813772    4.215623276783    1.677092370469
C      2.657085928797    4.509191321501    2.110382066274
O      3.685406314709    4.651244035401    1.292865671834
O      0.022210854657    0.032674223689    0.241388527387
H     -0.218195033719    0.967343838397    0.526362738398
C      2.096040835266    6.089381567094   -1.461028706587
C      3.044451219453    6.851962442995   -2.160140373020
C      4.165117646542    6.204149224963   -2.735349575224
C      4.283077499625    4.817500475694   -2.588230547867
C      3.325007230195    4.063583960330   -1.895085558086
H      1.236856994940    6.608270346733   -1.024752294771
H      5.145203209509    4.305738774952   -3.026375417516
H      3.462770100968    2.982028249654   -1.808805013873
C      2.869614367040    8.344840838301   -2.292253636230
H      3.717552680951    8.893950648202   -1.848428383275
H      2.816523081209    8.655206528138   -3.349698210152
H      1.950317899950    8.687148957943   -1.795479528423
C      5.209932819810    6.988776986496   -3.489228015890
H      4.775766148207    7.521456347006   -4.352564671266
H      5.680802063905    7.757254825622   -2.852596428729
H      6.007436110848    6.332761224686   -3.866852190494
C     -3.564265014684    5.307025372634   -0.517173220950
H     -3.826835490234    4.418260143319    0.074531223044
H     -3.445647511859    6.165460960948    0.158666566048
C     -4.603710927586    5.578094559246   -1.591557499515
H     -4.732531154184    4.701150004989   -2.243153839374
H     -5.575541905595    5.799076867134   -1.121639028857
H     -4.317216547836    6.442818609939   -2.210613746440
C      3.027938915117    4.719901992620    3.553869837436
H      2.347761302066    5.437539338577    4.034083951065
H      2.964804231561    3.769854072779    4.107625743403
H      4.057300263502    5.093020194862    3.610761586838
C     -0.506872103220    5.265913422237    2.793574970163
C     -0.258998534651    6.460800125909    2.104729378183
C     -1.076248395775    7.580478489616    2.303501043587
C     -2.150791336350    7.519574268770    3.192684194583
C     -2.404893929464    6.328326474563    3.883034859219
C     -1.591860559567    5.211382926311    3.687029982491
H      0.576149730613    6.521230050987    1.405561010484
H     -0.866613598303    8.504560672260    1.758159703779
H     -2.786375708227    8.394733561398    3.350704355612
H     -3.243478030843    6.268382062488    4.581782364555
H     -1.799343502321    4.276218223981    4.211392889358
N      2.159883317320    0.886971464666    0.344006381281
C      1.327682200823   -0.155803903710    0.189647663505
C      1.806907534226   -1.470152529310   -0.041334771709
C      3.171089776313   -1.681676275300   -0.097810104705
C      4.049361482910   -0.590503746260    0.075204812330
C      3.474654254975    0.666593992174    0.293389189493
H      1.084473455415   -2.278728203398   -0.160515034766
H      3.575932173083   -2.680252327602   -0.270180721168
H      4.132036633932    1.531662801997    0.431075856637
C      5.526859592537   -0.702859455209    0.036215911963
O      6.296057145530    0.223552716370    0.169353194500
O      5.939631111633   -1.972585726549   -0.169044366534
C      7.349476382480   -2.175158867708   -0.219436932583
H      7.824754647129   -1.868928934802    0.725088186100
H      7.499505754776   -3.248664432433   -0.389436337348
H      7.801764404729   -1.593019479049   -1.037035252251
