74

C      2.127858308011    4.522667977355   -1.300600355263
H      3.356367382363    4.312780712886    0.324306562646
C     -0.030997964035    2.569121016647   -2.047285885368
H     -0.533704253873    1.654471745385   -1.721485599174
H      0.817463553601    2.468595141644   -2.725936495070
C     -0.657709442281    3.792736257671   -1.882848805843
H     -0.301821550127    4.686618092004   -2.400522349152
C     -2.054395918394    3.879193515266   -1.334706166239
O     -2.815523700680    2.949787583034   -1.247030879508
O     -2.356899765896    5.148910077366   -0.997974872560
Pd     0.770766031637    3.491265494204   -0.229424415827
C     -0.529104112797    2.731386011873    2.291328166955
O     -0.586589554117    2.452642567398    1.014960337389
O     -1.126575527974    2.137349184011    3.167131333874
C      0.358146327466    3.947079388612    2.659923521699
H      0.738279817106    3.744761931972    3.669351384479
N      1.470403274874    4.061955041441    1.703388479774
C      2.679393031280    4.258874443683    2.103030710412
O      3.690640671110    4.347743085062    1.248979313710
O     -0.081090717341   -0.027475183529    0.243146563153
H     -0.325907005964    0.886286603543    0.571777982744
C      2.094332372688    5.928696566930   -1.347365271310
C      3.030277905401    6.678197687455   -2.076664708210
C      4.050733810492    6.003759634810   -2.790556311246
C      4.087174911121    4.605450798732   -2.741590642781
C      3.142665596201    3.866187372617   -2.015559010410
H      1.317537685417    6.467531189667   -0.796118830314
H      4.872952920791    4.073951234192   -3.287266837700
H      3.214437953390    2.775013204908   -2.006914325957
C      2.948106609661    8.184870602831   -2.094297400244
H      3.867583652160    8.647112831006   -1.696143066438
H      2.823175457572    8.572823106108   -3.119684475593
H      2.102008794259    8.547648900414   -1.493002378897
C      5.077408500396    6.772673707607   -3.584628683133
H      4.607461839054    7.389479675838   -4.369706288937
H      5.652302929594    7.465276218372   -2.946259465741
H      5.793247749985    6.096526211382   -4.074142340832
C     -3.685189640815    5.394338050253   -0.493407587898
H     -3.981280183125    4.551941292372    0.148768996500
H     -3.584106990222    6.299124142289    0.122997074285
C     -4.685428838542    5.602144176449   -1.618353486425
H     -4.803050298963    4.683723429275   -2.211928007612
H     -5.669511894765    5.864440519520   -1.197842702285
H     -4.367091374088    6.419484640041   -2.284293432406
C      3.120742947694    4.395414187169    3.536767196158
H      2.536335929365    5.162209046672    4.064549688031
H      2.983878313021    3.442052094445    4.070760014952
H      4.182705372202    4.667119923453    3.562569756242
C     -0.457873944621    5.258505511590    2.677502608988
H      0.235448511268    6.079259562716    2.942018572248
H     -0.797238515302    5.462487822621    1.647290158462
C     -1.669643694901    5.298314955579    3.628557997563
H     -2.390968809040    4.536521157571    3.285933791714
C     -2.349752958942    6.670801303098    3.536339683703
H     -2.630963953882    6.916488500119    2.498889549813
H     -3.265158736046    6.702527285848    4.148646220053
H     -1.681188124050    7.472370398708    3.896324635599
C     -1.304098631338    4.955299905494    5.078690999425
H     -2.172498885955    5.096617198268    5.742292909819
H     -0.991472696710    3.904942342499    5.168724071447
H     -0.493859395892    5.606106040499    5.454613372302
N      2.052469867867    0.861367598545    0.286750961112
C      1.234912881413   -0.188193137853    0.159738037563
C      1.736465162960   -1.490231794632   -0.078336426906
C      3.106009360070   -1.671254910482   -0.162664826164
C      3.982737426500   -0.576476707678   -0.009114270516
C      3.378147249100    0.660607341217    0.213410989594
H      1.030736864239   -2.316203100368   -0.179653047267
H      3.510362477176   -2.672430713593   -0.342574163369
H      4.002556490265    1.553504209319    0.342204114908
C      5.480204481689   -0.734308342181   -0.077924823066
H      5.990400996591    0.233059069975    0.045877933974
H      5.854020592051   -1.410601254931    0.709770134093
H      5.800712013302   -1.159605549666   -1.044238456179
