65

C      2.184034573168    4.212029439548   -1.426109016451
H      3.291052275584    4.404740484937    0.343953485120
C     -0.275575540632    2.796893543690   -2.111912331551
H     -0.900888945901    1.922949692376   -1.909652277247
H      0.444951816080    2.715791836543   -2.927828593402
C     -0.711700296516    4.055413377839   -1.679831125106
H     -0.298268617686    4.970558536381   -2.109115286619
C     -2.051293547976    4.213562314755   -1.027742818618
O     -2.902853393238    3.362422752872   -0.972816109970
O     -2.213002038438    5.466297335402   -0.548298191418
Pd     0.796688078637    3.262440571994   -0.317313632452
C     -0.578399624690    2.582992956334    2.222836899868
O     -0.619482963630    2.320847714913    0.939606447504
O     -1.209372261804    1.996431160779    3.076420151041
C      0.319859943706    3.778062624990    2.634232046349
H      0.688935270215    3.523515348028    3.638785379120
N      1.431389806868    3.958293596437    1.693970886234
C      2.604415630627    4.270026869399    2.114402653869
O      3.618585498347    4.452382254452    1.268740322761
O      0.013657198833   -0.011949617654    0.052752293367
H     -0.347717812302    0.863778055465    0.403476442108
C      2.291518440744    5.614670086285   -1.392938590148
C      3.254039762320    6.313560264209   -2.141988501630
C      4.141999857597    5.588799826552   -2.970064383949
C      4.025537091725    4.193031731518   -3.012322860169
C      3.063648772253    3.506851304146   -2.261992613539
H      1.611726743541    6.193362232701   -0.759980669448
H      4.704228846084    3.622529746525   -3.653966970571
H      3.008044309093    2.418685078323   -2.337334167336
C      3.331046354548    7.818397639508   -2.060800517081
H      4.317569101199    8.156219876666   -1.699794619858
H      3.183493172084    8.286411689738   -3.049058362602
H      2.567903989272    8.223466792474   -1.380614723122
C      5.188286462719    6.298744118616   -3.792876123733
H      4.734776036595    7.014075334507   -4.500198829854
H      5.879263516796    6.881521132397   -3.159884371247
H      5.789367983077    5.586650793885   -4.376681456694
C     -3.490475855648    5.762136715901    0.044123939290
H     -4.283950874966    5.493064551085   -0.671336676024
H     -3.628297967179    5.121763320177    0.930583764040
C     -3.518283743748    7.235071835486    0.395562579684
H     -3.372834257210    7.857366239094   -0.501080296305
H     -4.490697479274    7.495053746842    0.842058217850
H     -2.729581366699    7.487149626995    1.121310543721
C      3.016852234001    4.455557171268    3.552301016279
H      2.381898738654    5.198659520722    4.055872605965
H      2.923007193666    3.507789335533    4.105038906385
H      4.060942395466    4.788344446018    3.591298605885
C     -0.534248781263    5.051081652608    2.729831664202
H      0.059811581614    5.900461262208    3.103987878997
H     -0.937305341072    5.319854023936    1.741985379918
H     -1.371858046534    4.877094866893    3.421363224023
N      2.033248554024    1.118800311000    0.093518316008
C      1.337356780316   -0.028345194802    0.038253137050
C      1.970437799737   -1.303407828360   -0.047335053598
C      3.358360401460   -1.324501717339   -0.027646869184
C      4.087546424591   -0.128229148199    0.078137178176
C      3.378856379475    1.061141969912    0.133967792094
H      3.880852507867   -2.284186867588   -0.081912795912
H      5.178259495897   -0.124780637187    0.113144891883
H      3.901259555855    2.017891994372    0.211060376610
C      1.120854721660   -2.540053751167   -0.130639764297
H      0.446359045188   -2.611234252437    0.738048787955
H      0.470203862485   -2.516219531386   -1.020235089686
H      1.741290304237   -3.447094179169   -0.173697789763
