32

C     -4.682102701392    0.731524264907   -0.481195060581
H     -4.533305478674    1.539645533445   -1.203557453880
H     -5.175508086413    0.963538657176    0.465141949926
C     -4.482610738363   -0.570293073099   -0.872236612623
H     -4.801645765138   -1.410087766142   -0.249348723483
C     -4.070574725378   -0.885740894137   -2.279360024955
O     -3.886769207648   -0.061880578817   -3.142855943622
O     -3.935744604122   -2.208439265712   -2.450851139204
Pd    -2.626813599789    0.124856982526    0.199906577245
C     -2.192657063366   -0.610645531164    2.883128109818
O     -3.193068257463   -0.451632317952    2.023775475103
O     -2.373821709015   -0.933134197487    4.032425772700
C     -0.744718289202   -0.385617289033    2.335375171205
H     -0.300376960104   -1.398441054251    2.259203654789
N     -0.870393227840    0.212729356680    1.020866411159
C     -0.143235035382    0.271419392231   -0.093596540609
O     -0.828263252550    0.509420713890   -1.137943989834
C     -3.530622389813   -2.653684307959   -3.759848786019
H     -4.258712082936   -2.283571676741   -4.499668525939
H     -2.560265579797   -2.191488921416   -4.003188288988
C     -3.455689384724   -4.165464874989   -3.738778818942
H     -4.433683659426   -4.606317284815   -3.491827265691
H     -3.148784421916   -4.538309018715   -4.728237290906
H     -2.722327799114   -4.514540366288   -2.995692301165
C      1.347048050231    0.102792408600   -0.141166417136
H      1.835355038591    1.005157490896    0.260932409661
H      1.670132493007   -0.753463758587    0.471235251495
H      1.665183738677   -0.038281219412   -1.182264616658
C      0.077897623492    0.445103730657    3.319595774608
H      1.134842708816    0.500632809536    3.016955670885
H     -0.321721911788    1.468242211024    3.392050392990
H      0.013743126617   -0.025741250795    4.311561038178
