74

C      2.190613189085    4.523875563545   -1.219945188525
H      3.469071098864    4.248936149492    0.389346738497
C      0.012355179804    2.551627084889   -1.886993154492
H     -0.488282124180    1.646424929325   -1.533113705356
H      0.841552265618    2.433569104090   -2.586341057425
C     -0.604351732321    3.781420513793   -1.729073024141
H     -0.258599606255    4.663705297649   -2.272653795013
C     -1.982581587202    3.883908899491   -1.139966830796
O     -2.738764132293    2.958742437754   -0.988534974984
O     -2.283392973701    5.162801704265   -0.841451721587
Pd     0.865092038136    3.499877925641   -0.106600383948
C     -0.314411327404    2.751456597279    2.477078026101
O     -0.435820883809    2.456403241106    1.205793187576
O     -0.785610484611    2.112599104709    3.394548659828
C      0.485946308769    4.051895916171    2.754315790525
H      0.847590272719    3.979446277278    3.790248869559
N      1.602562805481    4.115213183552    1.801399822380
C      2.830257543185    4.203569334083    2.182754188297
O      3.825992148053    4.237196599799    1.305722651483
O      0.053064465924   -0.004116457666    0.477283908402
H     -0.186297703009    0.921376047319    0.799005501050
C      2.158793428402    5.929289443429   -1.274827453315
C      3.081394618171    6.671155942586   -2.028603091328
C      4.085012745739    5.989092598549   -2.759036657585
C      4.118205991153    4.591098132231   -2.702362307525
C      3.186847096866    3.858859222755   -1.952348580698
H      1.392967095744    6.473683062777   -0.714082772855
H      4.890356348690    4.053459632713   -3.261207850779
H      3.255636269502    2.767566337637   -1.939534637775
C      3.002514742556    8.177875569229   -2.055430708506
H      3.931108893858    8.640587508572   -1.679637878891
H      2.857580249492    8.558643266472   -3.080864482789
H      2.169843199564    8.547361468387   -1.439636134938
C      5.096964022810    6.749806766658   -3.579466926632
H      4.612391569628    7.362789997811   -4.358610291337
H      5.687106426681    7.444811481518   -2.957866986667
H      5.800437152307    6.068326784478   -4.079331322739
C     -3.594306848234    5.400398414075   -0.294849561361
H     -4.345033032097    4.965707445941   -0.973982931033
H     -3.678655205594    4.864091047503    0.664296187638
C     -3.773512415928    6.894867288686   -0.129896263989
H     -3.678378596028    7.413291478111   -1.096581231452
H     -4.773296186722    7.108292577741    0.279080184129
H     -3.024144923612    7.312113565998    0.560532243166
C      3.312966492816    4.268302717251    3.607781495773
H      2.889671295239    5.138924156588    4.128757287119
H      3.009331637718    3.365197324717    4.158529419471
H      4.406835968323    4.342557041220    3.613920611349
C     -0.427571431814    5.304859767329    2.640860170329
H     -0.817880056494    5.318437699210    1.607459471725
C     -1.617325583265    5.213573970019    3.605538533876
H     -2.270791086054    6.092938192070    3.487286399078
H     -2.219716569721    4.309292556448    3.441258281100
H     -1.276182643983    5.191179961665    4.654357841797
C      0.357132701517    6.602722593260    2.866923194743
H      0.760739222248    6.650704855056    3.893295923175
H      1.195320768956    6.708210726440    2.161571781485
H     -0.298853346950    7.478077983832    2.734929789539
N      2.171416661520    0.884001903074    0.396619664467
C      1.358637728785   -0.155636879630    0.320645570699
C      1.832354930393   -1.495657425866    0.054092532093
C      3.235924129056   -1.684366713393   -0.118489119447
C      4.081791973510   -0.540769090046   -0.007494548954
C      3.509630984669    0.681442452475    0.246460130312
C      0.951639796501   -2.601359895976   -0.033279603725
C      1.448443602578   -3.865317185618   -0.292755311967
C      2.839344823160   -4.059744105900   -0.468861669297
C      3.715998571134   -2.994883772264   -0.383008124825
H     -0.116227577566   -2.430364853288    0.109513315335
H      0.768931830641   -4.718489082207   -0.359951370613
H      3.221829908550   -5.063610889168   -0.672454331840
H      4.790236069543   -3.148318391639   -0.516371564694
H      5.163729100169   -0.638825012033   -0.119014784094
H      4.133488821072    1.575786122310    0.345730387052
