71

C      2.060991639386    4.632670680428   -1.281639172129
H      3.341905515539    4.157198712413    0.233314391522
C     -0.014812236576    2.472716509680   -1.923107873595
H     -0.555254859834    1.620119587178   -1.503418290273
H      0.875940494549    2.266608292171   -2.518403920943
C     -0.614076318297    3.716401620017   -1.963611924991
H     -0.201038771504    4.524160566444   -2.571180506716
C     -2.035713268948    3.910314519593   -1.518264585458
O     -2.799289660337    3.022201912886   -1.236310344067
O     -2.351985732057    5.220036122423   -1.519137868466
Pd     0.720733453687    3.600539055285   -0.183991510594
C     -0.503159483044    2.827764329764    2.376806996048
O     -0.568372011093    2.535885841016    1.102993579555
O     -1.135101532718    2.269776473277    3.251383236358
C      0.463593908526    3.987493726803    2.743946015865
H      0.898792828855    3.708525914873    3.713075587114
N      1.520551030276    4.068712631657    1.723192322482
C      2.769603320381    3.994522705648    2.044557228057
O      3.727605369277    4.029907414091    1.130356817859
O     -0.197563654679   -0.009659355820    0.439416776436
H     -0.361306109223    0.933101851813    0.734542252108
C      2.042953326990    6.039652125050   -1.298262176529
C      2.960219876087    6.794375292693   -2.044864530807
C      3.948535831958    6.124748470610   -2.807738690538
C      3.971544509438    4.726016382946   -2.788456017801
C      3.043636106754    3.981743265292   -2.045515467406
H      1.289706004141    6.576558853126   -0.713943430731
H      4.732779103932    4.197422312954   -3.370423338639
H      3.110288648374    2.889910386047   -2.059843206511
C      2.892825698691    8.301759252040   -2.030538262003
H      3.830634642424    8.747260128469   -1.656916070871
H      2.735377682803    8.710555366642   -3.043238040502
H      2.072478383255    8.660908384432   -1.392552022218
C      4.955352556291    6.899803886389   -3.620965984350
H      4.465209854635    7.537630478661   -4.376296839224
H      5.559366093775    7.572981344081   -2.988766022062
H      5.646538400024    6.226907372041   -4.148852206505
C     -3.700211543481    5.573409320614   -1.150823049371
H     -4.036347580911    4.900445480958   -0.348596938362
H     -3.620016558809    6.595448455474   -0.753850672214
C     -4.640781491594    5.514009869260   -2.342804006006
H     -4.736852310427    4.483341627358   -2.714845196077
H     -5.642361994236    5.863129917681   -2.044598930205
H     -4.282062910671    6.156952900620   -3.161759174061
C      3.321033723947    3.834262304004    3.437349756147
H      2.976620198490    4.635995253736    4.103955061320
H      2.993242665970    2.874141816586    3.865146853436
H      4.416277767458    3.849091478965    3.391099891907
C     -0.299620406606    5.347643224192    2.975445475929
C     -1.267121158222    5.667762246915    1.822001619548
H     -1.760557282646    6.636153265536    2.005053318492
H     -0.749801022642    5.737415436324    0.852647391264
H     -2.052905629712    4.902989229494    1.729638219661
C     -1.101679785316    5.224413771497    4.286346252096
H     -1.794773359164    4.373049418001    4.254451848491
H     -0.432044190345    5.074753412859    5.149572414681
H     -1.677148190320    6.147240460259    4.464823429604
C      0.712179579209    6.499765199296    3.117725241164
H      1.414714791233    6.325346351851    3.949146725824
H      1.297304108773    6.652171981181    2.198102693470
H      0.181162033424    7.440064922376    3.336461463945
N      1.998615988421    0.702254309713    0.425758123577
C      1.096566381573   -0.279950533679    0.313797013414
C      1.474018875265   -1.618351352332    0.047928712783
C      2.821151567521   -1.912825472605   -0.093377926529
C      3.770297683760   -0.884911024044    0.031721320689
C      3.298210121118    0.398047890125    0.291606949457
H      0.695942707521   -2.379082842653   -0.032024655067
H      3.138470129061   -2.939435917371   -0.296573495419
H      4.840266099932   -1.076144619292   -0.068505297419
H      3.997572423647    1.235924137762    0.399307348883
