83

C      2.190338985232    4.959707484218   -1.133257327433
H      3.540939941754    4.805438096813    0.429872782730
C      0.393526954126    2.554841891887   -1.732603309782
H      0.001284975960    1.630560227691   -1.300281236213
H      1.279885215291    2.487283088407   -2.365335005062
C     -0.381510358504    3.697406626667   -1.725573787560
H     -0.119505906188    4.565547039954   -2.334735581367
C     -1.786592511088    3.680298609407   -1.191286593748
O     -2.431723955366    2.686669060544   -0.975873070910
O     -2.246472236330    4.934452083588   -1.020458055850
Pd     1.012612775382    3.781724286675   -0.004412576991
C     -0.004608393372    2.872286220208    2.588768211692
O     -0.099642769546    2.559958024863    1.320433096945
O     -0.385564892841    2.185291346959    3.513239158308
C      0.632214983829    4.263162085038    2.849221826485
H      1.020491782884    4.243014977796    3.877214945232
N      1.717399192507    4.451378403409    1.873713542388
C      2.933846996731    4.688191571228    2.234232071017
O      3.904032185192    4.839022547908    1.344388716198
O      0.236946097355    0.037955297811    0.649301534021
H      0.117140825627    0.986849627836    0.962426129998
C      1.954034127355    6.343511694915   -1.224644214862
C      2.764923337099    7.192868616328   -1.992823815137
C      3.865177028839    6.646852603084   -2.698797956320
C      4.103019911724    5.271282592148   -2.604058215456
C      3.281146919623    4.429034552930   -1.840712880817
H      1.110684313379    6.784037400298   -0.684102504592
H      4.952153336570    4.838441049837   -3.141612709153
H      3.514761476329    3.361263111405   -1.795820951433
C      2.466193964829    8.670384701231   -2.061035128373
H      3.313508277429    9.274028126055   -1.693317543851
H      2.276325715407    8.998726956211   -3.097163393341
H      1.582787459930    8.929564782337   -1.459814214671
C      4.762847752088    7.526644816970   -3.533091541807
H      4.201754383657    8.040206247034   -4.332491894171
H      5.237166182150    8.317524062919   -2.927127418341
H      5.564516730469    6.943371915133   -4.008696734269
C     -3.597952950083    5.061399552916   -0.538727313559
H     -4.262891551782    4.474021310413   -1.191731693931
H     -3.656695207054    4.613989360699    0.466847485082
C     -3.960037030003    6.531531656496   -0.530937757286
H     -3.892299162879    6.960413544977   -1.542663468083
H     -4.992188121757    6.660292304530   -0.169901812038
H     -3.291084486014    7.102261453978    0.131663010484
C      3.424324396644    4.813829421467    3.651889400620
H      2.905327187241    5.627650534575    4.178194031302
H      3.240780193073    3.881142308950    4.206382359595
H      4.500990479791    5.020185581928    3.641636970331
C     -0.434772603682    5.393281999304    2.748781064209
H     -0.854054507159    5.341124631987    1.726250521007
C     -1.571534154265    5.150768648132    3.751489893835
H     -2.373339289145    5.893060770595    3.623226590931
H     -2.012662419084    4.151050452140    3.640352369237
H     -1.204053074854    5.230674598704    4.788837488134
C      0.200751007438    6.786575513569    2.921976247390
H      0.606451968710    6.869835872814    3.947904878439
H      1.061229663676    6.873123999193    2.238750449627
C     -0.744712301215    7.960822979741    2.655142110609
H     -1.575020680983    8.002721464138    3.376808511478
H     -0.207434451175    8.920422149060    2.719627224796
H     -1.184657454024    7.895268375407    1.645431666042
N      2.447542303498    0.621658094283    0.526900485509
C      1.508301821182   -0.279519640288    0.449637915700
C      1.762393089241   -1.679773393273    0.124900109052
C      3.101248269080   -2.082534832946   -0.120749002843
C      4.150048115266   -1.075973986480   -0.023284696898
C      3.758358366767    0.256137454561    0.309140110917
C      0.707171979561   -2.615003804086    0.054441742730
C      0.967566657089   -3.938977421017   -0.261231826811
C      2.291618614879   -4.349169898654   -0.510396197426
C      3.337000970469   -3.440751994691   -0.441027905557
C      5.520557675574   -1.348016937519   -0.237070578374
C      6.480788009003   -0.353198381903   -0.127337198812
C      6.093566765392    0.958705238980    0.205688949780
C      4.757091227317    1.255182753270    0.420341627503
H     -0.307605097322   -2.269541141837    0.254527317365
H      0.150623532337   -4.662713704126   -0.315150324661
H      2.499596341084   -5.393266093562   -0.759093692431
H      4.353402744880   -3.785532472591   -0.636140102096
H      5.836177775343   -2.361282057405   -0.492318872913
H      7.534142621986   -0.589685563425   -0.296520309706
H      6.847734265804    1.744802284103    0.298449318100
H      4.443892192130    2.265883400249    0.686509290473
