83

C      2.171844726750    4.917388710571   -1.264395872991
H      3.431544897325    4.919105353996    0.343207539490
C      0.390676334566    2.545325806149   -1.914529366125
H      0.008717272180    1.604852747288   -1.508715699324
H      1.287063266752    2.507572276064   -2.535440374120
C     -0.407596644019    3.672177643844   -1.896478497368
H     -0.153610142235    4.558163267881   -2.483312817309
C     -1.822965990751    3.614166041133   -1.390993019796
O     -2.460345051018    2.601921525781   -1.252012639878
O     -2.292434846964    4.854109288568   -1.152343142164
Pd     0.956336836752    3.755265439851   -0.157496941339
C     -0.216437291091    2.884490533752    2.384852024993
O     -0.238119450715    2.566545610707    1.116100095828
O     -0.735816682116    2.245070545394    3.277585175295
C      0.510243828317    4.210983913166    2.712159195575
H      0.919218640075    4.088335601401    3.722875844734
N      1.594912227277    4.438863597641    1.741324545224
C      2.763771538633    4.826828686767    2.126810566496
O      3.749699048495    5.035210968735    1.267971509328
O      0.156867899329    0.037075502450    0.485294166112
H      0.000843475778    0.986979781343    0.774031222050
C      1.920213647017    6.294330850088   -1.408294400809
C      2.748790252688    7.132231085846   -2.170254649877
C      3.883144904475    6.581574322869   -2.815859885240
C      4.136757120563    5.213281232698   -2.668566962055
C      3.297864730144    4.382607822323   -1.911438233357
H      1.051720255265    6.739087436875   -0.912527174525
H      5.012649085174    4.777458650860   -3.158720929474
H      3.544488254884    3.320537722230   -1.822972846732
C      2.432796739734    8.602452715234   -2.294917041278
H      3.256599927279    9.229234179229   -1.912762889784
H      2.279548063024    8.897061903295   -3.347141785105
H      1.522907019229    8.866162173246   -1.736699329432
C      4.800250710928    7.448937254499   -3.641939989205
H      4.263375140625    7.929595788824   -4.477608539432
H      5.239729085982    8.264859378096   -3.042951838819
H      5.627697621466    6.863608967108   -4.068326305499
C     -3.653161166261    4.963252563255   -0.686232405773
H     -3.858020254749    4.132038014600    0.004250444071
H     -3.678905652854    5.910313313322   -0.128207844073
C     -4.643146168917    4.973781056935   -1.838860450688
H     -4.631652025622    4.012626522477   -2.373450303360
H     -5.662114039445    5.136617440219   -1.452697677572
H     -4.412169272793    5.781354813474   -2.551079931746
C      3.178553454542    5.072787920658    3.553318939991
H      2.487458293176    5.761547003368    4.059079328871
H      3.183727982311    4.126464070436    4.116527544284
H      4.189100150279    5.497818600715    3.565253091490
C     -0.466141538734    5.408175235059    2.697103511477
H      0.115719069142    6.318273721435    2.936570891467
H     -0.827900039468    5.539124375065    1.662400887209
C     -1.674466339737    5.318741808214    3.648937074727
H     -2.284769854083    4.453789213001    3.337202050382
C     -2.534750293365    6.581431742546    3.506430233322
H     -2.848795567260    6.743628323998    2.461876589208
H     -3.445025990315    6.513142479536    4.123281857761
H     -1.981210134912    7.480538622026    3.829352039091
C     -1.267797709732    5.082955406072    5.109424493089
H     -2.148683193667    5.126865298616    5.770043541991
H     -0.813236946994    4.089889969737    5.237686510647
H     -0.556118954277    5.852755366347    5.458969506253
N      2.358362973523    0.666441556239    0.489330372666
C      1.445118126215   -0.256615077480    0.372269641531
C      1.748188374597   -1.656976155422    0.094746032294
C      3.108337494398   -2.035056178068   -0.054815362968
C      4.127656702444   -1.003774983454    0.087493160866
C      3.687825703866    0.326224238535    0.363254462819
C      0.719272807615   -2.616449957129   -0.023148621311
C      1.027012120360   -3.940559781478   -0.292058504738
C      2.372692988040   -4.326511995748   -0.445855138002
C      3.392397499953   -3.394079709812   -0.329060020642
C      5.514489875253   -1.249963453186   -0.031184430599
C      6.444702671932   -0.231811560610    0.116441118527
C      6.009656505445    1.078441961806    0.391922936201
C      4.656240850919    1.349728172250    0.513463281892
H     -0.313338922528   -2.289501952897    0.103199788460
H      0.230471850458   -4.683095259964   -0.382808471935
H      2.617938430677   -5.370675713427   -0.657503084046
H      4.426204776760   -3.720396196766   -0.450508818322
H      5.866970413512   -2.261317205566   -0.241798212144
H      7.511471607764   -0.448474447804    0.020915944690
H      6.739707056919    1.883222404027    0.512856871271
H      4.305995735373    2.359764073314    0.731810635751
