41

C     -4.639495426171    0.833158160915   -0.611619163729
H     -4.432360291618    1.601016019090   -1.362952472189
H     -5.159230923121    1.126732593975    0.303015370513
C     -4.476482387219   -0.491675121518   -0.936344876167
H     -4.849962510671   -1.289777837908   -0.289305923929
C     -4.023992618508   -0.886452502746   -2.310735228848
O     -3.781841267065   -0.110611580964   -3.203775661511
O     -3.926529023663   -2.219271005621   -2.415236646693
Pd    -2.635555500267    0.181530788346    0.174881034249
C     -2.310069049899   -0.499541675952    2.888758175037
O     -3.277247753341   -0.298574268006    1.999888183150
O     -2.546386974036   -0.888634346640    4.009135110796
C     -0.843324684848   -0.221157600562    2.425978245013
H     -0.317741754679   -1.192222368281    2.485310466524
N     -0.910864238804    0.233933039129    1.051164676918
C     -0.140421219537    0.262608716688   -0.030088874835
O     -0.786970919780    0.461571300300   -1.110112316122
C     -3.486838300141   -2.738754677354   -3.685127014735
H     -4.173898747131   -2.382070561182   -4.469450858331
H     -2.493359260498   -2.318788589133   -3.911130841566
C     -3.462122453343   -4.249396589224   -3.590825254782
H     -4.462666363045   -4.647652229274   -3.362419739225
H     -3.130180195156   -4.678259803156   -4.549015032876
H     -2.769272569677   -4.584978559361   -2.803943463431
C      1.352035447199    0.110263846399   -0.022062969997
H      1.818859415272    1.100271021082    0.108876181982
H      1.692079299713   -0.539432602873    0.797623641246
H      1.679503049613   -0.295716177165   -0.988863122823
C     -0.122247258562    0.808077277409    3.324499461920
H      0.859503445163    1.011247931492    2.858234012145
H     -0.686094767863    1.755205574512    3.270867226175
C      0.105876387361    0.428392129870    4.800608122830
H     -0.882096415158    0.293690614786    5.267230827328
C      0.824677201290    1.580202091387    5.515836770710
H      0.264063131701    2.525178763086    5.427124194542
H      0.946641972248    1.364187863479    6.589321653555
H      1.831380634629    1.749320068737    5.094268658835
C      0.874475311267   -0.888865292665    4.964307660415
H      1.092732862359   -1.081826254027    6.026957426890
H      0.292939126860   -1.747448408814    4.595393805566
H      1.840816204330   -0.864870773293    4.428834806120
