59

C      2.973518193450    3.614072520456    1.331694661543
H      1.401828386376    5.411944567284    0.379969135074
Pd     1.613212156762    2.831480791169    0.123489712161
C     -0.156393725068    3.020937985882   -2.170185470272
O     -0.149476170330    2.362891882749   -1.029043313017
O      0.584504775159    2.792622055076   -3.107280486447
C     -1.262829393065    4.113465418095   -2.190827993930
H     -2.200874625858    3.529033230836   -2.229881124108
N     -1.373484866059    4.892987253247   -0.965248914910
C     -0.515451961237    5.221571140992   -0.121411023947
O      0.857511812213    4.837160663460   -0.184151673073
O      0.474530528376   -0.029800636416   -0.649649152877
H      0.197843494606    0.937148735254   -0.868313943047
C      2.948403158471    3.369448560019    2.715043167274
C      3.819624942682    4.021455580252    3.602606790363
C      4.756220321491    4.954231167518    3.094203226262
C      4.779032841514    5.194643982580    1.714904719422
C      3.904568758957    4.539900984146    0.835564200604
H      2.236285006635    2.646197863334    3.124407283092
H      5.503418504240    5.909325632620    1.311436553959
H      3.971038705951    4.748563175314   -0.236852787295
C      3.754914380988    3.727104228954    5.081624859543
H      4.715695656497    3.339603911701    5.461792145237
H      3.531985037801    4.634675177854    5.668544624575
H      2.979101283979    2.981677788284    5.308822306626
C      5.711579813132    5.672592170331    4.015589452244
H      5.177726308261    6.267011644943    4.776995238119
H      6.356327008258    4.967321201135    4.567733701932
H      6.367273710383    6.356721294950    3.457391559463
C     -0.808738180114    6.062937785045    1.090763361517
H     -0.180910257120    6.970907509988    1.109377236540
H     -1.863088974499    6.361175190423    1.077954322891
H     -0.602325211408    5.493872171467    2.012591794380
C     -1.300450083741    5.057350833158   -3.443883417204
C     -1.546519373994    4.209967117172   -4.708741336931
H     -1.628414284931    4.868568225128   -5.588915175512
H     -0.730955134923    3.496618195501   -4.878525594976
H     -2.492387934780    3.647600855030   -4.628568780307
C     -2.474277864260    6.047155268849   -3.294691334877
H     -3.428952410024    5.516673071886   -3.143399731421
H     -2.334905060726    6.727777789021   -2.442949961374
H     -2.568958693373    6.654810754718   -4.209405608119
C      0.015293203678    5.843857286078   -3.588167212035
H      0.211760539459    6.467178269773   -2.700283873351
H      0.866042872251    5.164706670928   -3.735455034190
H     -0.042058258266    6.521534186791   -4.455813678793
N      2.428732323482    0.915320495939    0.205395610395
C      1.693878541974   -0.152724503313   -0.201000971094
C      2.244735872823   -1.458309287801   -0.132741236699
C      3.536046987231   -1.643701106656    0.308392440933
C      4.319329835823   -0.532426067645    0.690989898279
C      3.710076065009    0.709515175138    0.618011530697
H      1.608958014320   -2.283690762852   -0.454667678497
H      3.957441974687   -2.652461293531    0.351837180223
H      4.258766172194    1.603797604451    0.907153185966
C      5.745510025200   -0.683509993518    1.154700401251
H      6.181012254691    0.286220149239    1.436904551037
H      5.815047212053   -1.350738685536    2.030114566304
H      6.380747568207   -1.119023605438    0.365052442161
