53

C      2.542234188250    3.860838821660    1.185327757319
H      0.510602079470    5.509311297797    0.893114589142
Pd     1.051096557525    3.048982514844    0.161073049460
C     -1.418871715579    2.562283057377   -1.785869906444
O     -0.741391723230    2.263023156183   -0.703639435953
O     -1.917735237145    1.746229979999   -2.531346865246
C     -1.568271430979    4.081543582582   -2.093115595383
H     -2.425494695757    4.125247624701   -2.782324463237
N     -1.967289106571    4.818513195229   -0.907177599980
C     -1.289606755366    5.192107052122    0.071693532041
O      0.114653530972    4.973704291090    0.186255506869
O      0.011615254214    0.042286489898    0.084557158515
H     -0.417239104032    0.924746722758   -0.270885307731
C      2.890816066499    3.389686586517    2.462369340297
C      3.870968192187    4.017666019740    3.247342025719
C      4.539027658662    5.158067094540    2.739535741215
C      4.192535869257    5.623247368671    1.465046021104
C      3.208651240486    4.992766374242    0.690649432981
H      2.392648716770    2.503501840309    2.866891277428
H      4.706869069283    6.501228862065    1.061367384072
H      2.977482930939    5.390557892397   -0.302283346301
C      4.207438361314    3.476528433864    4.615636772067
H      5.270297279398    3.188918160887    4.689335012168
H      4.033042881132    4.227559508588    5.405201234711
H      3.602648042881    2.590293253302    4.856301060723
C      5.603068513125    5.857057759100    3.549916263123
H      5.209422983446    6.223827215847    4.513540325045
H      6.441460799295    5.181925839997    3.793406724095
H      6.016482888297    6.720068979790    3.007774828000
C     -1.848670985886    5.918989610895    1.262521951502
H     -1.332719271255    6.881597570039    1.424271304375
H     -2.914855748010    6.110750316639    1.097588810179
H     -1.727189106513    5.313056029204    2.176248848968
C     -0.341059564196    4.641589782440   -2.874199413379
H      0.561204777694    4.491482962691   -2.256672566432
C     -0.145118914372    3.880397002410   -4.192484331175
H      0.730510737222    4.274339161436   -4.733178609081
H      0.004354188857    2.802791880288   -4.035130020256
H     -1.024364378151    3.994665114132   -4.848435769935
C     -0.492656574793    6.144784658292   -3.142002710995
H     -1.392587045624    6.346992509039   -3.747358703089
H     -0.577302460467    6.730046083047   -2.214137018427
H      0.377250763672    6.527177296644   -3.700141968683
N      2.020691548579    1.216512549845    0.030141556993
C      1.313401905143    0.050843222476    0.053267738725
C      1.995938234442   -1.193847060111    0.058781856711
C      3.372835127056   -1.230265759964   -0.017915291601
C      4.087043604617   -0.021608369728   -0.101143409762
C      3.375583293983    1.162251313278   -0.068668126258
H      1.383046420789   -2.094828851461    0.100579598772
H      3.897792353196   -2.189017571470   -0.027188290010
H      5.174400399892    0.001923408252   -0.181712964082
H      3.886863707430    2.122564106883   -0.109647496077
