56

C      2.545281126250    3.855204014209    1.185164192830
H      0.508626552318    5.499501481904    0.893789341671
Pd     1.058062157902    3.041747300799    0.156908702515
C     -1.410309866878    2.553098406605   -1.792077790822
O     -0.735848352069    2.255469235588   -0.707826882207
O     -1.903603626836    1.735973096776   -2.540395299610
C     -1.563828956929    4.072234349879   -2.097566450380
H     -2.420603700702    4.114675462531   -2.787470561832
N     -1.965564611470    4.806744242316   -0.910984135098
C     -1.289357874829    5.180104591249    0.069198708120
O      0.114650309176    4.964551704469    0.185328814433
O      0.029834642826    0.038672208061    0.073508067166
H     -0.403431665120    0.921118719474   -0.278319136607
C      2.896459401101    3.378750861099    2.459482586253
C      3.872014237692    4.008521649085    3.248621904050
C      4.532771864658    5.156364632339    2.748044466283
C      4.183930143303    5.626731405404    1.476151697473
C      3.204620083982    4.994301292298    0.697504290632
H      2.404400353945    2.486503051612    2.857999521999
H      4.692846358631    6.510315695707    1.077828639002
H      2.971866691375    5.396090618456   -0.293456800848
C      4.211779913515    3.461171702094    4.613649187738
H      5.276439212155    3.179846639891    4.685708642897
H      4.032488697625    4.206113980121    5.407887306716
H      3.612682218087    2.569563206019    4.848629332546
C      5.591920540932    5.857394839960    3.563090655329
H      5.195655781835    6.215661029160    4.528836834310
H      6.434734878271    5.186390661203    3.802676541281
H      5.999777665954    6.726425044347    3.026383810060
C     -1.851818596201    5.904151530758    1.260244780139
H     -1.337787126496    6.867361487910    1.424444275494
H     -2.918054682133    6.094324680424    1.093840149495
H     -1.730741832534    5.296983521768    2.173195571186
C     -0.337395067146    4.636556245957   -2.876898098757
H      0.564674747662    4.487726623790   -2.258801365579
C     -0.138301857668    3.878040724023   -4.196233736284
H      0.736630934548    4.275334703119   -4.735598378553
H      0.014188514789    2.800659198102   -4.040418543000
H     -1.017376200706    3.990833711757   -4.852676228889
C     -0.492637354648    6.139778389391   -3.142497656499
H     -1.392531507226    6.340638337819   -3.748408009296
H     -0.579672221542    6.723327036181   -2.213791561227
H      0.376850111745    6.525287145835   -3.699190919569
N      2.035194771212    1.213121716489    0.016103822218
C      1.334903964543    0.048159294680    0.034383429671
C      2.001986699718   -1.216166795719    0.025959136934
C      3.383556127622   -1.223104697459   -0.059621371193
C      4.096837424765   -0.013963067052   -0.135659123469
C      3.390696346040    1.169985520339   -0.089979576497
H      3.915942724758   -2.178240808078   -0.082001276248
H      5.183988181178    0.005362569646   -0.221747398462
H      3.898210600634    2.132108303819   -0.125842867771
C      1.165784838950   -2.463187215372    0.082166910743
H      0.553846581011   -2.489659657688    0.998499510172
H      0.455793357513   -2.496285140328   -0.759838618417
H      1.796099913060   -3.363577381637    0.052860225269
