60

C      2.620863319246    3.809055061213    1.239772487694
H      0.649724361841    5.518273676041    0.879852188811
Pd     1.118615575216    3.022030771130    0.215109822724
C     -1.119900819392    2.651306040798   -1.860727711618
O     -0.722341085685    2.320818287547   -0.655956326372
O     -1.234274780586    1.890975789046   -2.798798723638
C     -1.455885126104    4.156838063740   -2.078153740320
H     -2.335578285838    4.137189194755   -2.739340751870
N     -1.860950268306    4.855945155429   -0.878082437357
C     -1.169829080780    5.216382845763    0.095564647008
O      0.235955166548    4.980334589422    0.184868463049
O     -0.003068242829    0.054848136470    0.074860464916
H     -0.392273255037    0.954916393811   -0.268806572005
C      2.914026990987    3.375253827654    2.543387009732
C      3.899214374127    3.993091398202    3.330280139476
C      4.629223963447    5.082686176725    2.796722797679
C      4.337825049985    5.509236217755    1.495163817622
C      3.348488398479    4.889856901655    0.718635367312
H      2.367225861389    2.527912092375    2.967828487600
H      4.900415911712    6.347313810747    1.071575752170
H      3.163643564002    5.253913164037   -0.296572003063
C      4.175202917946    3.494811925462    4.728063536874
H      5.222596799360    3.167199097780    4.843888358417
H      4.011197486376    4.284014011489    5.481785407753
H      3.527227348467    2.644760387610    4.986182067066
C      5.699978133765    5.769209010828    3.608947356660
H      5.296228114444    6.192067928504    4.545000416316
H      6.501299064452    5.070074846347    3.904008753582
H      6.165125548973    6.590707729730    3.044729543514
C     -1.705821621761    5.932130122770    1.302104402256
H     -1.183114481811    6.891034461463    1.462912955417
H     -2.773110615154    6.131557678026    1.154361884035
H     -1.573346710745    5.316727247416    2.207857352682
C     -0.307625806250    4.820951165240   -2.890988240330
H      0.636791964691    4.749837841891   -2.331331712255
H     -0.196621680396    4.203570572657   -3.795923294650
C     -0.570276287470    6.259957301355   -3.275289671628
C     -1.474841702770    6.574391066623   -4.303690427036
C      0.071224388072    7.317338675031   -2.611742307210
C     -1.733611449045    7.901491197629   -4.652973659862
H     -1.979314407884    5.765961293715   -4.841332223417
C     -0.182763760440    8.648155422969   -2.959217937153
H      0.785460632133    7.091173264920   -1.814855679206
C     -1.088467101659    8.945135670153   -3.980607902861
H     -2.438916909826    8.123043814749   -5.458429007919
H      0.332206703032    9.455889977601   -2.431841593775
H     -1.287817058324    9.983994569486   -4.255945268013
N      2.042814279918    1.166363601335    0.100463633837
C      1.300847821145    0.027393969829    0.079825632021
C      1.950308411090   -1.233761438871    0.079560733673
C      3.325710468179   -1.305006224615    0.045680935041
C      4.098031704606   -0.122554931766    0.007814748261
C      3.399838254477    1.073494633263    0.042410857312
H      1.315427091828   -2.120375065784    0.084534181918
H      3.819784581146   -2.281166136796    0.033775064946
H      3.935875335202    2.021440433088    0.034703303694
C      5.603232156939   -0.155005852393   -0.062297441229
H      6.028409367984    0.859222093927   -0.045421843460
H      6.033055495874   -0.713469481760    0.785982274548
H      5.951816208329   -0.649305961670   -0.984751366615
