47

C      2.509177878350    3.857115053142    1.163066176752
H      0.538076823318    5.515528612716    0.794367180257
Pd     1.022235443699    3.018567158881    0.153421261743
C     -1.353307056458    2.568666006276   -1.826832669934
O     -0.769473687005    2.214233444937   -0.704871992651
O     -1.767412709816    1.805210954824   -2.669616615480
C     -1.475922741296    4.102603119580   -2.020118909203
H     -2.153203784126    4.261206004281   -2.868701960743
N     -2.010362016761    4.776720414243   -0.856514746325
C     -1.306144686020    5.157773690704    0.106147194842
O      0.098935026262    4.963058885562    0.126797967253
O     -0.004620679989   -0.002086465540    0.079327783112
H     -0.435470741269    0.873414354822   -0.284579277713
C      2.845936739604    3.425037404427    2.457013097480
C      3.817909644720    4.077189123793    3.232232047967
C      4.490174031600    5.202789245203    2.697157361089
C      4.156491023032    5.628723519058    1.405768965272
C      3.180900532255    4.973702105807    0.640832539633
H      2.344621015138    2.550628856601    2.882793238960
H      4.674722958312    6.494188223363    0.980602930893
H      2.962557283291    5.339066132810   -0.367608797409
C      4.141137108372    3.577886916494    4.619493653846
H      5.203735323726    3.295192566641    4.712964772981
H      3.956964012866    4.351738241941    5.384384146473
H      3.535586048530    2.697888605591    4.880224523475
C      5.545129672490    5.927223385236    3.497033704099
H      5.141262488165    6.322129203373    4.445165021506
H      6.381741558346    5.260943061665    3.769267257814
H      5.963117076273    6.774207294428    2.933577142121
C     -1.830975046678    5.839723948154    1.333772689246
H     -1.335866866530    6.813283514785    1.495051081468
H     -2.908453379036    6.003862587848    1.217929071499
H     -1.653214415568    5.217854319873    2.227187678474
H     -0.472471005082    4.478823105073   -2.299814069509
N      1.998433240920    1.187496501202    0.047294416089
C      1.298706547646    0.021334857737    0.062825105608
C      1.996044601492   -1.214539569919    0.076925155622
C      3.372110020262   -1.235892944828    0.017889293787
C      4.098717323284   -0.026656961907   -0.060145154817
C      3.356796160692    1.142920852894   -0.036108784430
H      1.394736288012   -2.123623375584    0.112452494133
H      3.901982369288   -2.193186786560    0.016932472799
H      3.857151554982    2.109473151172   -0.073362770245
C      5.602505777804   -0.004512694574   -0.158835651731
H      5.989324104746    1.025013946375   -0.172542881390
H      6.068826165635   -0.526977838715    0.693104668223
H      5.952482179970   -0.506433614374   -1.076654049087
