68

C      2.663687126328    3.817218072853    1.380220771912
H      0.579839106122    5.437816275001    0.967300655102
Pd     1.305132422994    3.052658866537    0.155188533297
C     -0.843611193316    2.616063896726   -2.024060406512
O     -0.490800442836    2.334118435404   -0.792858584374
O     -0.798175324935    1.832830317606   -2.951370575891
C     -1.427547863438    4.043792692471   -2.246568588770
H     -2.398974642402    3.836094229243   -2.725997031775
N     -1.758829010793    4.766923572269   -1.033910684563
C     -1.135252952059    5.129222605806   -0.019815191002
O      0.261441001367    4.921494948786    0.208232520547
O      0.237994336715    0.181314453026    0.184398563449
H     -0.146510809846    1.040029145262   -0.289530157276
C      3.027583388955    3.148348934971    2.559419551622
C      3.865518089188    3.734687885722    3.520776749181
C      4.370443679311    5.038519362329    3.298841153289
C      4.012197040282    5.700291545136    2.118569575663
C      3.172333284268    5.107807006493    1.165468124166
H      2.655925368756    2.136776760838    2.745481307098
H      4.405369202323    6.704679397755    1.931052873314
H      2.942313119299    5.659291206243    0.248219263022
C      4.225072958372    2.976039267665    4.775021330420
H      5.315660995516    2.833004764655    4.864147785078
H      3.905972935063    3.515227747240    5.683542746859
H      3.754262039574    1.982502210915    4.791571543504
C      5.279245617072    5.699479579535    4.306123416044
H      4.794101615391    5.800341273277    5.292356947821
H      6.200766216529    5.115010911153    4.471136144009
H      5.577339543300    6.705553058651    3.976297089683
C     -1.767753648182    5.862889919934    1.134100035991
H     -1.257736543796    6.822514780324    1.328647364804
H     -2.820117590723    6.060104590576    0.901817058853
H     -1.708025997210    5.256910314533    2.054015000714
C     -0.642367395546    4.903256004961   -3.319107534945
C     -0.875215602394    4.286209225563   -4.713250064318
H     -0.341943580617    4.877280377779   -5.475805564657
H     -0.528814781219    3.246271591828   -4.756374646124
H     -1.946688689468    4.292825378216   -4.972894687856
C     -1.209436267151    6.336800367648   -3.329547405345
H     -2.300053632228    6.335667333546   -3.486032490738
H     -1.006635810184    6.872630962132   -2.390289180424
H     -0.751410431725    6.913060026198   -4.149950584063
C      0.870395932549    4.954213494330   -3.039601178402
H      1.094913856741    5.422812295389   -2.070972070026
H      1.316365567998    3.946868331333   -3.048691884183
H      1.375787760013    5.544746049769   -3.821235648471
N      2.279288597403    1.214921024051   -0.033949403970
C      1.536899171634    0.126867696021    0.156560242731
C      2.141442547075   -1.179758593261    0.386003261596
C      3.548906207250   -1.316241660445    0.314752764114
C      4.330110481237   -0.151795244822   -0.079791868357
C      3.655432021034    1.087688663325   -0.265960660263
C      1.323195245375   -2.287239573195    0.697907809045
C      1.895339832322   -3.520349035628    0.965202070815
C      3.294946285172   -3.663404673200    0.917096829067
C      4.106143951559   -2.584990185903    0.595625296083
C      5.721627289726   -0.208167581994   -0.321182609041
C      6.428610944918    0.903115523606   -0.751650682431
C      5.749666052373    2.114199727454   -0.966843006773
C      4.387604904806    2.202159694286   -0.727312436648
H      0.242780715636   -2.145043474828    0.727684807071
H      1.264419384393   -4.377442560963    1.211574871239
H      3.749464940117   -4.634200215958    1.131003633160
H      5.186844371071   -2.725949179492    0.561483026731
H      6.250817887863   -1.151831091684   -0.182835582630
H      7.502870381803    0.831293097048   -0.936515913091
H      6.290865898153    2.991849044333   -1.328300116364
H      3.854973640385    3.135582564767   -0.901251441510
