56

C      2.561075571767    3.957232966717    1.229039380352
H      0.536788059140    5.572688878289    0.872789271971
Pd     1.146928145312    3.156454139807    0.085848961742
C     -1.413223300974    2.577709028345   -1.774171639920
O     -0.581477421852    2.288332817255   -0.806874784746
O     -2.067972816441    1.761934164841   -2.387563713769
C     -1.539474048034    4.092840505882   -2.121399176427
H     -2.402059910690    4.132818980093   -2.803753046678
N     -1.927542003459    4.847079222717   -0.941909635689
C     -1.250479622242    5.243474686319    0.028482157068
O      0.157787144981    5.053337350217    0.143574409839
O      0.088319913343    0.330051913049    0.595673320065
H     -0.331699745219    1.065004973528    0.006456528159
C      2.964712517112    3.338897753215    2.424151255080
C      3.855088595413    3.951724076772    3.320671828582
C      4.374791230005    5.232778220828    3.015797873508
C      3.977748242765    5.845896160339    1.821264713022
C      3.086024423238    5.226845203943    0.934522634038
H      2.580668171720    2.346464601300    2.677305059687
H      4.380780872130    6.832266137406    1.569980547880
H      2.826006817725    5.739182418444    0.002550701994
C      4.251159952156    3.246775285796    4.595134739606
H      5.341836333000    3.088069466941    4.650226520432
H      3.976867047551    3.834742973828    5.487820851558
H      3.764136884181    2.264463215348    4.678176399138
C      5.336842429282    5.922272437520    3.951971614770
H      4.893801230114    6.081635697593    4.950159870275
H      6.252557287273    5.326869886237    4.109798349958
H      5.640919552168    6.904340660742    3.561098060115
C     -1.817259218907    5.979468550933    1.210827620395
H     -1.318035443452    6.953695946768    1.353841170534
H     -2.887619387115    6.148453899584    1.048390143284
H     -1.680055119514    5.391029645189    2.133805965617
C     -0.312875269800    4.624715904151   -2.915548310967
H      0.587853978070    4.504008940247   -2.289519515685
C     -0.112375460790    3.804655534642   -4.197160933811
H      0.756808696081    4.179410442437   -4.761421498577
H      0.052147153911    2.737455615251   -3.986960043537
H     -0.995134579216    3.875853477005   -4.854385327507
C     -0.468246858684    6.114714232496   -3.246225501666
H     -1.361754482396    6.287833278132   -3.869867266577
H     -0.568681530014    6.734219432025   -2.342221723368
H      0.406444327446    6.481418125605   -3.807608991949
N      2.100370285853    1.302815712892   -0.032770502929
C      1.376469104470    0.225352248680    0.381917456166
C      2.001413821642   -1.023210261460    0.597990286267
C      3.338814465629   -1.168906865901    0.286445858824
C      4.039910780694   -0.084644709231   -0.260074559139
C      3.400530003475    1.142047182481   -0.416298515327
H      1.383330234905   -1.841999106028    0.966877020030
H      3.836639671533   -2.131367103532    0.430083698014
H      5.079927218034   -0.187973841495   -0.571532575598
C      4.128912384012    2.302493420393   -1.033852095017
H      3.475080193689    2.844622166974   -1.733035513135
H      4.453740960690    3.022843796465   -0.268673943820
H      5.016525899256    1.948517681332   -1.576598650604
