60

C      2.631640399272    3.788024828769    1.233923052081
H      0.664080075032    5.498956715495    0.875736105507
Pd     1.128808179018    3.001660948217    0.210350889520
C     -1.122022792109    2.633603236429   -1.859228701341
O     -0.717475144034    2.302843693428   -0.656332681694
O     -1.244949228103    1.871710973393   -2.794859164021
C     -1.453574007802    4.139732281224   -2.075184495488
H     -2.335118221090    4.123065280650   -2.733981602385
N     -1.853420912123    4.839395876176   -0.873610399009
C     -1.158384531015    5.199408810051    0.097563681388
O      0.246793371498    4.961044060431    0.182773008130
O      0.012589983250    0.040054057455    0.045432793654
H     -0.379733146004    0.947936343186   -0.286368600434
C      2.923529045673    3.355109163168    2.537986854480
C      3.908583472813    3.973322476018    3.324733847427
C      4.639058591171    5.062294644226    2.790572689026
C      4.348469235685    5.487908860119    1.488553573361
C      3.359533380263    4.868082429956    0.711874299212
H      2.376595580323    2.507999334626    2.962651807495
H      4.911794724261    6.325184726559    1.064402647798
H      3.175886056260    5.230731732619   -0.304038686002
C      4.184627650469    3.475404709024    4.722590035818
H      5.231536769186    3.145982703662    4.837506663906
H      4.022565111160    4.265264554213    5.476035808813
H      3.535569270007    2.626441078573    4.981536404793
C      5.710225881743    5.748584679937    3.602404568912
H      5.306936396439    6.171633405241    4.538568373000
H      6.511329430412    5.049069103155    3.897093042887
H      6.175522593478    6.569808419099    3.037920173486
C     -1.689745251764    5.917284605319    1.304921926175
H     -1.165287073909    6.875722979125    1.462711577058
H     -2.757239813731    6.117899572857    1.160324429348
H     -1.555035804358    5.303003586756    2.211099618446
C     -0.305425731536    4.800464968854   -2.891074760772
H      0.640406415872    4.726114007449   -2.334285481367
H     -0.198883920488    4.183322356714   -3.796732146242
C     -0.564912865896    6.240461337183   -3.273915715035
C     -1.472330102438    6.558087998584   -4.298809224518
C      0.082589371069    7.295509831453   -2.612510496934
C     -1.728090013868    7.886119191704   -4.646756175055
H     -1.981423740615    5.751482914123   -4.834844431460
C     -0.168366401400    8.627239521911   -2.958698099676
H      0.799176685086    7.066810712288   -1.818476154702
C     -1.076980055142    8.927445876968   -3.976552740234
H     -2.435671742298    8.110203077402   -5.449507843564
H      0.351317169544    9.433131770369   -2.433141602257
H     -1.273932492512    9.967022760409   -4.250889966774
N      2.056365621350    1.146240741344    0.087812267270
C      1.317537664573    0.005732643001    0.053663261023
C      1.941051008204   -1.280505287168    0.039701483180
C      3.323719913207   -1.333675854275    0.008074773688
C      4.079711171914   -0.148501411288   -0.011051973428
C      3.413046447003    1.057950422748    0.033556023409
H      3.824000971213   -2.305940221194   -0.016488893528
H      5.169443002184   -0.164834073237   -0.054472751140
H      3.954395995808    2.001909756950    0.037448596105
C      1.061311912526   -2.498423390190    0.032562279523
H      0.411735499996   -2.524141171780    0.922626778978
H      0.386277747074   -2.487587028506   -0.838312675978
H      1.661407913954   -3.419335697308    0.007012914557
