50

C      2.541331478644    3.844133590935    1.194811562194
H      0.529109310857    5.496081807887    0.819117645594
Pd     1.049980827558    3.004598548357    0.195556763692
C     -1.173799465933    2.573033447112   -1.853492888745
O     -0.788309672253    2.258310040556   -0.638809066167
O     -1.219031879773    1.811358503784   -2.796244515680
C     -1.602426224136    4.053501266911   -2.074418711042
H     -2.505028320292    3.968018799779   -2.698935851325
N     -2.005754320437    4.757628769666   -0.871288418171
C     -1.298747655055    5.141111495262    0.083057907661
O      0.111012223781    4.933338598255    0.146837036925
O      0.002576583326    0.012958300930    0.077881613766
H     -0.412320124375    0.905323055603   -0.260700996495
C      2.879422921224    3.415111806567    2.489300978020
C      3.853823894881    4.068383393818    3.260581418115
C      4.526760964189    5.191035552784    2.720453098139
C      4.190975078070    5.613458917384    1.428377631102
C      3.212615095705    4.958142450447    0.667461396402
H      2.377257137101    2.542963410552    2.918562718739
H      4.709360779069    6.477067814062    0.999632920623
H      2.991051830944    5.321741421912   -0.340619614814
C      4.178682920777    3.573164086220    4.648951762291
H      5.240994717158    3.289028512367    4.741610491768
H      3.996996344147    4.349852087095    5.411587127278
H      3.572141972828    2.695014092756    4.913640920987
C      5.584383810312    5.916460792348    3.515922604407
H      5.182757507610    6.315750062702    4.463187292285
H      6.420220322103    5.249688393115    3.789375194023
H      6.003047502243    6.760544003924    2.948601121774
C     -1.823394637964    5.858588708083    1.294354118286
H     -1.308497317426    6.823583037228    1.445167370365
H     -2.895508514328    6.044501854895    1.164609509494
H     -1.668920199337    5.248386879602    2.200166365097
C     -0.546662683094    4.792210921010   -2.917803367934
H     -0.884398464422    5.815690092852   -3.143913608737
H      0.424740848283    4.850270750890   -2.405107827694
H     -0.411234732988    4.250544057493   -3.864851299342
N      2.020707838345    1.173806918839    0.084861019168
C      1.306252546317    0.017013930412    0.072551739924
C      1.986591988289   -1.227986829828    0.069637129758
C      3.362940719318   -1.265718549238    0.024620203847
C      4.105879587212   -0.064845569279   -0.022095735149
C      3.378993033126    1.113863399363    0.015589877541
H      1.373641915187   -2.129832976936    0.081743994981
H      3.880595746101   -2.229574196737    0.010673113332
H      3.891489111282    2.074647832849    0.000939685343
C      5.610811974333   -0.060739127164   -0.104772500309
H      6.011099717143    0.963674307901   -0.094079096260
H      6.061366972758   -0.606118388447    0.741320682957
H      5.963816604901   -0.548901275754   -1.028852456209
