59

C      3.008684310285    3.600038523026    1.280488719029
H      1.445892298903    5.388348106050    0.345609611796
Pd     1.646203268209    2.811950963055    0.079672850747
C     -0.134210852081    3.058283015160   -2.212171305576
O     -0.102654794958    2.333806853454   -1.106402485617
O      0.609249862122    2.897177589329   -3.159323063434
C     -1.270662811117    4.116106282601   -2.167995781600
H     -2.191669661639    3.504649280342   -2.190410875763
N     -1.362972791499    4.863855069340   -0.921583320737
C     -0.487034009928    5.186260204134   -0.094098629586
O      0.887233657466    4.814162833699   -0.205109127942
O      0.681988521581   -0.006733473601   -1.039530299674
H      0.341240398328    0.980561781179   -1.130767041266
C      2.927094687574    3.439885787760    2.673620888999
C      3.810422378146    4.093643570364    3.548508917855
C      4.811556158074    4.941245662771    3.015045392896
C      4.884835247526    5.099551109965    1.625535946870
C      4.000605832148    4.442653388923    0.758085989407
H      2.163805980866    2.782642321309    3.102183976487
H      5.659284595023    5.748076443106    1.204242354502
H      4.106394580199    4.583660944839   -0.321823246166
C      3.692089819009    3.887803354791    5.038805513024
H      4.617176189834    3.461884655072    5.463322132548
H      3.515189274085    4.839192293128    5.569060622500
H      2.865367466236    3.206257961262    5.286026176902
C      5.783971393064    5.654944988257    3.921651072155
H      5.266718614225    6.317441549145    4.636764088983
H      6.374611948286    4.944866307171    4.525420682258
H      6.489899533360    6.270551357829    3.345518244343
C     -0.753078794990    6.002166149884    1.140822659080
H     -0.139100373069    6.919609313582    1.152963528722
H     -1.811644533887    6.284138133498    1.167255429607
H     -0.507046527072    5.422556296916    2.046066321136
C     -1.376554965583    5.088089372268   -3.395270233769
C     -1.621485419814    4.262810328146   -4.674903187003
H     -1.757921555112    4.939617574925   -5.534079772393
H     -0.780699034968    3.591710871612   -4.888627909726
H     -2.538894284650    3.656678255592   -4.584082631685
C     -2.584726960462    6.025284573940   -3.190932832014
H     -3.513942627073    5.452862375710   -3.034069322437
H     -2.452159399288    6.686553543301   -2.323101015924
H     -2.724838878452    6.654063930153   -4.085147125105
C     -0.097215883883    5.930396676017   -3.551256076204
H      0.094514079368    6.541972464069   -2.654201844654
H      0.776937695347    5.290799894211   -3.733953958619
H     -0.202803718629    6.624166610383   -4.401327360714
N      2.469898870441    0.888846512431    0.155584807317
C      1.819963134894   -0.153519036340   -0.440271124367
C      2.384389711291   -1.460733758660   -0.410834909188
C      3.594627099555   -1.681824956328    0.199205199859
C      4.264944133558   -0.591061527461    0.792553205337
C      3.669596590603    0.654820831609    0.743569094524
H      1.817217055133   -2.254969311461   -0.896521253548
H      4.033726972487   -2.682044057467    0.219389368170
H      4.160213104892    1.513748463292    1.194229934220
C      5.591715650652   -0.793857519811    1.467910735729
F      5.487945683340   -1.640234185221    2.511922329841
F      6.494102495692   -1.334602746845    0.626987050109
F      6.108159080433    0.355068306341    1.932009868596
