51

C      2.553318041751    3.826315484561    1.183199237281
H      0.540804491414    5.475117215837    0.817004949009
Pd     1.062538893273    2.987201883806    0.183552610556
C     -1.168552803907    2.559435602823   -1.859751066382
O     -0.778731876270    2.240108678679   -0.647423475649
O     -1.214120704943    1.802671408543   -2.806259800534
C     -1.601683307476    4.039935444900   -2.071568532862
H     -2.506993873372    3.955122936764   -2.692269859652
N     -2.001209713199    4.737797212049   -0.863459815780
C     -1.290130403366    5.119166901799    0.088826704639
O      0.120096727396    4.914714892476    0.144312074328
O      0.022176486045    0.001562465212    0.064304615882
H     -0.396963890225    0.895208274153   -0.274024065534
C      2.893705598912    3.393162043121    2.475525761541
C      3.865870379187    4.047291734437    3.248723457949
C      4.533705593925    5.175025355945    2.712854280351
C      4.195499138629    5.601388694155    1.422777407832
C      3.219506832545    4.945033977884    0.659668455528
H      2.395921556702    2.516658972523    2.900910541153
H      4.710367300060    6.468616086750    0.997095869568
H      2.996383467135    5.311154722130   -0.347151491224
C      4.194651125417    3.546929121292    4.634318974929
H      5.257884429273    3.265085294184    4.723403494174
H      4.012408010187    4.319660655839    5.400851763572
H      3.591068163615    2.665872838941    4.896099765108
C      5.589355336737    5.901061169359    3.510406505598
H      5.187455037147    6.294301634987    4.460107851939
H      6.428278727783    5.236371859552    3.779486119257
H      6.003857243525    6.749457225581    2.946444211522
C     -1.810596593711    5.830007634547    1.305844418651
H     -1.297417977490    6.795665193970    1.458284117106
H     -2.883852498545    6.013595368368    1.182322737747
H     -1.649867086102    5.216244927551    2.208154658180
C     -0.551472790540    4.784737657185   -2.916546827126
H      0.422214273953    4.842367232097   -2.408190970225
H     -0.419382697415    4.247612578124   -3.866646397119
H     -0.892393990641    5.808563805445   -3.136338458528
N      2.039399684637    1.158178860223    0.062301697861
C      1.321685455837    0.012722927640    0.052325237994
C      1.996908949612   -1.260177505438    0.040335385081
C      3.378779838242   -1.294435591068   -0.024064675172
C      4.092677676198   -0.079500779790   -0.068086193820
C      3.402432907633    1.108747582427   -0.019246627537
H      3.914161263704   -2.243715553483   -0.054695630819
H      5.181391367693   -0.071917573114   -0.135231774156
H      3.916678400481    2.066773301296   -0.034729458067
O      1.176403678908   -2.327431732432    0.078645284273
C      1.739644403203   -3.618726089332    0.038263792320
H      2.403299979163   -3.804171899727    0.902789102440
H      0.900791750262   -4.325948147582    0.073633123224
H      2.311972835751   -3.786298479885   -0.892392813109
