59

C      2.537416834461    3.890901867706    1.203849183638
H      0.511834099749    5.523630439722    0.878238148916
Pd     1.065815664714    3.062306516124    0.168597717950
C     -1.399916198831    2.554172355135   -1.795110649692
O     -0.718899448608    2.258247300473   -0.710999575931
O     -1.883996826914    1.732867768125   -2.543305548216
C     -1.567024683989    4.071486871794   -2.093415962086
H     -2.427018325387    4.108542194454   -2.779599658580
N     -1.970431576455    4.799537570832   -0.903158815139
C     -1.291717254322    5.182150396707    0.071757257122
O      0.115163539653    4.979677450360    0.177787893635
O      0.051409166921    0.047259090735    0.009827247479
H     -0.386083362972    0.952567236179   -0.327036308260
C      2.867002509252    3.434738355181    2.490659663854
C      3.834522124228    4.075184815855    3.281234644441
C      4.505129079098    5.211877487464    2.769129103298
C      4.174744292531    5.661643120170    1.485047382262
C      3.204878554811    5.018831664540    0.703662440961
H      2.365917684650    2.551718669873    2.898626327919
H      4.693649199445    6.534862201145    1.077372666243
H      2.989100129989    5.401379824962   -0.298516867459
C      4.157322560336    3.548793613543    4.658328069530
H      5.219165278595    3.260896397487    4.743365963184
H      3.976851180680    4.308410155303    5.438188324803
H      3.549658030985    2.665603187380    4.903061923550
C      5.559503565362    5.920400760359    3.583468382546
H      5.157260715314    6.291286333419    4.541914092637
H      6.398324703589    5.249239037085    3.835821902781
H      5.973963360571    6.781235473471    3.038839278658
C     -1.852803924915    5.902980563840    1.265128768538
H     -1.348333692817    6.872398208892    1.422027221228
H     -2.922423122900    6.080645469274    1.106812065991
H     -1.717136965914    5.300176144380    2.178881135112
C     -0.348543174930    4.648014924506   -2.877142463096
H      0.557580728570    4.505862273911   -2.263623702620
C     -0.148831050940    3.894846655137   -4.199481684307
H      0.719509998817    4.302317033962   -4.741677150939
H      0.015605021784    2.818610752993   -4.047957778906
H     -1.032099475426    4.000810238530   -4.851365366280
C     -0.518635309887    6.150379961586   -3.138243424318
H     -1.423135574639    6.344573483120   -3.739346095508
H     -0.606040746011    6.731247743517   -2.207937462809
H      0.344740964132    6.544480000474   -3.698176860873
N      2.051909539085    1.232889898777    0.053837636800
C      1.345395186352    0.059396383393    0.036774931366
C      2.034897031808   -1.184104836874    0.060192784462
C      3.409647028857   -1.218578698538    0.032172495062
C      4.126376900739   -0.002221229204   -0.015494149060
C      3.401641123360    1.182825133557    0.005462905007
H      1.424026736100   -2.087185161202    0.072690443514
H      3.948867920391   -2.166960836287    0.032324810384
H      3.935171728476    2.131914962506   -0.006185964413
C      5.608456107662    0.085135308580   -0.078637094578
O      6.237874986838    1.116866050577   -0.130973388973
O      6.186240015416   -1.133045825813   -0.072153608040
C      7.611585153871   -1.154581559255   -0.136355578284
H      8.050199685910   -0.626863812698    0.724139243002
H      7.902627944521   -2.212130400007   -0.123453416203
H      7.969075216997   -0.671030929292   -1.058093351309
