46

C      2.505288721937    3.862077964695    1.140615419982
H      0.545827958394    5.516375573928    0.786277720331
Pd     1.017395949139    3.020396037526    0.142112286833
C     -1.385203265989    2.594140508963   -1.836033717247
O     -0.788314964404    2.214838849191   -0.719880746522
O     -1.766089286516    1.843783167861   -2.702449376892
C     -1.549735206246    4.125412514911   -1.970966473467
H     -2.259447191673    4.293305808573   -2.790863142140
N     -2.054203248651    4.757734568541   -0.771043348684
C     -1.321522341897    5.134382146545    0.171976613732
O      0.086899134458    4.959121322601    0.135537576202
O      0.015434477648   -0.001761870146   -0.186615897333
H     -0.440705193706    0.946449354062   -0.466920578863
C      2.813604896778    3.462660592148    2.450941352436
C      3.799782693301    4.112206536655    3.210914854902
C      4.507532607377    5.198869085742    2.642383110300
C      4.194828934459    5.592087315114    1.335448337220
C      3.207634988141    4.940274154061    0.583230935785
H      2.282730669078    2.618927798043    2.902359320326
H      4.742353041537    6.425853000947    0.885268711511
H      3.008723544083    5.274773092327   -0.439523846590
C      4.103441634189    3.647671908472    4.614046272650
H      5.154675995933    3.328407570050    4.715409746755
H      3.949407747265    4.453241029913    5.352137979804
H      3.465915394901    2.799954974579    4.903806960961
C      5.583024931186    5.913686766399    3.422449445972
H      5.191309981986    6.344762224432    4.359681893319
H      6.398960150283    5.228999167513    3.710281989801
H      6.025639506615    6.731980100342    2.836275966861
C     -1.809691625903    5.786492365372    1.429916518034
H     -1.326216101777    6.766490696342    1.586508918743
H     -2.893631775589    5.932567788431    1.359133751414
H     -1.584959884225    5.154801722296    2.305565465258
H     -0.565451132695    4.530428909481   -2.277501849602
N      2.004164902260    1.184064870767    0.019797607814
C      1.296859164045    0.009448103867   -0.088130966091
C      1.988266179665   -1.239996589486   -0.083548700174
C      3.359466692624   -1.283379431137   -0.034594486422
C      4.051062979035   -0.059453479292    0.015503561678
C      3.352920514338    1.134324823827    0.046790738763
H      1.376167021110   -2.140031264171   -0.144986049179
H      3.917755189974   -2.219788167752   -0.045078682949
H      3.897693612848    2.073632600814    0.107890324597
N      5.513209389686   -0.033961653795    0.048391217910
O      6.065399411563    1.055804980701    0.067948513505
O      6.088422947130   -1.112017510100    0.055063184128
