47

C      2.505057159388    3.860435890351    1.144018368218
H      0.538136109919    5.515261562548    0.798793060312
Pd     1.015591941533    3.023293333934    0.140446116745
C     -1.380440640520    2.593480093613   -1.831677394644
O     -0.784341939776    2.220210222340   -0.717294156847
O     -1.778780316959    1.840643299562   -2.689603326078
C     -1.529304485612    4.126858945389   -1.984614875457
H     -2.227879918621    4.294044185732   -2.814084099808
N     -2.044038944878    4.771009173618   -0.795411905261
C     -1.321408085030    5.145152025837    0.156167288506
O      0.086296388276    4.962556300891    0.139578818911
O      0.008477249255   -0.004792544531   -0.101429092379
H     -0.436349510739    0.912505731140   -0.406442136107
C      2.828445164490    3.440873632016    2.444883455874
C      3.810293265732    4.088024505996    3.212207644377
C      4.501515318455    5.194354121652    2.661341609961
C      4.176887414054    5.607818180286    1.363576897327
C      3.193004818121    4.957981717546    0.605053190340
H      2.311308908072    2.581674109958    2.882764284458
H      4.710671752621    6.457669797367    0.926825155035
H      2.983262411688    5.310802382255   -0.409483880006
C      4.125536087622    3.601842898933    4.605602223102
H      5.181877263078    3.297195238001    4.699198713802
H      3.960631768616    4.390721920207    5.359302890002
H      3.502107295016    2.738882918032    4.880567285134
C      5.569730132979    5.910085921506    3.450883234403
H      5.174164409573    6.322146602983    4.395091095911
H      6.394765225569    5.231856153906    3.728206333237
H      6.001175142037    6.742989855093    2.876925381277
C     -1.822428360398    5.803380847472    1.406097301642
H     -1.333848253097    6.779970603518    1.568472100133
H     -2.904137213302    5.957426643745    1.319558543341
H     -1.615380360166    5.171219149048    2.285822631720
H     -0.537945860001    4.522022827933   -2.280879643073
N      2.000672514989    1.190446328524    0.013267117334
C      1.299999271408    0.018357946278   -0.047159723955
C      1.996043249352   -1.224612123699   -0.040647708230
C      3.369390577841   -1.252868247186   -0.034470769869
C      4.077123874467   -0.031499847188   -0.032636208660
C      3.356241766888    1.147043421896   -0.003977592514
H      1.389724296429   -2.130327017247   -0.065788366764
H      3.906151713346   -2.204456570670   -0.046053490498
H      3.870210001121    2.105209634894    0.016607207450
C      5.579569492243   -0.025121777373   -0.035926542023
F      6.077600272962   -0.578885759474    1.087569231725
F      6.071336530511   -0.741507146256   -1.064749280888
F      6.082692017523    1.216063859375   -0.128561596347
