59

C      1.166704103403    2.933738947766    2.751047791485
H      0.298701572829    3.590311832763    2.670885627186
Pd     1.274786344594    3.191636283675    0.289586905049
C      0.515484394892    5.864145562789   -0.277940690414
O      0.935862828960    5.092996339273    0.706487731255
O      0.598586195976    7.072988914411   -0.237268349178
C     -0.160324725778    5.105886357177   -1.428026536709
H      0.087302576669    5.645032135016   -2.355834351285
N      0.364604677624    3.733834652886   -1.464725058840
C      0.301198433351    2.950919648617   -2.547116952249
O      0.336671261629    1.697851572158   -2.488099792917
O     -0.052511475113    0.334660482982   -0.470139501756
H     -0.043446602261    1.015375984877   -1.277104220718
C      2.463172087485    3.463768188292    2.584145932774
C      3.612004491937    2.695760754977    2.884586464401
C      3.449870958421    1.377220960500    3.346294626213
C      2.145997928624    0.850839385333    3.484431379273
C      1.017759445794    1.605855401591    3.198890281548
H      2.571325060612    4.519632425940    2.328700309442
H      2.029884141310   -0.176027555407    3.842132957941
H      0.019709629136    1.184953250380    3.338944486425
C      4.982720733654    3.306633072410    2.737838688070
H      5.520090435736    3.331140957528    3.701103209104
H      5.617050147747    2.727011287713    2.044962689429
H      4.923004294386    4.336737309446    2.359177488801
C      4.646526429965    0.535096068086    3.708529921951
H      5.319133914911    0.395972697641    2.845552264010
H      5.248005693071    1.008918605176    4.502591691657
H      4.345029960463   -0.460615028050    4.063805625349
C      0.254906351248    3.530514098182   -3.953713971920
H     -0.636594913938    3.156051950704   -4.476123849878
H      0.283800292397    4.623869359945   -4.012786424309
H      1.130040046341    3.119276736935   -4.480612121273
C     -1.738538138077    5.193745436544   -1.249668539906
C     -2.168210738084    4.702888905635    0.146253146389
H     -3.267213284850    4.714721904318    0.226347994067
H     -1.829002971882    3.671316323700    0.329825900681
H     -1.769052376817    5.342278895791    0.947909630821
C     -2.178190291931    6.659082492840   -1.442284517163
H     -1.696674784734    7.331909864987   -0.721213213947
H     -1.923651592766    7.019638880487   -2.453015253448
H     -3.271336989215    6.739212619926   -1.325796721378
C     -2.460734661012    4.340081644119   -2.308389853751
H     -2.215689084886    4.662814713320   -3.331497747476
H     -2.235467360365    3.267431962248   -2.214394740382
H     -3.549841517798    4.453407281195   -2.184656829163
N      2.007660749596    1.257867658142   -0.088796206956
C      1.220305248638    0.162154687308   -0.212404853380
C      1.774571988393   -1.133398610555   -0.113424881876
C      3.147911009834   -1.311212552322   -0.006072524968
C      3.953784711401   -0.150846018678    0.008116096973
C      3.347491470977    1.091449843434   -0.018558018116
H      1.086935987875   -1.977508542209   -0.187006675665
H      5.042605364737   -0.219927601413    0.047928423060
H      3.941585183685    2.006809588536    0.018078489110
C      3.768602836291   -2.681539737289    0.057075630728
H      4.337493664644   -2.811532358856    0.992773590937
H      3.010173883127   -3.475078339779    0.003937862745
H      4.479499246758   -2.828464232024   -0.772651019827
