78

C      2.599275676220    3.822965127191   -1.093020094631
H     -2.095834261063    1.634653632558    0.000182435410
C     -0.409082872291    3.907419082022   -1.521122147032
H      0.072575405509    4.138353893535   -2.473355312762
H     -1.178614330792    3.132216039057   -1.509692032934
C     -0.292146616128    4.786122201855   -0.459461041919
H     -0.923678325614    4.692199726038    0.428573011145
C      0.396937367942    6.116254909958   -0.540852394905
O      0.648924237007    6.794888386062    0.426832471040
O      0.658157901217    6.479565894341   -1.803590109102
Pd     1.043882972057    3.054662824076   -0.094517007892
C     -0.944088949035    2.254104939967    1.985101799670
O     -0.663719770180    1.906482031722    0.735516722742
O     -0.224843128927    2.987235303954    2.637204492017
C     -2.285748134355    1.730301620871    2.546688107573
H     -2.278536840398    2.072456827927    3.591865752945
N     -3.473895337658    2.314663029012    1.931136149406
C     -3.771450544986    2.256326716262    0.691785867877
O     -3.029551800892    1.752557936426   -0.320919309174
O      0.905314014413   -0.017219785267   -0.210505994369
H      0.230510442117    0.646021425703    0.115074128815
C      3.333326832198    4.925482200385   -0.642094274383
C      4.462768292854    5.393691560530   -1.335853861928
C      4.865104913393    4.742850820299   -2.524898684014
C      4.116991933231    3.645907357054   -2.971647419830
C      2.996354562655    3.182055331327   -2.271659191957
H      3.034832470193    5.451536393390    0.267879192262
H      4.418503731085    3.134022560984   -3.890869599261
H      2.449060200432    2.317329652687   -2.657449464145
C      5.238430515738    6.575125868029   -0.804473076281
H      6.281987484040    6.302404944446   -0.570406849147
H      5.290678200630    7.396073752322   -1.540165802990
H      4.783305351700    6.974304940005    0.113559902203
C      6.076001403647    5.212150213944   -3.294016043278
H      5.974597438216    6.261598627468   -3.620223220261
H      6.992831248601    5.164112828028   -2.681438898394
H      6.242244152251    4.598539976611   -4.191520601384
C      1.324158524462    7.740733701184   -1.996294663771
H      0.717448101251    8.534155813315   -1.530782317614
H      2.288851077378    7.713205004298   -1.465968196569
C      1.501790602852    7.953126558384   -3.484682540190
H      0.529424826299    7.969543626223   -4.000811047100
H      2.004682157346    8.915533458276   -3.667709459729
H      2.115451424985    7.152177571093   -3.924495907237
C     -5.096018362638    2.776644886561    0.201471784301
H     -5.690006578219    3.148605905792    1.043935374881
H     -4.941149256489    3.582434025324   -0.534641454516
H     -5.642163005420    1.971068924289   -0.316134290732
C     -2.377486328740    0.180942774784    2.559638732573
H     -3.395302100181   -0.056233830484    2.910732958920
H     -2.301378718471   -0.203483195728    1.531062417912
C     -1.359940292610   -0.501124527370    3.447199552718
C     -0.302404106682   -1.247710791409    2.904941134801
C     -1.452145951419   -0.401393358405    4.846377337072
C      0.635622663000   -1.874256334869    3.732734959735
H     -0.213455316516   -1.342594029054    1.819569208451
C     -0.516720585791   -1.022955228376    5.675883234326
H     -2.273149495498    0.168019838955    5.291996896229
C      0.533016208580   -1.762954608151    5.121318661515
H      1.449161207981   -2.453892826135    3.288074057589
H     -0.609298484726   -0.932774742404    6.761516971861
H      1.264426550201   -2.252264525535    5.769832724336
N      2.347602218556    1.515788871158    0.715447376466
C      2.090748233277    0.278143557157    0.305680307576
C      3.058757760248   -0.766871156179    0.390109206189
C      4.262557657679   -0.504754089495    0.986242675700
C      4.513922752535    0.775033964796    1.560764361595
C      3.502403132900    1.774888873600    1.424715088915
C      5.698323339060    1.077555379936    2.280305018958
C      5.863249251329    2.313673050490    2.873400783881
C      4.838715850517    3.283060934058    2.773922919645
C      3.681747616811    3.024586803596    2.062243568185
H      2.796275403606   -1.744381875789   -0.015360962470
H      5.026342957947   -1.283628720729    1.060492747502
H      6.469404492890    0.307839226367    2.370468153016
H      6.772844920263    2.538286861105    3.435025939244
H      4.955735584429    4.246650673861    3.275692538597
H      2.874459830290    3.755896806777    2.015643706829
