63

C      1.034224060885    2.770626327762    2.882062156171
H      0.140853014251    3.397064359956    2.850177743300
Pd     1.132122262724    3.081604564439    0.447689762284
C      0.222283477208    5.701045559185   -0.104312064771
O      0.607320874643    4.937995907000    0.891181563366
O      0.106502527692    6.905386857955   -0.014642166926
C     -0.165816104035    4.960989498295   -1.397286356880
H      0.383830276569    5.459142696290   -2.216781356387
N      0.200255101731    3.541204335099   -1.306459490968
C     -0.104070692328    2.664969249306   -2.261188759398
O     -0.149257291035    1.419575283339   -2.085209521517
O      0.072151270844    0.088027513733   -0.068692721656
H     -0.153683847609    0.784368225807   -0.867657672135
C      2.306008119292    3.351136334129    2.685979078990
C      3.492083097154    2.614026197813    2.919475312872
C      3.392065613066    1.276106789005    3.338891905299
C      2.111908856675    0.700798894786    3.505711065792
C      0.948175287659    1.424505315857    3.289964898341
H      2.370746473377    4.421020068557    2.477427302220
H      2.044817013837   -0.341369709407    3.830231989470
H     -0.028927676991    0.964059181190    3.449824420475
C      4.834603022216    3.278407925996    2.750620284732
H      5.400293141987    3.292946262699    3.697779201673
H      5.465070708758    2.741813892693    2.021179976368
H      4.727301635832    4.316958102720    2.406779777454
C      4.628560575540    0.463720049389    3.626981664250
H      5.269764845570    0.377934750621    2.733900842795
H      5.243631165950    0.930305268764    4.414967121783
H      4.373693059164   -0.553803748660    3.955438281741
C     -0.389054107890    3.119832288610   -3.685053969018
H     -1.454189704782    2.972305558226   -3.920618659428
H     -0.112666180276    4.160093176195   -3.895137618886
H      0.177757790654    2.449100104453   -4.347059403694
C     -1.684472722263    5.229640675807   -1.623807755882
H     -1.775874508582    6.324745423214   -1.687144921242
H     -1.987429948654    4.826375233392   -2.599821972196
C     -2.606717599578    4.699357226434   -0.545105247562
C     -3.188346809467    3.424986744823   -0.649088473097
C     -2.897369641215    5.471809874636    0.593086579548
C     -4.030767939505    2.932753269738    0.351986372388
H     -2.983398540179    2.804466283236   -1.525740388082
C     -3.740684387870    4.983053830248    1.594542516644
H     -2.450676538392    6.463979218432    0.692954500538
C     -4.310216210938    3.711345272569    1.478749877381
H     -4.472503531381    1.938115318118    0.248070391703
H     -3.956165625313    5.602565160149    2.469292883374
H     -4.972804825178    3.330617820145    2.260610457162
N      2.031960170042    1.246187030087   -0.007697804722
C      1.371134539351    0.081135384097   -0.001345473482
C      2.087889887333   -1.172912642301    0.040111962932
C      3.511275105761   -1.154691249910   -0.029999976691
C      4.156641927083    0.114343791474   -0.142083275263
C      3.399549240811    1.253339143307   -0.114109085195
C      1.395067561494   -2.405033286345    0.114768897570
C      2.100104190575   -3.594333443306    0.143566878368
C      3.513495587115   -3.583573017613    0.083500050371
C      4.207513138688   -2.390627803511   -0.006403434941
H      0.304808948829   -2.386553560099    0.147061936707
H      1.567424308822   -4.546252855902    0.205076801319
H      4.060831468644   -4.529673203729    0.101969113227
H      5.299165366096   -2.386881074734   -0.061951993775
H      5.241433637367    0.179069986108   -0.243514680889
H      3.859214018763    2.241267832964   -0.178631230356
