68

C      2.441518640018    3.767521282356    1.423959921871
H      0.350760433869    1.919611982806   -2.588706308297
C      0.232602200112    5.281137386597    0.031375421912
H      1.054022224668    5.976553939514    0.213637658175
H     -0.223858993688    5.257843387416   -0.960838617182
C     -0.437789094135    4.694876482558    1.086183089403
H     -1.382507659482    4.183226475988    0.881409787468
C     -0.182560169824    4.973782631239    2.537151824421
O     -0.645572499951    4.302477819408    3.429330495186
O      0.569555180948    6.065723353173    2.729170655861
Pd     0.966490653709    3.196597029388    0.209916552621
C     -1.629289828934    2.841017781357   -1.684505146461
O     -0.484554692406    2.354397477440   -1.216437841446
O     -2.222712100508    3.772817543260   -1.175519689790
C     -2.174058521324    2.144685017243   -2.955130059898
H     -3.180309922010    2.575856995004   -3.066375053692
N     -1.462028706053    2.448793242905   -4.193641361594
C     -0.213939216744    2.274151548961   -4.390518864330
O      0.726833919352    1.881592995292   -3.503819399015
O      0.033271305343    0.146271328481   -0.021481403756
H     -0.327895703468    0.999520390075   -0.417939336734
C      2.549918740886    3.210595775485    2.703666302787
C      3.634883568593    3.507043484438    3.546401428975
C      4.642390480768    4.391392296154    3.092916886180
C      4.519764224378    4.945510259601    1.811928943695
C      3.433861449981    4.646827436543    0.978389720481
H      1.778779677039    2.527782121879    3.071044755096
H      5.293156811602    5.631240755093    1.451897309573
H      3.384153209596    5.102750186018   -0.014442696446
C      3.721580515565    2.878309067951    4.915954502996
H      4.633749119790    2.266805656930    5.024826659312
H      3.761511110558    3.640537334487    5.712900772655
H      2.856330212815    2.230069211265    5.115235009116
C      5.826800325992    4.728318122755    3.965600035609
H      5.516298221596    5.191187135713    4.918021014678
H      6.406656169522    3.828050227276    4.232435130002
H      6.509450016187    5.427805033060    3.461373026702
C      0.882501106975    6.407734508761    4.091479844655
H     -0.059695731360    6.539867815985    4.647579136742
H      1.417406537447    5.561244906888    4.550476104374
C      1.720517046902    7.668608120806    4.077265952483
H      1.174259287219    8.501220365647    3.607605583925
H      1.973597394077    7.961347204371    5.108257428452
H      2.657494242527    7.509525998304    3.522117913687
C      0.378792546218    2.500295318069   -5.755791886064
H     -0.406767710904    2.787093577226   -6.464072149720
H      1.150214891533    3.286443731857   -5.710650089749
H      0.878548229097    1.580446721752   -6.101303366705
C     -2.325182627714    0.627761233422   -2.754624534299
H     -1.351615298256    0.138011583158   -2.604155848573
H     -2.963443464107    0.404361679351   -1.884442919291
H     -2.793147534173    0.188969683981   -3.648781130800
N      2.021460959129    1.312432481718   -0.075905274234
C      1.351327331465    0.158985258135   -0.040446107998
C      2.026160009969   -1.113673096791   -0.012439732618
C      3.449050546824   -1.127325631022   -0.079724178271
C      4.121000700991    0.126965335544   -0.176416484844
C      3.393487207592    1.283501879458   -0.163653919150
C      1.304898725129   -2.330872586261    0.065814619588
C      1.984476796525   -3.534050875455    0.089013751392
C      3.398170348825   -3.554652519195    0.027400456463
C      4.118393750984   -2.377904134838   -0.057589794038
H      0.215792670270   -2.295611035981    0.107626737197
H      1.430978519452   -4.473817550441    0.151360319564
H      3.923766042592   -4.512925137209    0.044049432942
H      5.209819364412   -2.396345649406   -0.109459058881
H      5.208954691308    0.169039525535   -0.250682936834
H      3.881174648325    2.255891847856   -0.209385581563
