72

C      2.445819377601    3.796859645314    1.419738653942
H      0.434796305083    1.839149723595   -2.584192789671
C      0.261847974722    5.325653687257    0.010611220166
H      1.073568455849    6.018850172578    0.238717177138
H     -0.163747120935    5.320983429035   -0.995512980626
C     -0.439692369483    4.708700475097    1.026579558611
H     -1.374816165799    4.199303193424    0.778231499345
C     -0.233788505352    4.947790853701    2.492389651620
O     -0.723295136054    4.250599337805    3.349915665082
O      0.508520832965    6.035417588432    2.739518084355
Pd     1.001165048519    3.238959099815    0.162655551833
C     -1.528368209334    2.891224685694   -1.814045213123
O     -0.415851688095    2.392749344140   -1.288212132974
O     -2.085770385126    3.885292958327   -1.386590763776
C     -2.090659816375    2.127366153743   -3.037923128834
H     -3.056851904784    2.625097490483   -3.221629397333
N     -1.323825219750    2.268181679617   -4.270878841828
C     -0.078075324883    2.039896754087   -4.420638305925
O      0.834512592615    1.709072355967   -3.481839332089
O      0.104563034706    0.184488743581   -0.047092551286
H     -0.272319516441    1.022550838226   -0.446402451527
C      2.527180383186    3.215941888924    2.690928717249
C      3.588733441195    3.503228806666    3.565956415475
C      4.600965961277    4.402810142358    3.154789596770
C      4.506253450121    4.980308550781    1.881879998702
C      3.443284141795    4.690507472312    1.016152488290
H      1.752093179073    2.520835731319    3.025810533657
H      5.283401884129    5.678027841179    1.554363525255
H      3.414482664353    5.166109996681    0.031683335402
C      3.645732780772    2.849046349062    4.925196861617
H      4.559737020097    2.242485529199    5.046053366146
H      3.659307968312    3.596118555729    5.737270540563
H      2.780799533423    2.190714744378    5.090008092562
C      5.760724108231    4.731005900430    4.063231494905
H      5.423214213979    5.173278615649    5.016262545440
H      6.340594820307    3.829892188971    4.327265008299
H      6.450502414469    5.444881250637    3.589770341969
C      0.776423963833    6.339167980075    4.120254635095
H     -0.183588225059    6.462962571746    4.647115155003
H      1.290282039796    5.477490763211    4.574943167154
C      1.621686435137    7.594366233329    4.167997650180
H      1.096812963336    8.442560447021    3.701860843836
H      1.840832961759    7.858483888666    5.214384514133
H      2.576139969858    7.443238238350    3.641113558407
C      0.547984893375    2.117108081512   -5.788520350211
H     -0.211443508632    2.368911159119   -6.537449363919
H      1.350000979962    2.873295782067   -5.797150733762
H      1.016354035606    1.150962478449   -6.038838942021
C     -2.400505719463    0.640289255993   -2.700055011354
H     -1.440077655829    0.140169075401   -2.481917712564
C     -3.294623264217    0.525248759039   -1.458231250387
H     -3.503954445044   -0.531420906959   -1.227936909120
H     -2.837298365931    0.970031115273   -0.560519752110
H     -4.261260340975    1.031084089545   -1.621837050662
C     -3.047556267453   -0.070132157336   -3.895315386974
H     -4.021127399157    0.387462455036   -4.141261124835
H     -2.417243553962   -0.009948959820   -4.793104405615
H     -3.225553830471   -1.133118240775   -3.664142987396
N      2.090083521630    1.377966948497   -0.148414128540
C      1.422158975552    0.215239620418   -0.121813560044
C      2.115648334949   -1.036615389051   -0.163660907449
C      3.497965903570   -1.023895778731   -0.287823171060
C      4.169706696107    0.210336684248   -0.361127329503
C      3.442834136983    1.378597764611   -0.281306294683
H      4.061602474609   -1.955572773240   -0.342633955807
H      5.254329207830    0.249976068462   -0.470238040884
H      3.925738224452    2.354247634622   -0.302559411533
O      1.331442903659   -2.128098444677   -0.094875610165
C      1.932881736377   -3.403828330262   -0.148816175967
H      2.632329926801   -3.561522123113    0.692039743376
H      1.117413670990   -4.134978883736   -0.077580705039
H      2.474111317758   -3.559625543165   -1.099481565443
