73

C      2.447523639048    3.774655447689    1.383226310709
H      0.419805550081    1.930307196089   -2.644047887117
C      0.182668160758    5.268443219743    0.056357818895
H      0.979585854797    5.983321436803    0.269534240624
H     -0.271141608206    5.269672613707   -0.937335556504
C     -0.468126327793    4.616024152668    1.083947201550
H     -1.393785033638    4.079936890550    0.856513387179
C     -0.223538406990    4.842925027911    2.545742608258
O     -0.668105711926    4.122898575420    3.408727792377
O      0.496465110927    5.947489516929    2.784074436414
Pd     0.988347233456    3.204323441247    0.149764358940
C     -1.577535996017    2.824947451082   -1.761740847914
O     -0.427015310728    2.359690747888   -1.306450235158
O     -2.205870046752    3.724219665284   -1.233119240479
C     -2.118621978590    2.136980262898   -3.048383789531
H     -3.101635502903    2.616317938946   -3.182074725573
N     -1.383601167342    2.388393736471   -4.276288750160
C     -0.125001309298    2.263631270073   -4.451779592573
O      0.818701936853    1.928022381871   -3.552936070963
O      0.161927277387    0.139024840951   -0.060030434661
H     -0.251306136023    0.950040426010   -0.469727142508
C      2.576125421424    3.172747193156    2.640549246131
C      3.651389771868    3.472884468485    3.494261855690
C      4.628506759656    4.407016154916    3.075224534175
C      4.486479375134    5.004825424207    1.816152199728
C      3.410213790345    4.701992355811    0.971618258716
H      1.828478988575    2.450877513355    2.981073842693
H      5.236381130546    5.729046284242    1.482690180022
H      3.343787482580    5.193967620399   -0.002953117569
C      3.760224847156    2.795734019530    4.839001114646
H      4.693032489709    2.212404300362    4.925647421407
H      3.774065831551    3.527882287795    5.664556428546
H      2.917782073693    2.111026167051    5.012534996021
C      5.801716238418    4.749857766096    3.960718590662
H      5.476780187550    5.165013100091    4.930187934571
H      6.412002800989    3.860120316018    4.192881167903
H      6.459909831957    5.490913460703    3.484049660391
C      0.798099963438    6.241952725115    4.159849342270
H     -0.148371784558    6.332940378343    4.717026027236
H      1.348812197008    5.389342559068    4.587655201521
C      1.610031116287    7.519272270725    4.198149876033
H      1.048327425938    8.358274275104    3.759075977882
H      1.853816430514    7.776705477220    5.240739511522
H      2.551707083911    7.400795716319    3.640807269500
C      0.470087690722    2.489142456004   -5.817160234396
H     -0.317945724133    2.741617379973   -6.535560485215
H      1.215258397133    3.300215448086   -5.775759118699
H      1.003032692718    1.581982943663   -6.146084892949
C     -2.391251238921    0.652194409841   -2.772924177311
C     -1.945956947363   -0.364515967556   -3.625588412264
C     -2.239975091047   -1.705213719478   -3.351180341554
C     -2.986784258498   -2.048567554121   -2.222929635828
C     -3.445562619706   -1.038741193368   -1.369971269479
C     -3.154798962690    0.297593059207   -1.646766920669
H     -1.377778837321   -0.104377034433   -4.519351623645
H     -1.883812837686   -2.484885369517   -4.030262316827
H     -3.214387075004   -3.096044314834   -2.008572722091
H     -4.035210900004   -1.293039422124   -0.485228026952
H     -3.528042396169    1.080580424851   -0.979632535341
N      2.113048659137    1.382470676009   -0.221388075320
C      1.474638075122    0.203802468007   -0.170049129788
C      2.200903730382   -1.029978805132   -0.216970295996
C      3.577839587718   -0.981851642386   -0.385208735334
C      4.214803782466    0.268597638390   -0.491111558348
C      3.460651491110    1.418027393551   -0.396221411904
H      4.163790826142   -1.899113574428   -0.448593250013
H      5.294024397973    0.335105812656   -0.635215606779
H      3.916622494480    2.405956949182   -0.437822998299
O      1.450234406164   -2.140678582256   -0.108791638810
C      2.082202834707   -3.400461691370   -0.174446163682
H      2.814436134486   -3.533782683378    0.642519310192
H      1.288742683720   -4.151506722721   -0.069931775052
H      2.594046163849   -3.549934168379   -1.142311195977
