55

C     -0.597234591643    2.779851426447   -1.480642205842
H     -1.455398646400    3.242107876118   -1.974453920064
H     -0.019989367326    2.038139497284   -2.037533739523
C     -0.112068030106    3.300116389197   -0.302638901763
H      0.825310152520    2.930993264537    0.126802616168
C     -0.706099537746    4.495052733850    0.391480966506
O     -0.410238907580    4.801211242190    1.522021993302
O     -1.559470425167    5.164949916644   -0.387110617265
Pd    -1.424573179054    1.516510224029    0.168066836192
C     -3.839983849691    2.395818454909    1.366595966016
O     -2.906032309364    2.777472802124    0.527015835791
O     -4.761454468013    3.102638450563    1.705658344045
C     -3.702766569620    0.952071097372    1.928562388967
H     -4.684983154218    0.487293000831    1.744470740089
N     -2.654638629017    0.228651171650    1.199921134693
C     -2.638887519371   -1.075072636773    1.148322320631
O     -1.722918625923   -1.737607429541    0.505919288710
O     -0.081969281235    0.030619005291   -0.260126508465
H     -0.997774884806   -1.124683889499    0.111282584049
C     -2.378725157435    6.167607631877    0.246881941775
H     -3.075825414283    5.647867703473    0.923738354064
H     -1.734744450870    6.823237476350    0.852873790213
C     -3.113700449928    6.926038614633   -0.837589026553
H     -3.748725833472    6.248185415605   -1.428283490635
H     -3.761085257895    7.692019101198   -0.382890844572
H     -2.410185639326    7.428911825810   -1.519735690114
C     -3.680780795454   -1.935827455277    1.810992935447
H     -3.768911125342   -1.689573856090    2.878929588710
H     -4.666864840259   -1.769130582207    1.348906494891
H     -3.403131075051   -2.989625428286    1.691965629294
C     -3.478228643930    1.012413255579    3.437655601292
C     -4.576542198730    1.248991862361    4.279385983608
C     -4.400449469912    1.357305398713    5.660110422997
C     -3.124266610645    1.233146695485    6.219178439927
C     -2.026152730291    1.004764638723    5.386597843243
C     -2.200091233309    0.896938727113    4.002857799418
H     -5.571376407442    1.367705729785    3.844172019021
H     -5.265292554729    1.540786511199    6.302872328815
H     -2.986978386872    1.317067895357    7.300219755369
H     -1.023445638595    0.914739700065    5.811979603281
H     -1.332339400560    0.726272877957    3.362311224276
N      1.833632088150    0.987998569949    0.615460924081
C      1.193434278316   -0.052622060606    0.105316552784
C      1.852825119400   -1.312691459816   -0.087031887307
C      3.189705878268   -1.420736710095    0.274415091128
C      3.847603415708   -0.298279083861    0.812636309401
C      3.128736021868    0.876804511836    0.961642767067
H      3.728571927213   -2.360570427189    0.146503423028
H      4.897472162289   -0.354544098672    1.106581735313
H      3.597051426736    1.774629652237    1.378830537086
O      1.086166272962   -2.300981044432   -0.611099310312
C      1.647579406652   -3.582473109907   -0.780360500823
H      1.993513582895   -4.008455731233    0.179212768749
H      0.853522482801   -4.221191702942   -1.189179653443
H      2.496499765528   -3.567575207890   -1.488020570800
