59

C      2.753808746981    3.985927158448    0.805506979789
H      1.447272342165    5.177951018418    1.769635740256
Pd     1.113958598812    3.137494363621    0.021704625914
C     -1.652794344349    3.187584952469   -0.925335697144
O     -0.680305041777    2.329807101134   -0.750933114271
O     -2.824627853985    2.916164817232   -1.077405265156
C     -1.154816817866    4.657774016030   -0.970889312210
H     -2.025273409396    5.292323765262   -0.753195914601
N     -0.113568985847    4.812291882796    0.061055047339
C     -0.199182686023    5.710843813552    0.986573016249
O      0.717516603807    5.821203448208    1.932352284734
O      0.068337674791    0.136568666556    0.221641293288
H     -0.379111299755    0.978924723928   -0.132407092627
C      3.243262620512    3.604012070948    2.070333075236
C      4.408458782252    4.155601323993    2.631108665413
C      5.130572183957    5.127611504148    1.901126289691
C      4.647632284934    5.511769838471    0.642095402770
C      3.479664572769    4.963684468149    0.100945506983
H      2.707384819432    2.842999285363    2.646772038035
H      5.197906029018    6.266602460019    0.071298843333
H      3.138032419742    5.305797717251   -0.880122609490
C      4.880607296747    3.708051133897    3.992897303483
H      5.894170865684    3.273579663176    3.949869189383
H      4.933061751852    4.550809904422    4.703425991793
H      4.208837389121    2.949920322866    4.420891701656
C      6.388701629073    5.742780188973    2.462699094680
H      6.198887497607    6.261378969161    3.418250226316
H      7.159455515797    4.980611283356    2.670215448569
H      6.821853853968    6.474970461302    1.765655373795
C     -1.307737882187    6.720689515998    1.132280407622
H     -1.380812062718    7.357894095823    0.239469855576
H     -2.277546086072    6.218728440545    1.268128402648
H     -1.103615052806    7.349406923875    2.007004243074
C     -0.623183941335    5.019762525165   -2.389274806707
H      0.223332662104    4.337036371499   -2.589618561628
C     -1.704808737052    4.777392482720   -3.451046606126
H     -1.310167237787    4.961822119752   -4.461095268909
H     -2.088875686187    3.748678141343   -3.422813854922
H     -2.565156541628    5.451120235596   -3.297756432662
C     -0.081750937611    6.461974519681   -2.439153636180
H     -0.922289971110    7.165708858477   -2.289079983908
H      0.608087152672    6.615082333134   -1.593153525481
C      0.657459845114    6.823648802541   -3.730373406977
H     -0.000581534928    6.792811688734   -4.612468385698
H      1.076768149694    7.840744113661   -3.671049455196
H      1.494773180904    6.130213626211   -3.916849003376
N      2.079944254526    1.264635140820   -0.107073304240
C      1.372634964391    0.120296513485    0.055403195042
C      2.008935187407   -1.156291238529    0.073373058331
C      3.378019408702   -1.199503054083   -0.138195635346
C      4.099057998167   -0.015045989060   -0.360793095379
C      3.416213459744    1.184938771307   -0.330504936430
H      3.890522675341   -2.165728761624   -0.142964701064
H      5.174065710048   -0.025368444172   -0.545409750995
H      3.932532521288    2.132994980142   -0.474040452141
C      1.164858539876   -2.379739835483    0.295360845168
H      0.644573997572   -2.332660430753    1.265893109392
H      0.376418708533   -2.457235381100   -0.470517186604
H      1.777222734040   -3.292528439339    0.268551865355
