75

C      1.611759769931    3.031382225421    2.184430378110
H      0.730802798267    4.378939725526   -2.838461872870
C      0.379084327226    5.204483114137    0.311716368986
H      0.238374693133    5.469946420308   -0.738514953948
H      1.170543084777    5.717175497456    0.864254045323
C     -0.579926899415    4.489807187569    0.999568653540
H     -0.532008790301    4.411365067006    2.087340471700
C     -1.912467719262    4.041703861621    0.467636570349
O     -2.677369013256    3.391676110782    1.141675622291
O     -2.155465206082    4.462436398952   -0.777146778218
Pd     1.008721914238    3.080585338065    0.276636813970
C     -0.415555831104    2.370066738268   -2.308809041065
O      0.505090863012    3.133684341383   -1.842617972712
O     -0.955958602407    1.456352887092   -1.661565647578
C     -0.879440474459    2.603900515577   -3.762125779650
H     -1.765385166007    1.958369072049   -3.846895310784
N     -1.334843405495    3.951474904380   -4.114062907930
C     -0.654466982601    5.026258381206   -3.983528282005
O      0.541592775088    5.185843797051   -3.391941617129
O      0.052510069205    0.113326715574    0.224301757243
H     -0.365142061744    0.779241059534   -0.448835823518
C      1.008707848588    2.139810913680    3.081274291371
C      1.413720072008    2.060345217891    4.423748075605
C      2.457331345834    2.898683375460    4.883042316884
C      3.052777887547    3.783671818293    3.976510254197
C      2.641142336458    3.860427225982    2.639029737496
H      0.201302259733    1.485105794019    2.740158500020
H      3.862880156190    4.434184904523    4.320795045309
H      3.144526082416    4.563591269551    1.969915950942
C      0.737408742226    1.088951831644    5.360124793053
H      1.455788886746    0.367850113337    5.786602159409
H      0.270776173477    1.607153097974    6.215382952720
H     -0.048367707553    0.517542998911    4.845576946573
C      2.919868330930    2.842437095148    6.318486462428
H      2.101814571330    3.076283003519    7.021331737891
H      3.286829651143    1.837913621510    6.590948760944
H      3.734689901948    3.557337194003    6.504666465496
C     -3.411998736405    4.067115197846   -1.384416981508
H     -3.204983268620    4.095735544912   -2.462945131545
H     -3.630358593398    3.033868162510   -1.080057079277
C     -4.537184250661    5.010812322012   -0.998218584705
H     -4.292483828138    6.050047844412   -1.268570842341
H     -5.455469683557    4.726203042965   -1.536618102066
H     -4.745988094232    4.961948274070    0.080785414494
C     -1.183000732466    6.324162546870   -4.533285155880
H     -0.430240387466    6.774116924155   -5.200616749106
H     -2.115120405154    6.154536511709   -5.084135720102
H     -1.356075168412    7.041036500494   -3.713841652309
C      0.127345085124    2.085291684801   -4.797039805395
C     -0.371650569386    1.719577969346   -6.059198313287
C      0.483186512188    1.274334966485   -7.067996106224
C      1.859328988118    1.182276644269   -6.831572477069
C      2.365986539196    1.540511580059   -5.581077933217
C      1.508255766639    1.992128756305   -4.571051857847
H     -1.445874729082    1.793471141993   -6.247842949199
H      0.073874742285    0.993447117959   -8.042139039188
H      2.531184151410    0.829951483606   -7.618642916019
H      3.439091905384    1.470056593613   -5.383817351918
H      1.922338314930    2.267591571505   -3.600287672129
N      2.056550713552    1.227504527363    0.016404103747
C      1.363061078665    0.100119948716    0.189257872807
C      2.025320117620   -1.157140250965    0.371787055917
C      3.388580607461   -1.217394663750    0.305445610541
C      4.145746311869   -0.037407653091    0.041907666117
C      3.429851514553    1.190013166294   -0.102452044047
C      5.557982922323   -0.038765005512   -0.081094907700
C      6.245701597896    1.130162186672   -0.344964958904
C      5.534293209750    2.341751281091   -0.495473262265
C      4.156674074432    2.374250783059   -0.375083716914
H      1.399711782705   -2.034412601400    0.538395733722
H      3.910640630475   -2.169480745833    0.434366925505
H      6.092837243620   -0.985415438163    0.033149525453
H      7.333651668479    1.120791124007   -0.441349111581
H      6.077272602438    3.264835226931   -0.712800797869
H      3.606857187009    3.309738722892   -0.499789266974
