74

C      1.580595585265    3.135814046979    1.693143767619
H      2.254995653001    3.344374581286   -2.045023977574
C     -0.381966497210    4.875636589034    0.023015544395
H     -1.089337209293    4.904955523067   -0.807615684200
H     -0.793222590342    4.705075762949    1.020456034177
C      0.912909607137    5.308898570129   -0.127280049547
H      1.547611173557    5.479119536231    0.743382458960
C      1.489572967380    5.919192204464   -1.366911332917
O      2.651240346970    6.246189662612   -1.452038808997
O      0.587094396778    6.100098944742   -2.341812359010
Pd     0.882909817567    3.007048752106   -0.186017112587
C     -2.219412128793    2.701519135000   -1.511935486269
O     -2.123328464531    2.231089851381   -0.278662401300
O     -2.997081777231    3.582903949646   -1.801637387324
C     -1.272514579032    2.112771224383   -2.582467556010
H     -1.650077958010    2.545818975784   -3.520819034557
N      0.087236330294    2.613997763835   -2.319074068598
C      0.872619846421    2.947603475992   -3.279721269369
O      2.116775355634    3.368257910061   -3.015259247224
O     -0.430831091414    0.429111131053    0.406627596948
H     -1.418747499126    1.518880845839   -0.103229714980
C      0.731863617994    2.733870443870    2.730081586397
C      1.147201045483    2.778208279325    4.072390466145
C      2.451509215032    3.230282441873    4.379574553863
C      3.291867762704    3.617925235414    3.328004762407
C      2.872306000138    3.575181631717    1.992362928339
H     -0.266785079447    2.350980489973    2.503137210925
H      4.304404568769    3.965793329721    3.555099537999
H      3.562506494594    3.891746561003    1.205293699612
C      0.206762778510    2.335987993446    5.166853869117
H      0.625215886279    1.495164173192    5.746240322532
H      0.013043161777    3.147284788783    5.889536793888
H     -0.760691227809    2.012269635833    4.757043663890
C      2.933201967063    3.289465712424    5.808657028298
H      2.301756086894    3.950869111758    6.426550114241
H      2.908418487148    2.296513442124    6.289669879141
H      3.965948008871    3.663160620543    5.867586195507
C      1.055679263460    6.740657021839   -3.544920477364
H      1.563437490284    7.678216226434   -3.269040728156
H      1.813037986146    6.090295016167   -4.012100600331
C     -0.137779019600    6.983239586597   -4.444442109795
H     -0.875137181616    7.635828851518   -3.952935707260
H      0.189614029789    7.471493239375   -5.375525150836
H     -0.641156358836    6.039974029437   -4.706422877142
C      0.620104426055    2.950027112937   -4.760506529810
H      1.213822960953    2.150937127612   -5.230144597679
H     -0.433191380883    2.804698274492   -5.017032280636
H      0.973383874571    3.904341949230   -5.176768134035
C     -1.405297308065    0.563410971129   -2.677583189549
H     -1.152049263169    0.151330333827   -1.689645710830
C     -2.870177387056    0.211845407279   -2.980426033834
H     -3.018251212287   -0.877519450319   -2.999382370401
H     -3.555723420701    0.615050611751   -2.219889753220
H     -3.184347242045    0.610906313709   -3.960356621131
C     -0.439464500278   -0.065578503936   -3.698638721150
H     -0.703299220684    0.273318597959   -4.717509759515
H      0.580724216839    0.298980571031   -3.498317034959
C     -0.402563801113   -1.596675697996   -3.668803337511
H     -1.367954833813   -2.044800208997   -3.950477708884
H      0.353728882368   -1.983177475363   -4.370369923304
H     -0.141415358998   -1.965934775810   -2.663612126496
N      1.695158063225    1.076392412776   -0.138129877408
C      0.781944325700    0.116360833786    0.221761892834
C      1.245789399345   -1.245334402816    0.382966388199
C      2.580212816184   -1.525251879484    0.163901030610
C      3.488282500053   -0.506808721815   -0.203962619738
C      3.000687862655    0.776579294764   -0.328357509622
H      2.939206519998   -2.552040640914    0.286395403596
H      4.545637187095   -0.714160041974   -0.372409286455
H      3.661814646539    1.610214438499   -0.579363000317
C      0.237450809511   -2.275778504903    0.803297555103
H     -0.234217987858   -1.993662272573    1.759081090476
H     -0.586068691885   -2.348996826349    0.073385204506
H      0.699345397501   -3.268069891621    0.914305691474
