77

C      2.505030327378    3.933640746281   -1.042213265478
H     -1.567654681682   -0.715667838426   -0.063571882537
C     -0.415645999772    4.690818644184   -1.276809312531
H      0.103738152004    5.122468843467   -2.134907949181
H     -1.290250105229    4.065501550206   -1.473736317028
C     -0.168971658196    5.160387993896   -0.001787828367
H     -0.818999686563    4.875024954515    0.834866991844
C      0.754769593651    6.299709133679    0.306809115791
O      1.130758847729    6.565750665382    1.424481251243
O      1.084819143667    7.005342904406   -0.784259241457
Pd     0.843373059821    3.176912592265   -0.265697745525
C     -1.897254196085    2.351553393759    1.472364597960
O     -1.075530183594    2.204845857422    0.414066538788
O     -2.053340305283    3.436312955602    1.976929806605
C     -2.622145674987    1.084621851377    1.966150972184
H     -3.233704325113    1.483827850341    2.792490187776
N     -3.577882574361    0.641709975750    0.965473144370
C     -3.490833960621   -0.294392985430    0.106885969678
O     -2.455063615778   -1.114988347526   -0.193611558157
O     -0.084653334371    0.146437992940   -0.365281726180
H     -0.760579986788    1.237572813414    0.086733245755
C      3.408175126332    4.652885331571   -0.251129945309
C      4.620923635891    5.132232554829   -0.777872648631
C      4.929371570049    4.889261532034   -2.136779109823
C      4.010025604991    4.173110153857   -2.914892903107
C      2.806296131943    3.692391496400   -2.384754042507
H      3.180614813645    4.859177307824    0.798507441748
H      4.241769923125    3.976275686772   -3.966140776173
H      2.126015236409    3.125400503121   -3.025198771608
C      5.578571670744    5.894421525965    0.106115960586
H      6.555154649986    5.385732901649    0.179597044651
H      5.784685473862    6.903519639275   -0.290099291096
H      5.181527428243    6.007937144074    1.125145167418
C      6.222744421433    5.383568169152   -2.737326370196
H      6.314852235002    6.480987436708   -2.666699624549
H      7.101026818882    4.963357655548   -2.217861567891
H      6.300904946924    5.109667431763   -3.799481621906
C      1.973163465436    8.121438547728   -0.595407083207
H      1.514945437734    8.818483396397    0.124771426427
H      2.908335795782    7.754626019626   -0.143864450323
C      2.209160570763    8.765459362185   -1.945105070719
H      1.263865302066    9.118439350632   -2.385476115818
H      2.881363489554    9.630635814321   -1.834666379254
H      2.673410496997    8.052907318778   -2.643992105235
C     -4.693704451023   -0.648471554430   -0.731275352141
H     -5.554226793452   -0.034662046808   -0.442552419499
H     -4.464452516896   -0.503275226249   -1.799613576394
H     -4.932471782443   -1.716650138763   -0.600443327573
C     -1.655369980109    0.050228688915    2.622164618583
H     -1.022123135152   -0.401560204213    1.844179340294
C     -0.732302111504    0.749985186755    3.631036761951
H     -0.090089932173    0.024022826408    4.151234244205
H     -0.064412054023    1.478694097900    3.145310783226
H     -1.315516551012    1.292298803065    4.393921886671
C     -2.470956495528   -1.082037092689    3.278440679344
H     -3.017915445265   -0.665341787302    4.144331403479
H     -3.242304456658   -1.423316148176    2.571089656072
C     -1.643125156348   -2.291551585695    3.718360751663
H     -0.895527150586   -2.034200671896    4.485495105350
H     -2.289939979081   -3.074996900265    4.144669318500
H     -1.104550393912   -2.735494903874    2.864503163378
N      1.855677433341    1.295928718389    0.048879781445
C      1.175205507969    0.135265087052   -0.112872854349
C      1.871636723101   -1.139528815653    0.000494061861
C      3.254396519894   -1.153763387796    0.336470812015
C      3.901514322787    0.102448466452    0.540323148745
C      3.189789360923    1.256442764009    0.379991964042
C      1.187528816911   -2.359492819614   -0.217097179305
C      1.857770059437   -3.565083041683   -0.100644862067
C      3.229471720968   -3.583618747806    0.238324262591
C      3.916516576546   -2.402392731555    0.452893637271
H      0.129979884149   -2.335443868178   -0.482652044270
H      1.326694220633   -4.504371719708   -0.271640225105
H      3.750564315984   -4.540276742383    0.329994297942
H      4.978037414024   -2.416824123399    0.713168993846
H      4.957920665850    0.146726140575    0.810432639730
H      3.669996633546    2.225208250500    0.506581159351
