74

C      1.628923016466    3.082128374174    2.123875907125
H      0.663164005180    4.376286084242   -2.866466454049
C      0.376451162157    5.221812500794    0.222604323063
H      0.212849858143    5.465006735731   -0.829610800019
H      1.178010014700    5.749147131724    0.745716175862
C     -0.567437886973    4.524407597755    0.948494054997
H     -0.496742495414    4.473178996082    2.036592609215
C     -1.911759463387    4.064565607433    0.457016106704
O     -2.663773179421    3.436719503640    1.165510667074
O     -2.180144428079    4.449770852611   -0.794020744481
Pd     1.001493800237    3.096504258563    0.221360822517
C     -0.454874282899    2.364132225965   -2.342183138871
O      0.494823112482    3.108375618613   -1.896090294308
O     -1.026276927741    1.489000131132   -1.669923285912
C     -0.883462435263    2.571703592940   -3.809043162775
H     -1.722418839324    1.870098879145   -3.939565469698
N     -1.403111927726    3.899201762145   -4.126036861909
C     -0.771177134681    4.999217896041   -3.969156482006
O      0.433187776611    5.191050786260   -3.395749258999
O     -0.057624970914    0.212680929303    0.303269662014
H     -0.464605811531    0.837551341091   -0.406787373907
C      1.095453273850    2.151835940951    3.026152132492
C      1.518562305734    2.096698871118    4.364118694987
C      2.510522026469    2.999576026899    4.816081582397
C      3.034769901186    3.926023538719    3.907341095354
C      2.602496968951    3.980041458821    2.574850886109
H      0.327760568943    1.448346716738    2.691513766718
H      3.801123355696    4.630249794576    4.246200106119
H      3.041988799482    4.727385331616    1.907980200489
C      0.915312908410    1.082074947349    5.304511633755
H      1.682609039381    0.407391709306    5.721631569997
H      0.425348391862    1.567791945415    6.165748177147
H      0.162504099308    0.463081177700    4.795921781231
C      2.991224100414    2.969139950837    6.246241932757
H      2.167077547324    3.146327647077    6.958429937330
H      3.426112492796    1.989931180442    6.510788626672
H      3.759238951470    3.735465150812    6.426854432611
C     -3.446140883642    4.030624690174   -1.365269071022
H     -3.259434643528    4.025723191533   -2.447680729719
H     -3.653024442521    3.006187982378   -1.025940181275
C     -4.568284778127    4.980973545482   -0.986603738593
H     -4.334425899215    6.012646716856   -1.293298060425
H     -5.495271007782    4.675828372516   -1.498220115200
H     -4.756206681386    4.964500879393    0.097214293701
C     -1.367667698174    6.294423750129   -4.452532113681
H     -0.643186311181    6.820481615749   -5.094847740670
H     -2.293393164874    6.106243132036   -5.008339354910
H     -1.575814587817    6.955935506744   -3.595320376225
C      0.239145971604    2.119789710144   -4.794852496328
H      1.048982517753    2.869437347978   -4.736032951562
C      0.816317934800    0.753767613314   -4.399624257206
H      1.556717279245    0.408410078889   -5.137017182329
H      1.323994554090    0.786612275447   -3.423544006779
H      0.021743471016   -0.008605463484   -4.338821951428
C     -0.302921063584    2.116266234480   -6.238921474715
H     -1.012850868551    1.275062329327   -6.345248739445
H     -0.894722304771    3.031727606461   -6.390787833836
C      0.771152772796    2.026968424728   -7.325254576102
H      1.357809349521    1.096064726616   -7.264131187548
H      0.318528936257    2.059414248814   -8.329404112552
H      1.480028435635    2.869496531471   -7.255680061247
N      1.998060229103    1.209662268479   -0.032298420370
C      1.249060835602    0.101859791086    0.175257593019
C      1.855974706016   -1.166434364169    0.284834065040
C      3.225979402271   -1.269870166625    0.117685520273
C      3.977847072498   -0.121552936733   -0.168146695687
C      3.337564098866    1.113437443466   -0.234890239229
H      1.214661149180   -2.028092319452    0.471231364671
H      3.716212936108   -2.244377399848    0.187049041835
H      5.054635048804   -0.179761888010   -0.331661059379
C      4.092474986668    2.380487613371   -0.520560058985
H      3.606128248766    2.945893432503   -1.331041473929
H      4.111921480629    3.025236990370    0.372421108100
H      5.129274213089    2.165572468893   -0.813132723336
