72

C      2.537859625076    3.945684525332   -1.026681195814
H     -1.946120417410   -0.590986623127    0.610961676192
C     -0.515346605960    4.371458017410   -1.050628314447
H     -0.171497534791    4.758098327697   -2.012498030334
H     -1.349599297646    3.666272915073   -1.047598852090
C     -0.114591510138    4.984196991884    0.122216747608
H     -0.575494182543    4.742503211995    1.085316421243
C      0.728844182843    6.224542511397    0.166535296031
O      1.179000699287    6.682685582574    1.189630441256
O      0.887135378590    6.784105530896   -1.041481912651
Pd     0.995632557540    3.060334920643   -0.125140315810
C     -1.155578129780    2.177274777513    1.890533705480
O     -0.703620720106    1.952822983588    0.680896123947
O     -0.715930844286    3.036955446711    2.634809438821
C     -2.331540074030    1.273757401237    2.349889852320
H     -2.711289842582    1.795147572356    3.243446082060
N     -3.409595750889    1.294590207901    1.375688006418
C     -3.477939797107    0.554195347767    0.342728458099
O     -2.638901548703   -0.435780869533   -0.050234872161
O      0.358683251975   -0.111591435059   -0.226387799523
H     -0.173180228161    0.710114013778    0.086591622430
C      3.461035774110    4.694425573762   -0.284854318863
C      4.620457017814    5.229483640547   -0.874496723576
C      4.854517748989    5.017239719609   -2.253482950428
C      3.915900566808    4.278234315561   -2.986477430839
C      2.766953945895    3.742615964537   -2.390791353691
H      3.287535063012    4.883831324209    0.778928319698
H      4.090044473182    4.107445549134   -4.053439322157
H      2.069561429991    3.161994876832   -3.000900638906
C      5.600776496228    6.014451132368   -0.037143534462
H      6.591828678940    5.529449930566   -0.015388778322
H      5.759770457988    7.029892505204   -0.438337354898
H      5.252524090104    6.114154882179    1.000850105567
C      6.090333383800    5.567845162615   -2.922238555274
H      6.145829952941    6.666964047234   -2.840621353945
H      7.012579500027    5.174609911125   -2.461326956370
H      6.115276275726    5.310508152156   -3.991154677716
C      1.697083985653    7.971650885725   -1.107018024269
H      1.251420178220    8.738813190332   -0.453205947978
H      2.694898798087    7.738175463109   -0.703525520197
C      1.759338640588    8.417142927514   -2.552627354267
H      0.753591483960    8.637714990676   -2.942632373546
H      2.368457208601    9.330664806413   -2.636615653671
H      2.214551750640    7.638198643353   -3.183144972396
C     -4.605137722858    0.707859484839   -0.641454205725
H     -5.282032550157    1.504064509584   -0.312221199251
H     -4.201019304443    0.946905564966   -1.638748647143
H     -5.156595510253   -0.241294207006   -0.738564110315
C     -1.844302241555   -0.100137056578    2.843083471634
C     -2.762233993907   -1.153622374269    3.002251793166
C     -2.359119283981   -2.385726438424    3.522617930010
C     -1.029137188866   -2.588824759914    3.902926292235
C     -0.109475967631   -1.546308931726    3.763713695505
C     -0.513938001777   -0.313345271982    3.242415551462
H     -3.805629048116   -1.000584442354    2.716975520982
H     -3.090586647184   -3.190284649699    3.635271002891
H     -0.713189130719   -3.552551219047    4.310338204611
H      0.930907728154   -1.688309736879    4.068014513563
H      0.213473872184    0.498367521424    3.166828574909
N      2.204376818746    1.250544874246    0.112545789612
C      1.645355950232    0.023983582808   -0.033601527088
C      2.444239066054   -1.147487496211   -0.001360826282
C      3.798338688949   -1.043876684109    0.226088610556
C      4.362534885823    0.232903746118    0.420897245174
C      3.532573838489    1.337997041780    0.346442344094
H      1.943855273394   -2.105614119290   -0.142874938680
H      4.424606752685   -1.938394252691    0.264226747484
H      3.939159423168    2.341897883401    0.458405014592
C      5.836722419046    0.377682124541    0.681312561194
F      6.210281947088   -0.314541668033    1.774267495809
F      6.565314374151   -0.102237097844   -0.344408197790
F      6.195396670428    1.656911619678    0.869204069224
