47

H     -0.338181650458    0.664832232058    0.696867600306
C      2.012731232081    3.176143500571   -2.409840759707
H      2.827887475878    2.450062274928   -2.458890320216
H      2.257984197969    4.240043826472   -2.399590751881
C      0.723130917044    2.760895961760   -2.637156769477
H     -0.082762686622    3.484307643250   -2.782004973008
C      0.411716398577    1.328543827687   -2.957274846939
O      1.241019296241    0.454013344304   -3.061201353210
O     -0.902614067542    1.157775236437   -3.114644726946
Pd     0.969176515357    2.995575913261   -0.403178749592
C      0.141033551319    5.568697181386    0.395458054017
O      0.230158973006    4.818038445306   -0.688810061785
O     -0.089787805325    6.755894095638    0.362933111812
C      0.387788508333    4.830974459390    1.731228313682
H     -0.446687715803    5.128156682797    2.384420160014
N      0.369210043787    3.384921399050    1.493777510750
C     -0.337556885481    2.537039636826    2.243719703993
O     -0.594709924141    1.353945433989    1.915179773776
O     -0.016322569588   -0.006931072391   -0.053266909018
C     -1.369273334074   -0.191333983007   -3.321825006200
H     -0.811205473108   -0.633138234049   -4.162534943466
H     -1.130848685608   -0.770482040993   -2.415976818590
C     -2.858431325302   -0.134983532093   -3.586875538281
H     -3.079732244870    0.461160481371   -4.485670241293
H     -3.247423169421   -1.153150269821   -3.743332807556
H     -3.393491264666    0.310905933566   -2.734675526710
C     -0.894297804338    3.000747038707    3.583577966298
H     -1.144961434044    2.106824646952    4.167775222903
H     -0.193027149990    3.630275464033    4.148526996652
H     -1.820877940784    3.577758047405    3.428029755068
C      1.695456222271    5.326280807012    2.362757074501
H      1.854889575023    4.869188653041    3.351712866465
H      2.557780640112    5.070267813886    1.725682548264
H      1.659630532926    6.419847696617    2.475590103033
N      1.949012030707    1.178842409691   -0.034865311658
C      1.295013583133   -0.002682888916   -0.047719178334
C      2.030522494242   -1.209715176135   -0.054979803173
C      3.409023511707   -1.172132806270    0.005202579885
C      4.090084383823    0.063452851087    0.085182241155
C      3.300339303039    1.203299580767    0.056014415908
H      1.471813773969   -2.145426355200   -0.089068181173
H      3.978544566077   -2.106231034405    0.007584552149
H      3.756756957124    2.196012452657    0.093358124250
C      5.591556103362    0.140298104748    0.185430656201
H      5.941739711250    1.182602232395    0.215964760524
H      5.958302013269   -0.362564693096    1.095809713391
H      6.075836012260   -0.352169808522   -0.673995048938
