84

C      2.479130270973    3.716315953254   -1.129257910228
H     -2.268749419700    1.738697696501    0.095860437629
C     -0.536705793884    3.985474369502   -1.422561533085
H     -0.085795689652    4.200927437716   -2.393331404949
H     -1.350562096319    3.257765604235   -1.385056212675
C     -0.316904591067    4.839988161652   -0.357452718717
H     -0.908624801909    4.771820947416    0.559902874464
C      0.450628441268    6.125324554559   -0.455844943397
O      0.786748050336    6.774163977321    0.506675528135
O      0.679888343821    6.487674098862   -1.725081764228
Pd     0.925169370078    3.025088932014   -0.075254315714
C     -1.056759989007    2.314257245385    2.054675701203
O     -0.810949400569    1.946366625177    0.803132925148
O     -0.303770368634    3.032395430234    2.684677679683
C     -2.402537465595    1.838059286936    2.648413071318
H     -2.360423850662    2.185138136750    3.691122746671
N     -3.584999712643    2.457799499063    2.057109308335
C     -3.908968627590    2.413928721401    0.823980805832
O     -3.203306553911    1.893217357594   -0.206230434389
O      0.630603106598   -0.032210741845   -0.185136405326
H      0.000790855088    0.662539490833    0.172326067808
C      3.304949925750    4.756550806091   -0.689869477851
C      4.429970492366    5.165882250565   -1.426585279652
C      4.733143758633    4.518565449629   -2.646636180266
C      3.893796947442    3.484321466874   -3.080489518333
C      2.777535639016    3.078923300944   -2.338391620346
H      3.085494952397    5.277754685691    0.244840089308
H      4.118451997970    2.975277188326   -4.023006340051
H      2.156590251722    2.261604954764   -2.715892432372
C      5.306893665959    6.279922832394   -0.907316310439
H      6.338635122916    5.932125763660   -0.726394856903
H      5.382426852256    7.112514141712   -1.627770381064
H      4.920900113112    6.686901611380    0.038508590418
C      5.936936639317    4.924680871994   -3.461521805681
H      5.891923616954    5.985961057050   -3.760990704618
H      6.875008696965    4.801401484327   -2.893280261118
H      6.020884024220    4.322729540534   -4.378170697096
C      1.419842238476    7.704191150022   -1.933651713073
H      0.885700114158    8.530805302366   -1.437904962400
H      2.400597239211    7.607128161442   -1.442427891088
C      1.552843037198    7.920411599523   -3.426148307390
H      0.564263571231    8.006198434038   -3.903182025180
H      2.110739108643    8.849555402885   -3.621217487083
H      2.094667475779    7.085541283280   -3.896195455241
C     -5.226767473936    2.976189193775    0.362526045356
H     -5.793193304745    3.359881090457    1.218611988596
H     -5.062179999722    3.782240515519   -0.371215313816
H     -5.806312146612    2.190686016269   -0.149570464992
C     -2.545965428060    0.292988552174    2.672732566365
H     -3.563400980154    0.092204150294    3.046863141289
H     -2.505173670964   -0.098825295123    1.644830267915
C     -1.532673329173   -0.418272030398    3.542215881823
C     -0.513866529901   -1.204086734722    2.981786545372
C     -1.589136819242   -0.306499436152    4.942356793427
C      0.421970475023   -1.856849050133    3.791525304268
H     -0.453935061429   -1.309485052672    1.895493440823
C     -0.656043556617   -0.954167937618    5.754399956202
H     -2.379716137016    0.293439056676    5.402729657349
C      0.355173606463   -1.732697783570    5.181235154711
H      1.204697900788   -2.466176907852    3.331656036775
H     -0.720138374808   -0.853736856393    6.841197594320
H      1.084974449558   -2.241636152390    5.816275540646
N      2.178161223846    1.415708466420    0.675333769257
C      1.850351675731    0.207493692159    0.272789763882
C      2.786740642994   -0.898476767317    0.278545429743
C      4.085440370057   -0.681762395772    0.810324482020
C      4.375196241318    0.610350992393    1.416657297209
C      3.380368744553    1.624236779472    1.348873625509
C      2.425530878818   -2.152174912561   -0.263539522287
C      3.349399215667   -3.183356545264   -0.300514384543
C      4.646120037128   -2.975699463174    0.208843611258
C      5.006899240099   -1.752787941077    0.754773301206
C      5.575621767506    0.895450876426    2.106760637416
C      5.774619934290    2.118078298391    2.728729071729
C      4.764465293974    3.096462280174    2.693100875101
C      3.583736258010    2.852476484436    2.010718939560
H      1.417138466957   -2.284273450840   -0.656983265097
H      3.075513907115   -4.152227753585   -0.724097388759
H      5.377318382333   -3.787436023539    0.176750423285
H      6.016890054735   -1.622317648014    1.144499118349
H      6.354244135846    0.134161075168    2.171216407622
H      6.707028242783    2.311553963083    3.264122110657
H      4.902305042208    4.047100679442    3.213515178383
H      2.776106346469    3.585596343976    2.005702200158
