56

H     -0.375604117324    0.676985729913    0.649223131635
C      2.032891940126    3.140796981551   -2.361686075645
H      2.844271527600    2.410535830987   -2.413172282351
H      2.285194991333    4.202902894307   -2.348158936675
C      0.741078416815    2.732230878170   -2.587675914906
H     -0.062646498883    3.458990101063   -2.728063472942
C      0.425149046236    1.302681301998   -2.915817551458
O      1.251758744331    0.425879117957   -3.022501899512
O     -0.889059760433    1.137811130550   -3.079775529708
Pd     0.995482272005    2.967002852700   -0.352400286872
C      0.107147141193    5.531866312016    0.455682889884
O      0.239876929328    4.785682138401   -0.627892515566
O     -0.253019635352    6.688088585572    0.409623537384
C      0.476550823375    4.824536384061    1.782162446489
H     -0.287384758213    5.128549648960    2.511151979434
N      0.406182799758    3.378149068030    1.548898742415
C     -0.455059595483    2.579502136072    2.188102971869
O     -0.742572060356    1.418850021059    1.808317745236
O     -0.024442541995   -0.030898570689   -0.049041195886
C     -1.359392498614   -0.207683358527   -3.301341283966
H     -0.801195788362   -0.642402461093   -4.145683932339
H     -1.124037521758   -0.796718751140   -2.401181784642
C     -2.847919465281   -0.144285696041   -3.568260184371
H     -3.066040660552    0.462182826742   -4.460884180570
H     -3.239409709865   -1.159623243719   -3.736455658164
H     -3.383190727093    0.293771906418   -2.712163778581
C     -1.165846159009    3.061760796833    3.446130200726
H     -1.607529184722    2.184136593389    3.933228746237
H     -0.499392001084    3.579858827911    4.147705417469
H     -1.980807509737    3.754018343193    3.177745909945
C      1.857057932058    5.338215386731    2.348746168695
C      1.662626261621    6.774735831954    2.872848975926
H      2.616700414692    7.173602159532    3.254556261089
H      1.288417937920    7.442099558151    2.084722854985
H      0.935896912993    6.796997363618    3.701908003612
C      2.305443919792    4.435854185999    3.511837198849
H      1.571379584322    4.440060593824    4.333580705190
H      2.448475384815    3.394104120611    3.188098704923
H      3.259243350260    4.800482781014    3.926536154519
C      2.954335524305    5.344901504819    1.267601746489
H      3.114003994346    4.340792199162    0.841741074830
H      2.709464195285    6.030381406927    0.441574261458
H      3.911992440216    5.674704271351    1.701691510257
N      1.954155135808    1.135957168974    0.015380676123
C      1.285515223199   -0.037373656189   -0.013100977563
C      2.004951540763   -1.254697151906   -0.010425540284
C      3.382319461974   -1.236450648048    0.071688015202
C      4.078597701676   -0.010114782720    0.163351286670
C      3.304521268312    1.139928662726    0.125799597114
H      1.433760182177   -2.182312110346   -0.056328985171
H      3.938860171826   -2.178280435849    0.081086663889
H      3.775572892644    2.125030562948    0.172766425623
C      5.579377427211    0.046797402506    0.284994717572
H      5.942662354161    1.084349249330    0.323565124137
H      5.926738910192   -0.463416053201    1.198897626763
H      6.069363199554   -0.449482965896   -0.569006750872
