56

C      2.598693620020    3.606546790011    1.818448547052
H      3.345390803955    2.810492428279    1.829887672699
H      1.937314490566    3.751111153380    2.676134877333
C      2.651190265552    4.612266236903    0.879686796050
H      2.039035311677    5.499412861845    1.034254400299
C      3.726407397293    4.745682973155   -0.152928076043
O      4.662020308515    3.989605318334   -0.306917842260
O      3.534438337003    5.845173393854   -0.888663898885
Pd     1.082048652677    3.107821019280    0.240591870836
C     -1.441517925626    3.158126578432   -1.145316226860
O     -0.430698790007    2.338348156446   -0.854678029467
O     -2.446602936196    2.782753509980   -1.699823903907
C     -1.168598261218    4.612728194583   -0.744720630635
H     -2.138588162470    5.032143433186   -0.449317307952
N     -0.246913682379    4.620398672842    0.392245002635
C     -0.462255285106    5.321654681533    1.535740601155
O      0.274664655289    5.250722882753    2.521600994583
O      0.068411306420    0.076371889246    0.154997113095
H     -0.314589669804    0.916782637052   -0.246749707100
C      4.501333680071    6.123589535597   -1.921587354725
H      5.497585901067    6.202044337481   -1.457379769946
H      4.532851979685    5.265990680944   -2.612905342614
C      4.090393817608    7.404059699439   -2.616043720461
H      4.059883630556    8.245297511185   -1.906905069261
H      4.814878842716    7.646498328473   -3.408789483422
H      3.095776206648    7.303003026761   -3.076479243944
C     -1.672293117301    6.259370483931    1.587016278932
H     -1.590332742140    6.840493164607    2.513459988830
H     -1.716701350351    6.945439456251    0.727847179132
H     -2.614573590424    5.688600065432    1.611677163131
C     -0.614510389100    5.434955916648   -1.933663810700
H     -0.462091616235    6.465512694777   -1.564022216528
H      0.392215735745    5.049592794733   -2.173063253037
C     -1.463970097180    5.475494973457   -3.217672635296
H     -1.532401505594    4.446941908839   -3.612866584512
C     -0.761205275665    6.337685956743   -4.274956053393
H      0.261143741122    5.977413091693   -4.477748604734
H     -1.313773657259    6.328851219979   -5.228249587768
H     -0.684886136403    7.388528478828   -3.944779639405
C     -2.897510455905    5.962237348479   -2.967146980246
H     -3.445976448974    6.065720074561   -3.917420877451
H     -3.457779458689    5.249392548855   -2.344390632158
H     -2.905909712686    6.949478757814   -2.471616681064
N      2.099768750415    1.199629007314   -0.033105917267
C      1.383257495022    0.052935971941    0.056379002037
C      2.006023790353   -1.228029873778    0.066109752463
C      3.383893345328   -1.275531222223   -0.081179179678
C      4.118222779722   -0.089952183827   -0.236982065456
C      3.443369585886    1.115751123730   -0.203816247123
H      3.890685140442   -2.244620013089   -0.090421080360
H      5.200280106646   -0.099324975830   -0.374160010668
H      3.984900933645    2.057014264761   -0.301932053666
C      1.143358069363   -2.450564938985    0.207826365884
H      0.577020437912   -2.430130272164    1.153043766382
H      0.393714391400   -2.497553076462   -0.598295320578
H      1.750523070166   -3.366619948618    0.181981641045
