59

C      2.743209103585    4.019699243419    0.864481490923
H      1.431811378182    5.235923752634    1.795637571525
Pd     1.103453466827    3.160075138684    0.091698773002
C     -1.654095837186    3.200279281902   -0.880449416965
O     -0.688861094304    2.342317726073   -0.672306230887
O     -2.825280062336    2.931361232472   -1.042483296908
C     -1.148973864475    4.667186369216   -0.954306258517
H     -2.018369095044    5.310349310978   -0.758617593346
N     -0.116148506955    4.840314784892    0.083018100184
C     -0.205267051715    5.759357654957    0.987714886543
O      0.704226213796    5.886099738838    1.938595550261
O      0.042096841310    0.162944636728    0.360449394209
H     -0.400898558817    0.994863937853   -0.017003979011
C      3.225985797308    3.663544934355    2.139451856779
C      4.391092122600    4.222424632416    2.693214981421
C      5.120645900642    5.175079882854    1.945281367466
C      4.644727498809    5.533493254581    0.675993511152
C      3.476572388339    4.978722389646    0.142047288215
H      2.684190939744    2.917795766439    2.730177525287
H      5.200485902458    6.273590126080    0.091343188161
H      3.140405595400    5.301075946051   -0.847572967367
C      4.854558151001    3.803991333439    4.067246038535
H      5.867634302808    3.367083110601    4.040149296475
H      4.904328419054    4.662142855947    4.759322325161
H      4.178746313013    3.056812397451    4.507950573822
C      6.378384554377    5.798016478479    2.499212662118
H      6.185567756539    6.339484583319    3.441388768642
H      7.145009289174    5.037983831297    2.728747864395
H      6.818210199158    6.512166712240    1.787771032867
C     -1.310009480766    6.777314141846    1.101811088137
H     -1.371058071696    7.396401039171    0.195433898088
H     -2.283638054444    6.283005574989    1.238281795142
H     -1.111245289099    7.422914095557    1.965405747723
C     -0.603360029335    4.994871579327   -2.375776181302
H      0.239077710956    4.301255652279   -2.554961769420
C     -1.678736933157    4.738686508892   -3.440668266825
H     -1.274019629661    4.895276698455   -4.451444301405
H     -2.073895353594    3.715028871671   -3.391196423241
H     -2.533104596198    5.424781770864   -3.310357433064
C     -0.049572724294    6.431215431166   -2.452149978325
H     -0.885098254916    7.144884555408   -2.322357200432
H      0.636070023074    6.596279236406   -1.604991717746
C      0.700806714351    6.759679007361   -3.745811253586
H      0.048061700921    6.716008427997   -4.631296519108
H      1.128510588848    7.774199912053   -3.704950051675
H      1.533244470530    6.055375374593   -3.912451991629
N      2.060527739235    1.281692165466    0.011848681980
C      1.345097441607    0.145520668458    0.196632251764
C      2.001775100481   -1.108215524505    0.238295736250
C      3.364971020300   -1.178738680207    0.038588298985
C      4.107353856948   -0.004448516197   -0.209989564199
C      3.397933504257    1.187712624670   -0.203580913001
H      1.387277534219   -1.992273956923    0.411815058085
H      3.868247411328   -2.150038389937    0.060879603861
H      3.913656451674    2.134175028381   -0.365198776353
C      5.593031679164   -0.037012152942   -0.461852834501
H      6.000492835725    0.976465499082   -0.590419484127
H      6.132242880008   -0.512002964233    0.374667561021
H      5.834505770566   -0.613517883630   -1.370826023508
