60

C      2.789060973249    3.732690348513    1.804558072219
H      3.537444519471    2.938308969005    1.797236665201
H      2.163151220560    3.888098328221    2.686229917991
C      2.804554064460    4.721609923357    0.847100317204
H      2.208351072619    5.617668319024    1.013171521162
C      3.836421412369    4.806899187253   -0.233937900502
O      4.640851163357    3.946169768839   -0.511656830855
O      3.773547272026    5.989911630551   -0.857515440034
Pd     1.215587062813    3.199318364561    0.294476474442
C     -1.320486350939    3.228677975688   -1.076921130472
O     -0.328519477931    2.405391479698   -0.731726963242
O     -2.300498435843    2.859493204753   -1.673119926168
C     -1.053162257870    4.689946490991   -0.687914054522
H     -2.023138653116    5.097298340676   -0.371924966449
N     -0.093567364020    4.737128306316    0.410222861836
C     -0.321538887211    5.380800010650    1.591099383464
O      0.438034817902    5.291580549923    2.556650784332
O      0.120936060030    0.186486660206    0.349763127750
H     -0.237498262390    1.026399521131   -0.085420779577
C      4.732569043192    6.223676013436   -1.912592695425
H      5.740017238641    6.014323302213   -1.520637001355
H      4.542739008013    5.498714864368   -2.720668099059
C      4.583694362154    7.654968757050   -2.381172665907
H      4.778075990912    8.361280081679   -1.559444796542
H      5.307090274977    7.856833459387   -3.186224704943
H      3.572423208784    7.845611773478   -2.771170306218
C     -1.565197622905    6.263177437499    1.707947443912
H     -1.492482888373    6.794116777381    2.664744483409
H     -1.647279692729    6.990413331936    0.887961969945
H     -2.481719256951    5.650823454780    1.714363461440
C     -0.608264080309    5.471475710711   -1.958163293861
H      0.392631472019    5.113816423842   -2.250664763897
H     -1.305168286177    5.192842156094   -2.763995574979
C     -0.600258344784    6.972537216639   -1.787176837316
C     -1.758159667021    7.723646554606   -2.052169355086
C      0.542448331887    7.649281747044   -1.330118617481
C     -1.778415576015    9.107684381845   -1.859907333643
H     -2.655449463929    7.215774145607   -2.418847537365
C      0.524353343562    9.034419596865   -1.135251433864
H      1.456922936496    7.087311837243   -1.128217992046
C     -0.635840088088    9.768557894908   -1.397413086256
H     -2.688785841586    9.672965403369   -2.076411007432
H      1.424090279041    9.542265705223   -0.777540995385
H     -0.649073917252   10.851094364854   -1.246927422664
N      2.189143809561    1.233792730720    0.102827292823
C      1.425971795689    0.116119933352    0.266310133038
C      2.020110470546   -1.164735068997    0.366426900583
C      3.383855498679   -1.301377352764    0.230981697485
C      4.164868942508   -0.152358841693   -0.008385808867
C      3.522041745884    1.081914055807   -0.059230201630
H      1.355251028251   -2.014435445333    0.523786937512
H      3.860548009542   -2.280678328323    0.290406377323
H      4.113123453713    1.985906118923   -0.228983078848
C      5.641996638174   -0.194019192066   -0.195493739787
O      6.341675914663    0.771562717044   -0.387218228760
O      6.119470793551   -1.452991376474   -0.123520239039
C      7.529524523152   -1.601849566276   -0.289856278313
H      8.075607801908   -1.043497554849    0.485493684104
H      7.736055278930   -2.675624675153   -0.203467871109
H      7.848066192722   -1.228915198130   -1.274989303104
