57

H     -0.409308679448    0.737079180941    0.796126039071
C      2.146469605581    3.058010838846   -2.339345924570
H      2.937656703537    2.304369539993   -2.337372934778
H      2.428364066311    4.112991096254   -2.339778541116
C      0.853643399476    2.681746573134   -2.613250151712
H      0.080404949655    3.428532846542   -2.808933004517
C      0.505469316235    1.254512385190   -2.918569868103
O      1.302971995680    0.346364684212   -2.957448274980
O     -0.804567597785    1.129988827799   -3.145107669393
Pd     1.013746883831    2.955579365498   -0.379710268698
C      0.158165896478    5.549735778549    0.332359259183
O      0.326264363582    4.789818096395   -0.729939699529
O     -0.165246154470    6.715095198232    0.275109351927
C      0.419145742296    4.841211187631    1.691702910586
H     -0.391390261114    5.191309707791    2.348869600346
N      0.329347354108    3.397939112198    1.481514350458
C     -0.439719096657    2.606721055983    2.225731507088
O     -0.738067335064    1.423653150889    1.915896899662
O     -0.067761721627    0.006885976348    0.062451486052
C     -1.306456871076   -0.203191154790   -3.369662219419
H     -0.733653913305   -0.662447921258   -4.191002892327
H     -1.117143638194   -0.793013423639   -2.459088739988
C     -2.782975898514   -0.099824792685   -3.685960898714
H     -2.953551176523    0.504954922446   -4.589949687102
H     -3.197918322504   -1.104853116970   -3.859601421358
H     -3.333338987584    0.361088953555   -2.851683095088
C     -1.015898059764    3.123248582939    3.534827463852
H     -1.344386829448    2.257048330298    4.121994871139
H     -0.290078430055    3.713089382848    4.111890808531
H     -1.895796110271    3.757960175540    3.339375640540
C      1.747038304802    5.298965483600    2.306558105539
C      2.702445272150    4.375881013480    2.754297347067
C      3.898776555796    4.812890050549    3.335990517428
C      4.154268306201    6.177928313298    3.478604113719
C      3.203447051458    7.104901535020    3.036580559539
C      2.009633494694    6.671968542659    2.456979730542
H      2.505144694371    3.307282611466    2.652212521151
H      4.631082240348    4.078210748256    3.681851743443
H      5.087495622237    6.519940778135    3.933536028461
H      3.392632712429    8.176295957713    3.143998100690
H      1.273920224448    7.395153969749    2.099622325914
N      1.919162854555    1.128449317988    0.063810304226
C      1.233983183697   -0.021330636847    0.076902158165
C      1.927558155654   -1.287785346842    0.112622889985
C      3.350616172300   -1.293361880316    0.172916950477
C      4.022724722029   -0.033636656999    0.218692932105
C      3.289408854329    1.117463359608    0.165070093019
C      1.212866677577   -2.508851887355    0.105755964998
C      1.896342887851   -3.710669138513    0.136522496935
C      3.309649596478   -3.723235631516    0.183752645708
C      4.025303565319   -2.539889075529    0.205614710548
H      0.123128497380   -2.474212336871    0.077918277394
H      1.346010193184   -4.654436477604    0.128505052684
H      3.839830465919   -4.678829972027    0.208180940788
H      5.117277178563   -2.552135150960    0.249157590407
H      5.110344362418    0.013411086696    0.295060541759
H      3.767538808160    2.098617083817    0.196797424743
