74

C      1.381811838436    2.910570907905   -2.106687829889
H     -0.003072904184    1.833548625096    2.204293431921
C      0.483352965287    5.255410815272   -0.368731214935
H      0.552629954951    5.652133356982    0.650158243296
H      1.196444153730    5.608305308687   -1.117678177815
C     -0.624999918311    4.534202198999   -0.767505356797
H     -0.786358932059    4.291170067390   -1.821122683312
C     -1.846207000520    4.296625270295    0.084055502232
O     -2.577614301708    3.341905400425   -0.059947892745
O     -2.032128438027    5.280843761075    0.957721586275
Pd     0.966782497919    3.103801424842   -0.161148911086
C      0.265096017154    3.973464165021    2.884204698741
O      0.657723086747    3.096162195416    1.989628491688
O      0.499986301313    5.169670563537    2.837530175496
C     -0.537528234037    3.362088543507    4.063180354552
H     -0.882537204237    4.233005873079    4.637072749278
N     -1.747582655115    2.629744470151    3.678066684945
C     -1.781231203227    1.616762550028    2.904646730100
O     -0.717968146080    1.083545096913    2.243407479304
O     -0.004338699936    0.015310101409   -0.078290289278
H     -0.424601181207    0.496667022081    0.689028051991
C      2.484938425999    3.578649197316   -2.653578293786
C      2.845276014459    3.428614713912   -4.004571679617
C      2.071100899611    2.586335190961   -4.834733258660
C      0.969980148349    1.923547350691   -4.275656575618
C      0.619044818752    2.074233592288   -2.928760252129
H      3.100300279218    4.233568118893   -2.027922856336
H      0.366448692609    1.267287501987   -4.910510788133
H     -0.241238365380    1.530414214476   -2.530524692307
C      4.043367467936    4.163308859048   -4.555248165957
H      4.797134081591    3.466918472380   -4.961199323220
H      3.763172075625    4.835878455834   -5.384078666714
H      4.532809813498    4.772521018800   -3.781300858398
C      2.420023636662    2.402610187297   -6.291594709818
H      2.397028332499    3.358940641501   -6.842019077243
H      3.436659534946    1.992961875518   -6.421033088499
H      1.718080689185    1.716062822123   -6.786999329924
C     -3.161368663230    5.203244745970    1.859520589238
H     -4.075785549553    5.064190746831    1.260557082164
H     -3.031837129878    4.318690380885    2.502807855279
C     -3.178614069842    6.484760584046    2.665451645717
H     -3.323405710165    7.364067443642    2.018328094587
H     -3.999885849054    6.453664085904    3.398273826986
H     -2.227776694505    6.603579873457    3.206627431238
C     -3.068235303571    0.901232281470    2.606360263387
H     -3.845658264299    1.206039228121    3.316852168449
H     -3.391238832243    1.156774771220    1.583145576813
H     -2.920065257293   -0.189119840641    2.652069854061
C      0.362944553705    2.509543561284    4.987522306173
H     -0.266748611366    2.187078482241    5.836024497883
H      0.655712972238    1.589765713644    4.454817553885
C      1.632067581294    3.197605105963    5.525377145203
H      2.278750496430    3.435384823804    4.660208671319
C      2.408190470218    2.225569623795    6.424479424022
H      2.644599459291    1.286633434833    5.897034830339
H      3.358091042133    2.668041156632    6.766356611701
H      1.821671164260    1.963002204869    7.322085532459
C      1.338526283394    4.514278298765    6.257255375999
H      2.260753921211    4.932485054056    6.693065927984
H      0.923487952809    5.271332834317    5.575867962611
H      0.622338355209    4.358761990140    7.083381551788
N      1.972596394741    1.214048975402    0.101851166808
C      1.326907293327    0.039432080706   -0.016530476080
C      2.025923660840   -1.190362945403   -0.124291036266
C      3.414826344193   -1.145169874578   -0.052999188072
C      4.079030587325    0.076637711784    0.123538117944
C      3.320075800848    1.232171436682    0.190729516519
H      3.986079143358   -2.075141342383   -0.121234221502
H      5.166105003513    0.130312891599    0.196414116815
H      3.785776680551    2.213195225044    0.303606048316
C      1.248946147557   -2.466848368205   -0.285357243456
H      0.542170214872   -2.603505131013    0.548488533208
H      0.642539914837   -2.447449444087   -1.205148090910
H      1.920332300152   -3.336323393171   -0.326346912109
