57

C      2.774368443241    3.966036662784    0.807549481625
H      1.476098190227    5.173284208016    1.760318136423
Pd     1.132962252795    3.124834124077    0.019222923410
C     -1.624441358996    3.186942772953   -0.957837424895
O     -0.660588611979    2.324990551936   -0.761274188207
O     -2.792617234461    2.921969979063   -1.145749603715
C     -1.122736411258    4.656106566150   -0.983832580832
H     -1.993880978591    5.290701076252   -0.767817131974
N     -0.086122255800    4.805280452088    0.053256025760
C     -0.167331074834    5.709733732739    0.973081394555
O      0.749301481681    5.820912933074    1.918986233284
O      0.074374005433    0.129173611738    0.227281670457
H     -0.369615426070    0.968261260655   -0.135080614577
C      3.254409899087    3.587200420301    2.076790478914
C      4.420073364624    4.134001727432    2.641185400239
C      5.152491565937    5.097712559586    1.910483864646
C      4.679058936704    5.478669219579    0.646894126438
C      3.510548857288    4.935370738090    0.102080636548
H      2.710364073244    2.832427907888    2.653783928515
H      5.237396652748    6.227032815855    0.075379182273
H      3.176848642287    5.274119996523   -0.882924981000
C      4.881948535493    3.689998120491    4.007686657049
H      5.892596633105    3.248049116176    3.972178472329
H      4.936738445568    4.535858368067    4.714357899557
H      4.202486328366    2.938848005798    4.435844703105
C      6.411463995938    5.707585528478    2.476018607850
H      6.219737622222    6.232631625591    3.427680599603
H      7.176038533776    4.941540371230    2.692014743994
H      6.853395028702    6.433160038080    1.777549192937
C     -1.271019139056    6.725950305804    1.113549699811
H     -1.332104077687    7.368001611640    0.223436293160
H     -2.245254095096    6.230052025883    1.238782978867
H     -1.070077192179    7.349562877470    1.992602480362
C     -0.578319791792    5.030567922512   -2.392045692091
H      0.264922048983    4.345634833268   -2.594146886465
C     -1.644107274679    4.819538813377   -3.475351072832
H     -1.229081816119    5.059551181126   -4.467192789963
H     -2.017578135760    3.786606463554   -3.498983928451
H     -2.513489964011    5.477920559940   -3.308303203907
C     -0.040414275847    6.466135584104   -2.434199058873
H     -0.847229537057    7.199569644652   -2.261660124786
H      0.748514121465    6.637656184001   -1.686130846739
H      0.390351194391    6.685411773977   -3.424171865239
N      2.092511328267    1.247159454849   -0.107551392248
C      1.372949372845    0.120016332485    0.058032984580
C      2.022345047119   -1.162465813560    0.073185903704
C      3.388872068191   -1.228622761157   -0.145996859095
C      4.104475064860   -0.036318694221   -0.368776546933
C      3.433349932000    1.165541660319   -0.336788639760
H      3.907087300902   -2.187809768441   -0.159613973193
H      5.178743092387   -0.055168067142   -0.557494362422
H      3.951436123117    2.111422600069   -0.482264336736
O      1.201919731262   -2.209128237042    0.290701601143
C      1.748347571437   -3.508191782721    0.309294540730
H      2.501624641578   -3.625037353564    1.109883051142
H      0.913587293429   -4.194760452296    0.501400575691
H      2.213894984575   -3.770744155350   -0.658311191849
