74

C      1.653339901930    3.192670661659    1.784467247610
H      2.312401404673    3.023046050903   -1.895160300205
C     -0.422360668645    4.697936776437    0.005087547260
H     -1.108296764633    4.656750588157   -0.842566567735
H     -0.855040158797    4.551636063220    0.997580061279
C      0.850119990549    5.201040597524   -0.130049831383
H      1.444315364549    5.447140566177    0.750630689602
C      1.427951021810    5.812555260036   -1.368040756231
O      2.568157848714    6.210379715313   -1.426756566642
O      0.541711847158    5.932942437569   -2.370481711948
Pd     0.944354941868    2.907832900920   -0.071929223427
C     -2.188497770182    2.383804980429   -1.388063998099
O     -1.996096023447    1.905595405719   -0.170960279661
O     -3.089694557271    3.160005538904   -1.620371554491
C     -1.251172614908    1.959290918275   -2.543635362641
H     -1.632968466167    2.573240593730   -3.372520197081
N      0.133726138027    2.364215150037   -2.240994816203
C      0.922266076144    2.793600881461   -3.162139393655
O      2.179848536783    3.144332815187   -2.859445899342
O     -0.156811991334    0.407744720305    0.768052731089
H     -1.203479298749    1.302336298931    0.027729770474
C      0.831977095613    2.815928670330    2.851017569845
C      1.254280016579    2.973326664655    4.182915603944
C      2.534253176824    3.513872812666    4.445606970574
C      3.346009191541    3.874296766544    3.362152287258
C      2.921390598078    3.719666365378    2.036524008436
H     -0.142735261894    2.361127643412    2.657367299732
H      4.339508203807    4.290807017467    3.555104258345
H      3.585308520664    4.021773746952    1.222072101609
C      0.346487157478    2.555263259750    5.313810939502
H      0.814863236101    1.780178833446    5.944392780680
H      0.112157185356    3.401970886403    5.981819734378
H     -0.603481588037    2.151148792276    4.935996124536
C      3.021406201638    3.694813921769    5.862545116750
H      2.358850232624    4.361174809339    6.441261867421
H      3.053709842067    2.736469806255    6.408889688964
H      4.032641391167    4.126726997706    5.885913685692
C      0.988517008848    6.648958254407   -3.538746284051
H      1.457133647093    7.591093570188   -3.214354823671
H      1.775868666943    6.057287140576   -4.034176289725
C     -0.208630819801    6.889493750079   -4.433993577030
H     -0.973750964889    7.485893839097   -3.914345458092
H      0.104227781103    7.438637301235   -5.335681142558
H     -0.672005948621    5.942622083913   -4.750375228958
C      0.661805290327    3.023154686111   -4.624672443235
H      1.167156847083    2.250609233962   -5.222626911583
H     -0.403267920033    3.021095080211   -4.872513068610
H      1.105524819599    3.988282420731   -4.903500676157
C     -1.483087287296    0.457511573981   -2.995432976344
C     -3.005578059117    0.201190122869   -3.000643490724
H     -3.213618253166   -0.791295135560   -3.430584983106
H     -3.425679879382    0.215428824371   -1.983945692144
H     -3.546887998791    0.951660479145   -3.598036340806
C     -0.962141958821    0.251857222848   -4.431472934062
H     -1.426951325576    0.947135578957   -5.148251622605
H      0.130811161353    0.357304260762   -4.493762928157
H     -1.202124955611   -0.770583548508   -4.763376208257
C     -0.795006401295   -0.579530743292   -2.097640907836
H      0.293621041651   -0.423960437009   -2.066225821486
H     -1.164914634739   -0.564095543220   -1.065852168845
H     -0.975199064262   -1.587340511978   -2.505813072047
N      1.918623492809    1.056696785904    0.086666698171
C      1.053515372348    0.102205800557    0.572717300314
C      1.589673826481   -1.202921411717    0.836148672771
C      2.922894637078   -1.497392272261    0.624626211898
C      3.769360113394   -0.466005572354    0.134722989641
C      3.226587057588    0.778871942688   -0.102677791716
H      0.892748768447   -1.949176177274    1.222518523220
H      4.831923014917   -0.640661743326   -0.043333337122
H      3.855037450224    1.602955552870   -0.453003000353
C      3.486177192402   -2.866501942149    0.905193491852
H      4.298320195797   -2.811430818038    1.649355778291
H      2.717219927636   -3.553341054385    1.286439479234
H      3.919962677799   -3.307635826115   -0.007989221378
