57

C      1.215451998595    2.930140522232    3.047420526596
H      0.328920284106    3.566610164604    3.072511679066
Pd     1.096750034940    3.057159689428    0.650572159723
C      0.267626816704    5.646086325900   -0.057368648684
O      0.489238329910    4.915922943450    1.010427512369
O      0.301294273192    6.853785895894   -0.078332643560
C     -0.115838722835    4.848692825326   -1.336368605406
H      0.545210345039    5.223700508493   -2.136360586157
N      0.104466732162    3.403959619320   -1.124626650237
C     -0.294629007276    2.527638126176   -2.009856297886
O     -0.375196187072    1.256567648971   -1.775197319738
O     -0.015914335916    0.163327802095    0.428297815578
H     -0.294428560294    0.930150107821   -0.782478009950
C      2.468467942609    3.486885374815    2.702357808234
C      3.671258624764    2.759665181075    2.885459596194
C      3.604611417231    1.460174164082    3.416982636573
C      2.340443572021    0.904848654278    3.727711650458
C      1.163141985970    1.614149826013    3.554635722122
H      2.517891322418    4.542167965936    2.424785551941
H      2.301632692849   -0.109266079297    4.134623155646
H      0.202951302396    1.171389241254    3.826299772070
C      4.995558817458    3.396681225956    2.548043742741
H      5.641903350972    3.478652605435    3.438336252705
H      5.556809807386    2.800823168504    1.809171219806
H      4.860591274443    4.407428905535    2.137352957364
C      4.857474509177    0.663523844338    3.676958437011
H      5.388939146380    0.421677376931    2.742349238834
H      5.566205488251    1.223201397534    4.309416212341
H      4.629503770740   -0.285176773549    4.183268658932
C     -0.706525319612    2.884589219167   -3.415041125108
H     -1.802314814742    2.973313701299   -3.466633831465
H     -0.268524404794    3.825486738622   -3.766324207528
H     -0.403973961314    2.056365308549   -4.070707313836
C     -1.556139988844    5.223987113021   -1.665667676889
C     -2.635403803148    4.587696658907   -1.033246563258
C     -3.947501158813    4.991509084922   -1.294865612214
C     -4.197216136639    6.043189503150   -2.181903427204
C     -3.125507898678    6.691258213118   -2.802915141442
C     -1.813995700604    6.284575418535   -2.544830106864
H     -2.449875922346    3.772420945373   -0.329807166532
H     -4.778335655565    4.484864899985   -0.797131134546
H     -5.223557658261    6.358560147915   -2.385922310894
H     -3.310183678705    7.518626097888   -3.492879950368
H     -0.979418068564    6.802059495826   -3.024546389992
N      1.983376905579    1.234046874396    0.248998415092
C      1.239477949855    0.076000726434    0.373176067275
C      1.955074564854   -1.171714993712    0.383044959618
C      3.307393900306   -1.206891020556    0.148788268951
C      4.012528336638    0.002314451691   -0.077673669427
C      3.304969172574    1.189009163755    0.000294221339
H      1.367216766578   -2.077819659441    0.535666304284
H      3.839726321769   -2.161501616946    0.123832031834
H      3.809229844410    2.147207792752   -0.136566681580
C      5.478168257380   -0.012804366465   -0.379448812472
F      6.175869145327   -0.682618554476    0.568450352511
F      5.756358928894   -0.621531215935   -1.546826769763
F      5.998176434278    1.230045837456   -0.444213637188
