44

C      2.743424447661    3.940660721611    0.858327297081
H      1.597618550644    5.354120074787    1.596316464457
Pd     1.092612435666    3.091125649999    0.094567429238
C     -1.667155462251    3.060582364035   -0.909035829073
O     -0.669060725718    2.248277165736   -0.683560070518
O     -2.786862489316    2.746166051017   -1.244155593211
C     -1.293114928346    4.550971955892   -0.764473098071
H     -2.193155765276    5.081029651329   -0.425563251437
N     -0.142213214794    4.768484876707    0.119952158570
C     -0.077803152099    5.839288948724    0.842226970509
O      0.922979745042    6.070779306856    1.669971661313
O      0.095863048604    0.047882458898    0.243202924978
H     -0.359605601711    0.884845436431   -0.111801526977
C      3.179588675433    3.643808318581    2.164701591056
C      4.364237201437    4.171189014383    2.707534269915
C      5.160563768356    5.032079251136    1.917197723728
C      4.729641499214    5.334554102442    0.617681402820
C      3.543524831122    4.809542738158    0.092977434543
H      2.583127084940    2.972154519829    2.790518579800
H      5.336349234588    6.004912619770    0.000583263879
H      3.245427918961    5.084704486778   -0.923097629002
C      4.777949218121    3.816514348157    4.114847973302
H      5.763294681390    3.320073031879    4.136470748808
H      4.867106378268    4.713436488507    4.751528236662
H      4.051363507254    3.140129128557    4.587813594300
C      6.441171083137    5.618167414380    2.458482815569
H      6.262182462758    6.227381536030    3.361134015742
H      7.158895878082    4.832434356778    2.750743304457
H      6.933479449081    6.260717204676    1.713990651287
C     -1.103704044695    6.942125570568    0.844190941516
H     -1.260900145427    7.336495997297   -0.170781232252
H     -2.073964777547    6.573257216160    1.211728448554
H     -0.759318871110    7.751398714951    1.498649806413
H     -1.056037548297    4.920580619596   -1.779308825932
N      2.088698803711    1.227685553000   -0.042516105637
C      1.398971683603    0.064932305749    0.101488468246
C      2.078278282633   -1.178407191263    0.120135507681
C      3.446013246427   -1.220009793453   -0.065298834777
C      4.143376061256   -0.018103135506   -0.271762591288
C      3.428915798566    1.165836703623   -0.245893747951
H      1.474731730467   -2.075535287062    0.261707776608
H      3.972552168347   -2.177931510414   -0.063855766875
H      5.220758541385    0.002160619049   -0.440316459530
H      3.932010900962    2.122565072374   -0.378652483176
