72

C      2.694565797917    3.729014756712   -0.981807311991
H     -1.859454403815    1.012089267104   -0.260886740885
C     -0.290330750812    3.524660994202   -1.555638529433
H      0.174922562654    3.947097914337   -2.448436142029
H     -0.981237839794    2.688123448775   -1.684055120656
C     -0.277304780223    4.235550377329   -0.368169273106
H     -0.918221591764    3.947672794933    0.469208994385
C      0.270429332386    5.625057119705   -0.225069210749
O      0.378490177521    6.187913398327    0.838096356784
O      0.580722345386    6.178528147859   -1.405577349584
Pd     1.223493216188    2.601355113152   -0.250202656140
C     -0.628739652505    1.407299536451    1.770889411363
O     -0.406357153272    1.301270945452    0.462990755901
O      0.121985512479    2.008001011355    2.514586266771
C     -1.913167476687    0.720631833228    2.279379368777
H     -1.879636130962    0.875345335870    3.368266846908
N     -3.157106484641    1.317842240025    1.813322998327
C     -3.521493828716    1.419389535698    0.595569082782
O     -2.814443262083    1.099889419605   -0.514610335352
O      1.152738682420   -0.608936027109   -0.321620626886
H      0.485483533669    0.098921751932   -0.076439682458
C      3.308348365127    4.679286044185   -0.155236911779
C      4.410707283559    5.434472659886   -0.593999747078
C      4.906824649199    5.235092167729   -1.903985404902
C      4.277554318571    4.286540451063   -2.721698124221
C      3.182365386847    3.535181725858   -2.276769659010
H      2.928115331957    4.855560549971    0.855940081195
H      4.656846148845    4.123472608519   -3.735339363682
H      2.730852591237    2.798370161182   -2.946397933395
C      5.050890692345    6.443795415910    0.328351810425
H      6.112057113793    6.206387111660    0.516756852820
H      5.033265724703    7.459362648051   -0.103034588989
H      4.537002574339    6.483215613214    1.299496156010
C      6.090666031414    6.022102900490   -2.411243377102
H      5.898410573758    7.108636643765   -2.394979750221
H      6.988036263346    5.856134757889   -1.790727967777
H      6.343380877440    5.743324075353   -3.444615232224
C      1.132211255478    7.507395113183   -1.376489106947
H      0.405948517737    8.179703628681   -0.891580596802
H      2.037509529003    7.497593177688   -0.749472125921
C      1.432829672215    7.920498027156   -2.801605566027
H      0.519130671525    7.916597979392   -3.415921142471
H      1.851767470692    8.938785703991   -2.815427501086
H      2.164240304121    7.237938935473   -3.260571122322
C     -4.893590197140    1.931521271189    0.249565330056
H     -5.453370307372    2.154236822314    1.164839674936
H     -4.817657741038    2.835191370530   -0.377064164713
H     -5.433089502435    1.175146740047   -0.343653666133
C     -1.840686086927   -0.812499715395    2.024842817432
H     -1.850746575080   -1.005025042393    0.941552869679
H     -0.867026459538   -1.167163790758    2.403204418977
C     -2.953939900457   -1.590936177377    2.689174361180
C     -2.905376134485   -1.881090135583    4.062525559294
C     -4.066504290074   -2.031105228259    1.956147725642
C     -3.938780205824   -2.584307008460    4.686043049021
H     -2.043709607345   -1.552608036226    4.651811827150
C     -5.102670745565   -2.736312835981    2.575317235333
H     -4.118443031346   -1.819834178054    0.884349636905
C     -5.043240598886   -3.014427720078    3.943575551101
H     -3.880137987396   -2.800749689163    5.756170884131
H     -5.960115565461   -3.070716011313    1.985009658440
H     -5.851930274531   -3.566706711991    4.429345660341
N      2.687446033296    1.049582510015    0.210702193345
C      2.372527980449   -0.254284820914    0.038257506463
C      3.336213062096   -1.270095592419    0.221547702672
C      4.611489210813   -0.929011050706    0.634437499763
C      4.918632096653    0.421492378928    0.863528974667
C      3.934121403327    1.366712494864    0.632618914696
H      3.027806037448   -2.301639658974    0.048716425173
H      5.364150312810   -1.705918367343    0.790825678609
H      5.905282398095    0.737490121214    1.204165583011
H      4.135897978583    2.428681030898    0.768905532777
