77

C      2.433208934592    4.019038472124   -1.157389486881
H     -1.573377850778   -0.739345379988   -0.088324406180
C     -0.490924540709    4.796235450215   -1.209641456643
H     -0.015913310457    5.253420621785   -2.080153574498
H     -1.385459356626    4.190743097814   -1.377168604843
C     -0.163123389102    5.214785420199    0.065243601047
H     -0.769527552563    4.907454313343    0.926473479032
C      0.798134511435    6.326861751560    0.362344503127
O      1.236008123294    6.545143284102    1.467505219087
O      1.085340999310    7.062330985161   -0.720112181204
Pd     0.808966699245    3.237878643646   -0.329909737762
C     -1.852788550688    2.361195022821    1.513987611785
O     -1.068742253794    2.240419275966    0.422713710670
O     -1.983042433081    3.431368185369    2.054512468418
C     -2.565247640555    1.081664759744    1.990343693028
H     -3.163346576895    1.458707620021    2.836968831532
N     -3.535755068473    0.666313707302    0.993184751261
C     -3.480766831151   -0.270092987572    0.131452036782
O     -2.473690207166   -1.121149213557   -0.177958963041
O     -0.122225469264    0.180157070413   -0.422677860378
H     -0.784586241113    1.280936433110    0.068677080471
C      3.403843620764    4.641876226127   -0.365846044990
C      4.613163918272    5.098070451586   -0.919305852070
C      4.841105858435    4.940574708552   -2.306500846934
C      3.848632902314    4.330777973973   -3.085238057235
C      2.650617595815    3.865556293927   -2.528096497652
H      3.239296403300    4.779714056975    0.706518452578
H      4.018273912437    4.202013830008   -4.158644373355
H      1.912629386373    3.377979581502   -3.170143248995
C      5.659021481266    5.725026649851   -0.030548976042
H      6.576300453321    5.112208613719   -0.004271792832
H      5.956782974726    6.725118337011   -0.388166113925
H      5.298435281080    5.827537659948    1.002925760655
C      6.132086360526    5.404835891083   -2.934905561604
H      6.292135136118    6.487280312927   -2.792094502180
H      7.004948243584    4.898562621910   -2.488657263022
H      6.145586960404    5.204641921015   -4.016165289551
C      2.015079993991    8.147232642034   -0.544005223983
H      1.620688757065    8.826941369764    0.228492548656
H      2.964462843201    7.737212695377   -0.165147875752
C      2.188198073461    8.837005191470   -1.880453379560
H      1.228981860539    9.232320621196   -2.248933537990
H      2.890724261917    9.678775976714   -1.778433298267
H      2.589530639840    8.140449196653   -2.632343124948
C     -4.701779232710   -0.587377566827   -0.695657519517
H     -5.541871970208    0.050302586382   -0.398453008305
H     -4.478158198987   -0.448071937759   -1.765980863131
H     -4.969502203789   -1.648520476103   -0.563651901690
C     -1.583380552011    0.035343665909    2.603850240876
H     -0.971808103538   -0.402802622375    1.801228104803
C     -0.633297072509    0.714794882887    3.601564830439
H      0.010745720260   -0.023465306649    4.102167143378
H      0.032846248907    1.441966977633    3.110813599225
H     -1.195322352036    1.255389887259    4.381255919670
C     -2.384601598242   -1.106347964910    3.261868551906
H     -2.880838954598   -0.710900341188    4.167309316640
H     -3.195146880127   -1.413542400781    2.583476193845
C     -1.554540524706   -2.341073977733    3.618915240146
H     -0.752266204462   -2.115914291095    4.339705101324
H     -2.186686728265   -3.122962511231    4.069221673643
H     -1.084992472160   -2.773873526957    2.719781589504
N      1.847994435380    1.338344024263   -0.122136850688
C      1.146135176554    0.157814233175   -0.242547700647
C      1.850828584440   -1.082731632477   -0.163315984066
C      3.204858913235   -1.107602336257    0.073167521446
C      3.900056891975    0.113376976572    0.232421687555
C      3.173371320927    1.291995526734    0.114589896172
H      1.266479960774   -1.995231508668   -0.288586229604
H      3.745996566599   -2.052655965331    0.143684163653
H      3.698626175461    2.242102107573    0.207290024363
C      5.355504992949    0.212719711667    0.502549891145
O      5.965810215792    1.249417539203    0.640944792384
O      5.939964883615   -1.000752296641    0.580760832621
C      7.342209556145   -1.009271112467    0.841564027228
H      7.565409806265   -0.519724542740    1.801769225380
H      7.641448691287   -2.064219072935    0.873738688572
H      7.891880139505   -0.480807908095    0.047757298648
