51

H     -0.458969462158    0.731840663010    0.732541898660
C      2.154604162979    3.031383858661   -2.327089092202
H      2.940495618304    2.272248180342   -2.312028851351
H      2.444159996479    4.084197864734   -2.334447260993
C      0.861916592931    2.661380594189   -2.608651619121
H      0.095195653464    3.411556906559   -2.816700923451
C      0.506272190175    1.232969235742   -2.900382967291
O      1.300774206691    0.321187402691   -2.926298066342
O     -0.802934917637    1.112849703886   -3.128565229924
Pd     1.007249350978    2.956458762493   -0.372481447784
C      0.182693739714    5.568028982121    0.309558344043
O      0.347480653055    4.793702703466   -0.744096565278
O     -0.127006729182    6.735856763597    0.234337362138
C      0.428321031163    4.871749079569    1.677423343187
H     -0.386380305518    5.232150736980    2.324149818023
N      0.333108100868    3.427653003285    1.481001466461
C     -0.451049495673    2.642383622143    2.223589832528
O     -0.757798166824    1.467329289279    1.910715408765
O     -0.127728413816    0.017835116220    0.023889841096
C     -1.316299047833   -0.221462575422   -3.322834456402
H     -0.731748995360   -0.712563124858   -4.116866190989
H     -1.154440992835   -0.781619058860   -2.388527663231
C     -2.784322059247   -0.110735847397   -3.674181608672
H     -2.928498556668    0.465410000150   -4.601214511328
H     -3.208113770116   -1.116060338325   -3.822921823578
H     -3.346229119950    0.383990033887   -2.867438385273
C     -1.021787619746    3.173073808153    3.530839906162
H     -1.356742019430    2.312875385726    4.123301640351
H     -0.292178929840    3.761731109944    4.104484922888
H     -1.897539744721    3.812414315242    3.331551929253
C      1.752737668284    5.330074712823    2.300487839592
C      2.693189555328    4.406208568755    2.777302741361
C      3.885978862273    4.841610981042    3.367302781106
C      4.153152284998    6.206460817091    3.489206632794
C      3.217228979397    7.134414549563    3.018537011007
C      2.026770414316    6.702848150040    2.430860131776
H      2.484929817111    3.338209214489    2.691806555287
H      4.606238857786    4.106347145208    3.736581324685
H      5.083581478679    6.547504488562    3.950552284961
H      3.415379539490    8.205672642037    3.109897051369
H      1.302699474159    7.426796979855    2.052022433138
N      1.885679268064    1.115972152579    0.100573050731
C      1.178774918142   -0.039465726136    0.091622635484
C      1.851466422842   -1.281394107530    0.154708313373
C      3.227671537441   -1.309412100450    0.282117245866
C      3.940438931133   -0.099335082908    0.357410059327
C      3.229511247001    1.082769957709    0.258154175606
H      1.246338951562   -2.187701782572    0.121123299055
H      3.754425764114   -2.265286695025    0.340285287840
H      5.023946924204   -0.076406903922    0.479562422426
H      3.732993043842    2.051971523638    0.292389323009
