74

C      1.602680711738    3.177132972138    1.727361632915
H      2.296822256847    3.357249707069   -2.023409599978
C     -0.425319282997    4.814110790134    0.020381223225
H     -1.118490268201    4.803510079131   -0.822431586310
H     -0.846061353220    4.634648833963    1.012295307916
C      0.851254680626    5.303564755141   -0.111910644303
H      1.462037718329    5.510220044822    0.767956327305
C      1.425444657795    5.921975467816   -1.348674646053
O      2.577060885237    6.285504056585   -1.420668466216
O      0.531554663971    6.065399679915   -2.337777283685
Pd     0.929792988769    3.005735642725   -0.156373032870
C     -2.155634060075    2.528446882517   -1.471529962968
O     -2.020409350269    2.055123544713   -0.241030677760
O     -2.988165430589    3.362302538893   -1.746133748086
C     -1.186395060467    2.001505666820   -2.552987875595
H     -1.588735759818    2.426800191245   -3.484914408731
N      0.152298231112    2.557357342891   -2.291142213333
C      0.925303901907    2.912464566644   -3.254035352283
O      2.154253201451    3.376901727185   -2.992819833284
O     -0.218675671350    0.314690742506    0.382987931431
H     -1.280308797960    1.381290655868   -0.086596287849
C      0.758495726530    2.747300795337    2.756826063060
C      1.156171615187    2.814464625176    4.103517070697
C      2.437445565453    3.320729491881    4.422893197948
C      3.272849255947    3.738377928085    3.378950656727
C      2.871197972907    3.671583518633    2.038816922048
H     -0.223439515727    2.327032774039    2.522515243621
H      4.267308193078    4.129218840560    3.615730784628
H      3.556370615661    4.013454492578    1.258041649068
C      0.222293814507    2.339155707807    5.189601836591
H      0.667741265249    1.517541636401    5.776299704639
H     -0.011160291328    3.144627130829    5.907007117457
H     -0.727003886126    1.975484827308    4.770978875021
C      2.900266128243    3.405220800125    5.856890427282
H      2.234866220405    4.041780590837    6.465162034879
H      2.911711157117    2.413726799814    6.341362710664
H      3.915787031513    3.821955944202    5.925560818677
C      0.997160318590    6.710927958713   -3.539612957303
H      1.474631340144    7.664271963965   -3.263954354521
H      1.778333147789    6.079013720108   -3.992593559278
C     -0.190961569694    6.913882825856   -4.455823962297
H     -0.953207577638    7.547633755505   -3.977766883148
H      0.134397437335    7.406386648747   -5.385370448968
H     -0.663250606182    5.955077773387   -4.719367444925
C      0.671206739165    2.902370922307   -4.734677807165
H      1.285688683611    2.118579974976   -5.203175938321
H     -0.378312403887    2.728436485690   -4.989290481594
H      0.998122025586    3.864763624546   -5.153818521727
C     -1.243536292917    0.450083861449   -2.664228903617
H     -0.962724875703    0.039377671253   -1.684123644391
C     -2.683673609786    0.011309581534   -2.968414858316
H     -2.743316877836   -1.086686193407   -3.026170288034
H     -3.391637947040    0.338496786586   -2.191699185626
H     -3.033307699044    0.416293042238   -3.933658519135
C     -0.272003728936   -0.127066812511   -3.698827404798
H     -0.519019877948    0.196751013911   -4.723820378927
H      0.772953006649    0.144298940407   -3.486401145205
H     -0.325933762003   -1.226950080650   -3.683967118421
N      1.854729589432    1.129007204381   -0.103392829842
C      1.012687856976    0.107060651741    0.213792996699
C      1.581617968072   -1.238558243804    0.341893660250
C      2.976223329082   -1.443070617896    0.144983267886
C      3.788897616608   -0.305922376765   -0.166784072067
C      3.197887689130    0.922346250417   -0.264020300230
C      0.746341913298   -2.328603410093    0.667469224457
C      1.274646970864   -3.603926390836    0.789571677401
C      2.656305316753   -3.815172248017    0.590306584557
C      3.492512783709   -2.757189305404    0.275152807500
H     -0.316234838389   -2.132161676308    0.820351543680
H      0.625757969401   -4.446390798448    1.041392312267
H      3.069358306336   -4.822829517719    0.688316172644
H      4.562726124908   -2.923618962029    0.125686509585
H      4.864789950548   -0.412381526381   -0.314159376661
H      3.795054573678    1.812674557711   -0.475813259119
