77

C      2.431855055274    3.738065260882    1.414580363065
H      0.377645044076    1.879902272889   -2.583389061749
C      0.185450188276    5.207204625961    0.025726246771
H      0.992763938739    5.921717671078    0.197336639845
H     -0.274244325151    5.171987770705   -0.964776011387
C     -0.464983916141    4.613192777192    1.088976387860
H     -1.399137837290    4.077955124175    0.893502243846
C     -0.202890622588    4.906887594225    2.535778824277
O     -0.643606018745    4.231768663302    3.436246396116
O      0.527503649487    6.015881511244    2.714245596598
Pd     0.962980718228    3.140826995759    0.206387485474
C     -1.647553348004    2.736975985837   -1.661490578289
O     -0.473666421443    2.287311017601   -1.231479478421
O     -2.308658482556    3.567627364391   -1.065657898914
C     -2.151040172492    2.125896919115   -2.990299220333
H     -3.143356153386    2.580745431016   -3.116910078747
N     -1.400399028963    2.476226713482   -4.192691341602
C     -0.150896927377    2.298665870998   -4.376589994377
O      0.772469708279    1.862800067846   -3.492463732218
O      0.071326130769    0.082071180774   -0.027578176207
H     -0.297434944294    0.932662322324   -0.419933494194
C      2.554415658591    3.186844905826    2.695376055232
C      3.637759337150    3.504042585117    3.532626715903
C      4.628426757345    4.403751850445    3.072269604208
C      4.491342487719    4.951916719992    1.790178100110
C      3.407200681446    4.632606879439    0.961988890841
H      1.796128823314    2.492638237927    3.067988854953
H      5.251636865915    5.649427159454    1.424938544644
H      3.345612873017    5.084487914597   -0.032010524580
C      3.740489182346    2.881254198901    4.903769840071
H      4.663399361281    2.285795842052    5.010968422797
H      3.770450679483    3.646641781290    5.698112640041
H      2.887184687459    2.219047898520    5.108495724014
C      5.810507266100    4.763217597018    3.939092551920
H      5.496040856714    5.223889328465    4.891271796290
H      6.406352177536    3.873617754389    4.206446078435
H      6.479366737697    5.472372053535    3.429927705261
C      0.844707212977    6.373397721618    4.071614400967
H     -0.095374370122    6.490282553757    4.634657102354
H      1.400340551744    5.541006861848    4.531753790107
C      1.656844290088    7.650815427388    4.042043351780
H      1.090062063206    8.468971036673    3.571320973389
H      1.912267827614    7.955705245041    5.068923202373
H      2.592369535270    7.506925581917    3.480342064520
C      0.464688671972    2.576204697912   -5.722592073063
H     -0.307474816663    2.897010527680   -6.431018714442
H      1.240770088610    3.354047456129   -5.633843904623
H      0.963692246705    1.667396316519   -6.097222360359
C     -2.327886627738    0.594709972348   -2.882394153812
H     -2.725577159857    0.253910271267   -3.854452210495
H     -1.333773436610    0.128673777667   -2.776734783733
C     -3.243499682323    0.088468788421   -1.751260232020
H     -2.808204585157    0.406825264663   -0.785175240315
C     -3.269109122512   -1.445877540588   -1.749939049270
H     -2.253655502305   -1.863394547554   -1.652615252814
H     -3.875833651591   -1.835706090830   -0.916463340757
H     -3.701589516674   -1.834719943721   -2.688106099965
C     -4.663682883402    0.665410767487   -1.827973730333
H     -5.304618108954    0.232214622777   -1.042811337673
H     -4.671379073990    1.757190405644   -1.691849977760
H     -5.131176175756    0.438609922644   -2.802106892135
N      2.044795709876    1.271910340170   -0.078744709286
C      1.389597268222    0.110056754530   -0.044652627860
C      2.079942170924   -1.153899081789   -0.015078972387
C      3.502944118694   -1.149199935421   -0.082985880874
C      4.158970952848    0.113467112832   -0.179540359706
C      3.417030178168    1.260802067713   -0.165941236991
C      1.374700583418   -2.380373874354    0.065523405972
C      2.069889704428   -3.574595497348    0.088944408242
C      3.483653984471   -3.576947656440    0.025417219205
C      4.188430717978   -2.391027145859   -0.060848867713
H      0.285345016555   -2.360036251714    0.110308035367
H      1.528667235402   -4.521338533535    0.153123204732
H      4.021628183361   -4.528319018042    0.042042568411
H      5.279956745169   -2.395297797327   -0.113491438426
H      5.246289830892    0.169174440553   -0.253993700126
H      3.892142674385    2.239432744739   -0.211014167578
