65

C      1.376850856850    2.924073950006   -2.158065328494
H      0.022015596341    1.826897496966    2.162227060578
C      0.493257889907    5.260686147088   -0.402929581686
H      0.571054419375    5.652366267526    0.617389362877
H      1.200316059266    5.615674111619   -1.156565393992
C     -0.619188131978    4.542144337383   -0.794959395729
H     -0.790087083324    4.302705518042   -1.847929705130
C     -1.833039972459    4.303873327726    0.067058263771
O     -2.564423602587    3.348005921673   -0.069148674866
O     -2.012717549224    5.289411413163    0.940480089611
Pd     0.976753860717    3.107688667201   -0.208203432960
C      0.302486763064    3.964039783347    2.843999643020
O      0.689050891297    3.087602856777    1.944146222403
O      0.520698742862    5.161687259608    2.792335764876
C     -0.476184169700    3.339521035652    4.033580589416
H     -0.789283778598    4.205618908182    4.634849569114
N     -1.701463915990    2.628322974266    3.658979308345
C     -1.750236919659    1.619114281324    2.880752017374
O     -0.696002870705    1.080582626347    2.210945807517
O     -0.003485279150    0.018383336902   -0.126886784168
H     -0.418124952134    0.485594923551    0.650955920504
C      2.471038529137    3.600495334189   -2.712938048702
C      2.819840166693    3.457527484964   -4.067756034775
C      2.043247941708    2.613460689506   -4.893757947282
C      0.951650732257    1.941636029806   -4.326752688697
C      0.612185661623    2.085493547802   -2.976231977128
H      3.087940722870    4.257380845857   -2.090798048803
H      0.346692151619    1.283279589707   -4.958039158389
H     -0.240264749915    1.533957425469   -2.571803980222
C      4.007758420486    4.202280868907   -4.627058433137
H      4.761798288015    3.512818440249   -5.044254069971
H      3.714973193413    4.877092885904   -5.449712558440
H      4.501165276380    4.811052754392   -3.855223889128
C      2.379355163372    2.437456357778   -6.354614553853
H      2.344724548880    3.395655212899   -6.901219223245
H      3.397353321192    2.034981385906   -6.495603579125
H      1.677136689265    1.748148899532   -6.845777146778
C     -3.130838186237    5.209892129254    1.855622472326
H     -4.051448662844    5.062380712470    1.268279682125
H     -2.988421305396    4.329431582845    2.501853790734
C     -3.146246419974    6.495252497346    2.655445357167
H     -3.303721791832    7.370518899727    2.005763875720
H     -3.958819352151    6.462969049547    3.397869236319
H     -2.189944677926    6.621974612072    3.185073588543
C     -3.045440683804    0.916502958460    2.588121503335
H     -3.815158982184    1.224108226365    3.305789572813
H     -3.373176809867    1.180369596112    1.568563874679
H     -2.906171546675   -0.175273575737    2.626807393052
C      0.450608914653    2.476871237292    4.908533856583
H      0.839715323707    1.607843175986    4.357716271640
H      1.304842765979    3.072830889157    5.266563080232
H     -0.106521750272    2.107694121013    5.783324880929
N      1.980560881216    1.215866412098    0.037955675035
C      1.326542316543    0.044313057348   -0.069677602277
C      2.045065605120   -1.162882913927   -0.169196247522
C      3.428332536127   -1.140785310849   -0.112968221395
C      4.114637006837    0.078805556086    0.051337362563
C      3.329102700143    1.224878325068    0.115488308194
H      1.478884595894   -2.089340072087   -0.270782762288
H      3.989765503736   -2.077129165130   -0.182553377161
H      3.794616859396    2.208122236657    0.218630099202
C      5.616992992095    0.143992307681    0.142285609312
H      5.970090849746    1.180586807138    0.242881387965
H      5.989197181988   -0.423080550981    1.011587631384
H      6.090651744936   -0.287964041672   -0.754564277351
