44

C      2.587143752306    3.601040409827    1.843338274509
H      3.326575689996    2.798505571847    1.868151780432
H      1.915785030427    3.754788158878    2.691658550334
C      2.662460291663    4.605770786947    0.904967974456
H      2.054162986766    5.496610878368    1.053310380080
C      3.755276277478    4.736442253861   -0.109176792380
O      4.698280066167    3.985202641800   -0.239699456919
O      3.571120324092    5.829826600714   -0.856045052762
Pd     1.090674094550    3.112500272107    0.242973620178
C     -1.395173798715    3.173794118004   -1.219125625447
O     -0.395441778879    2.351966117306   -0.893330588939
O     -2.345351750469    2.826399058619   -1.872757954380
C     -1.176704565967    4.599925094798   -0.713796365416
H     -2.161263468462    5.007948391330   -0.449531516460
N     -0.242542574363    4.622856169033    0.401028660829
C     -0.435375990426    5.365436469474    1.522173968096
O      0.306950085697    5.315810328005    2.505001917862
O      0.078748706745    0.083056150604    0.102521096388
H     -0.294281903749    0.926717661856   -0.302171522185
C      4.556823126477    6.106928751583   -1.871489479299
H      5.544641087946    6.183972377556   -1.389454264853
H      4.599308213284    5.249277557957   -2.562189145073
C      4.160438658616    7.387966260668   -2.573187059261
H      4.118148551822    8.229234402844   -1.864659002899
H      4.899576454157    7.629399749676   -3.352595426994
H      3.174391100918    7.288404293092   -3.052096626707
C     -1.626288494626    6.328240983254    1.545487114535
H     -1.545012244824    6.919575677924    2.465392490704
H     -1.638737215864    7.002927233827    0.675627964362
H     -2.583259539238    5.781919297115    1.560382313477
H     -0.811041308140    5.193520916928   -1.576432609611
N      2.113258852903    1.208275205540   -0.034646351456
C      1.395093246600    0.060550724717    0.030285800851
C      2.017569986108   -1.220573677528    0.041139087003
C      3.397983651168   -1.267426521374   -0.079401981162
C      4.135079638623   -0.080651222659   -0.210675806162
C      3.459882352817    1.124859825150   -0.180201141007
H      3.904748305041   -2.236531208015   -0.087232045613
H      5.219584334393   -0.088761628736   -0.327068660677
H      4.004465394072    2.065846166048   -0.260039834805
C      1.151834467733   -2.443899867597    0.154672536371
H      0.566436696424   -2.431485010786    1.088337854195
H      0.418755909805   -2.483418733688   -0.666910464117
H      1.759141697062   -3.359959747213    0.133110192619
