77

C      2.488625683940    3.902020607611    1.450024943707
H      0.624046961835    1.746927979520   -2.628805437275
C      0.389235337182    5.505795079613   -0.023755291519
H      1.155292569698    6.194150162627    0.336717110576
H      0.053987766593    5.567145612559   -1.062110678831
C     -0.382881357999    4.789688678344    0.867805710868
H     -1.279058024503    4.286047463837    0.496957277926
C     -0.317264354257    4.892517400909    2.362473405608
O     -0.865730308422    4.106872247576    3.099567549952
O      0.372313852486    5.961815336012    2.778878640405
Pd     1.165785422812    3.423024943757    0.026536516815
C     -1.233687926301    3.066721633223   -2.087786016048
O     -0.200442483916    2.537527187999   -1.447202743093
O     -1.672180734828    4.177885618240   -1.851001031985
C     -1.866465456287    2.180127388952   -3.188321297460
H     -2.769469150802    2.743376480581   -3.475063973702
N     -1.077727605875    2.037396417093   -4.407212552876
C      0.144241377361    1.679954221902   -4.486403491175
O      1.015962936542    1.436978743811   -3.485043213667
O      0.283235446507    0.466707857354    0.091461925342
H     -0.095463462608    1.240251241805   -0.418439941254
C      2.505092794994    3.123977264278    2.614749822328
C      3.439891629938    3.345990673624    3.640690013229
C      4.390401414157    4.383551941808    3.496618570405
C      4.360506590270    5.159246599715    2.330382953134
C      3.423570103829    4.932536956708    1.314938856998
H      1.774738634344    2.320628012512    2.748661665034
H      5.091878580900    5.964319548628    2.207763959875
H      3.446156131971    5.567324359883    0.425387229442
C      3.427381485593    2.478303447685    4.875903035769
H      4.382005051937    1.939340521854    5.003102853944
H      3.282777861176    3.075094565549    5.792782416366
H      2.622116362865    1.730940974489    4.833204771978
C      5.417511687926    4.648033688845    4.570360040819
H      4.946830645227    4.888604497019    5.539106675787
H      6.059226107648    3.767667882547    4.746841288598
H      6.072444656311    5.489005684856    4.299275952335
C      0.513383441048    6.129607768408    4.201738367908
H     -0.490331416488    6.150840232344    4.655869527278
H      1.037765977890    5.249192066879    4.605914909494
C      1.281126262943    7.410823062495    4.448786843444
H      0.747363469195    8.278490483142    4.031038544705
H      1.403131369584    7.570638392738    5.531503191249
H      2.280629380422    7.362243037701    3.990752674187
C      0.786167307013    1.468168868461   -5.832564356350
H      0.060145591746    1.656740823679   -6.631531300272
H      1.654612657566    2.137180854754   -5.947851681235
H      1.165668233308    0.435662345187   -5.905939469135
C     -2.342571598826    0.807642865547   -2.626443700122
H     -1.439462554493    0.234256447613   -2.346299499835
C     -3.206918064019    0.997755765089   -1.371912258539
H     -3.547166469914    0.031661270459   -0.970169476534
H     -2.666544964192    1.508923040694   -0.559998467461
H     -4.102347534831    1.599570248046   -1.602185416194
C     -3.089641264375    0.009614203528   -3.713997084363
H     -4.051750949654    0.513745150785   -3.921645647001
H     -2.511560620265    0.070821322778   -4.648062365768
C     -3.340006776442   -1.460576161558   -3.370581014333
H     -3.981182456754   -1.585127242839   -2.483043633252
H     -3.837526626943   -1.979952036607   -4.205549567938
H     -2.392964935913   -1.990253310535   -3.170336192390
N      2.263678498185    1.570172614139   -0.323577891206
C      1.600099039944    0.451608061835   -0.036885517999
C      2.263114943764   -0.797665859619    0.158589265409
C      3.615418121178   -0.866911905441   -0.029952607702
C      4.339178324701    0.286417003063   -0.451137044640
C      3.614175133886    1.508143134832   -0.605030997953
C      5.727478004423    0.257002931823   -0.738933604033
C      6.378179263613    1.389847606610   -1.186155541459
C      5.651923663825    2.588855720576   -1.365323689355
C      4.300520496688    2.650353466810   -1.079460096963
H      1.654850403502   -1.659829909615    0.433019626925
H      4.148357015366   -1.811277080675    0.109895275207
H      6.269438773993   -0.683800602144   -0.611359539462
H      7.446250468471    1.359862757437   -1.412814382547
H      6.162615561069    3.479351287441   -1.739756177612
H      3.739647618299    3.572369081551   -1.232046752543
