62

C      1.635919904122    3.031125556590    2.092117465458
H      0.685087386155    4.367858738544   -2.921451339356
C      0.360893991037    5.169240461982    0.213841656929
H      0.206426847895    5.410698110625   -0.839820093857
H      1.167089183387    5.686786155117    0.740155636783
C     -0.587661277367    4.475956834567    0.936736995742
H     -0.517751361037    4.422284961353    2.024904857122
C     -1.928492940195    4.009829918730    0.442066469145
O     -2.672580509908    3.366157699670    1.145323263118
O     -2.200790005222    4.402373323705   -0.805078965074
Pd     0.968128013874    3.037493282279    0.207876686544
C     -0.458365908640    2.352165738084   -2.416095000441
O      0.464560415871    3.089079275873   -1.908096302240
O     -1.030906205156    1.428453281404   -1.816386725032
C     -0.831602686757    2.664239899467   -3.873395034762
H     -1.535101617232    1.886116706343   -4.198450096579
N     -1.430733888346    3.967693400273   -4.121001715392
C     -0.776573139935    5.052944916281   -3.954472854706
O      0.465803199141    5.184415426918   -3.448510095030
O     -0.005654103164    0.022634735085    0.018545642996
H     -0.426389385314    0.705225295288   -0.629605682276
C      1.044856679222    2.208725251978    3.059945676355
C      1.525469612753    2.162360730262    4.378715793485
C      2.635647799462    2.962848451853    4.740261571455
C      3.219136891789    3.778715816961    3.763796764291
C      2.731047166432    3.823093243780    2.450390000126
H      0.187406149686    1.583102110910    2.794399543684
H      4.078288440739    4.401091764252    4.033241651468
H      3.223131944467    4.476101940865    1.723088726830
C      0.859796798603    1.265707490454    5.393911721806
H      1.565575867088    0.524662181394    5.807019838861
H      0.473540251661    1.841052386915    6.252692616039
H      0.016176054293    0.716904399596    4.951454529526
C      3.179759413731    2.940401834733    6.147810593687
H      2.418129331563    3.245929924608    6.885684331924
H      3.510893705572    1.929756096342    6.442662332401
H      4.039365109348    3.618065119629    6.255403541448
C     -3.459512756151    3.969871531788   -1.383585539284
H     -3.269591925750    3.981309619166   -2.465353616757
H     -3.650397479905    2.938207986805   -1.056785166770
C     -4.597287852280    4.897488016389   -0.995692959350
H     -4.379552282851    5.936257847258   -1.290108506330
H     -5.518171109608    4.583518561484   -1.512974994479
H     -4.787151313116    4.865498475426    0.087454095016
C     -1.373465296203    6.376879225480   -4.343734037276
H     -0.666358414995    6.929595764047   -4.982807812211
H     -2.319912340030    6.226527854679   -4.875951722985
H     -1.545639331039    6.993113522131   -3.445782209223
H      0.100005746678    2.543029649192   -4.463302277255
N      1.994797415961    1.186290233848   -0.026312432540
C      1.307782762289    0.022046127690    0.008436129239
C      1.996970913888   -1.210817272774    0.072543575270
C      3.384406512244   -1.252524078649    0.062458465097
C      4.072498789007   -0.020257293841   -0.015286281336
C      3.346838082672    1.154052193974   -0.047220625475
H      1.392083983656   -2.118057549967    0.111456051106
H      5.163278085150    0.018017377718   -0.034447968025
H      3.850223598436    2.122588625006   -0.072764503165
C      4.139590551957   -2.553080738165    0.121674588420
H      4.790054284920   -2.585495628490    1.011416780453
H      3.461499816411   -3.416988997467    0.159973990772
H      4.794261387431   -2.666192581280   -0.758126753652
