74

C      2.440510051990    3.789622439730    1.415732876018
H      0.438140373434    1.854313088403   -2.580536955912
C      0.236974373919    5.299309699876    0.015636442105
H      1.046798991005    5.998761093156    0.231258485610
H     -0.197773773413    5.288513374343   -0.986478895014
C     -0.450880648749    4.684406279254    1.042159114892
H     -1.384875753228    4.167354146636    0.805064206085
C     -0.231750803715    4.933922557010    2.504272477563
O     -0.706029474699    4.237588925149    3.371014277135
O      0.503044401642    6.029799691301    2.737283016843
Pd     0.990083561672    3.217742506521    0.171741593684
C     -1.547454437680    2.863639122856   -1.791355419404
O     -0.424809602606    2.369824841506   -1.282074546355
O     -2.133891739525    3.820549213979   -1.320503748693
C     -2.081259121530    2.146552037606   -3.055118847785
H     -3.051896573878    2.638143554723   -3.230452818249
N     -1.296967934137    2.359817879114   -4.267147799739
C     -0.048014583085    2.143212913980   -4.410802743403
O      0.850404207781    1.762443630426   -3.477849679793
O      0.103073579277    0.146693912920   -0.065571209293
H     -0.270482337314    0.989195932362   -0.458014364554
C      2.534657797963    3.221203958492    2.691777485340
C      3.602897373823    3.519820768110    3.554870175335
C      4.609263892539    4.417902174129    3.126314951545
C      4.502136791163    4.982707228563    1.848667948410
C      3.432447283494    4.681834143481    0.995003432096
H      1.764119956247    2.527818313578    3.040298446426
H      5.274431862807    5.679418516362    1.507821521574
H      3.393716115012    5.148038986963    0.006382826420
C      3.672875870954    2.879624329356    4.920137671918
H      4.589951094083    2.277556243917    5.040083851233
H      3.690200497592    3.635054072033    5.724357771661
H      2.811570392412    2.220095085754    5.098508957758
C      5.775576452972    4.758366458040    4.021740307620
H      5.444599022702    5.209992900602    4.972659986872
H      6.359674510890    3.861487355410    4.290788562731
H      6.459785236513    5.468771741323    3.535190736503
C      0.780519132237    6.345471914927    4.113473618069
H     -0.175810726535    6.461836659482    4.648614926771
H      1.308283496872    5.492561414759    4.568779724653
C      1.611892645707    7.610397583283    4.145312882849
H      1.073079237765    8.449563106597    3.678779165380
H      1.837752612678    7.883717168520    5.187896515767
H      2.563106406632    7.466891076595    3.610490549519
C      0.597768926440    2.296611240005   -5.762984218752
H     -0.149994670380    2.592287982764   -6.507591001009
H      1.401433709601    3.049679040365   -5.717266780934
H      1.067696594318    1.344779766327   -6.060795669190
C     -2.374459193722    0.640137950252   -2.787154582450
H     -1.405038377055    0.139689885235   -2.608494007364
C     -3.247765557058    0.466225594802   -1.536524410302
H     -3.454982415904   -0.596051808841   -1.338823058472
H     -2.774223493425    0.872871383517   -0.629683084934
H     -4.215674868194    0.980490207028   -1.661512349178
C     -3.021900943905   -0.011634295978   -4.025622284051
H     -4.040124968510    0.401792600873   -4.148973366052
H     -2.460984311391    0.303094873953   -4.918298643770
C     -3.086187013779   -1.540152128142   -3.984026739657
H     -3.703635686604   -1.915519908451   -3.152100198495
H     -3.518339902225   -1.940752332124   -4.915281033424
H     -2.079866044978   -1.978709275182   -3.872080877705
N      2.078150278417    1.358777173798   -0.125630534618
C      1.424287200495    0.176764885416   -0.106170969388
C      2.122077123306   -1.048848303713   -0.114189872423
C      3.507502275507   -1.068916674805   -0.197409368861
C      4.169584268256    0.176745587729   -0.270506329462
C      3.429657391068    1.341270123422   -0.222668421959
H      1.529832239777   -1.964400904746   -0.078825204208
H      5.256637126038    0.234223252365   -0.351784306161
H      3.919724379244    2.314574195701   -0.243643335705
C      4.282474645798   -2.358092626692   -0.225279734865
H      4.994777494557   -2.402628107803    0.615051877759
H      3.621569543922   -3.233842640737   -0.163954955831
H      4.874694662919   -2.436220323148   -1.151880920901
