56

C     -0.998804253962    2.937364051718   -1.737198334790
H     -1.921372398429    3.379622081242   -2.120453862788
H     -0.451148894230    2.245133084413   -2.380384447139
C     -0.424096829522    3.434733727062   -0.589709093632
H      0.569778424581    3.120946631188   -0.260490605799
C     -1.008529639474    4.571367842530    0.207295607305
O     -0.628586143684    4.846208630684    1.320975324411
O     -1.959792253930    5.221548940952   -0.463698861869
Pd    -1.605243457111    1.581913204177   -0.067120609407
C     -3.909556917740    2.258010467081    1.429788411695
O     -3.111778782892    2.732582427169    0.493975491900
O     -4.854921117918    2.886032727436    1.854553563388
C     -3.542960835323    0.860625665979    1.983205306209
H     -4.492300530917    0.320048119931    2.112334785755
N     -2.694910898105    0.184958482773    0.990102563217
C     -2.787905705627   -1.065638728698    0.649255554129
O     -1.970427541514   -1.600538445771   -0.226106679429
O     -0.222196665152    0.210040085052   -0.728981836640
H     -1.240870130616   -0.953953097553   -0.507714272849
C     -2.765733714332    6.162220831660    0.276459529740
H     -3.385227120937    5.584149978715    0.980779777730
H     -2.100807527605    6.818169107878    0.858704425397
C     -3.613818730087    6.932719019863   -0.712425932298
H     -4.267079165948    6.254234290189   -1.282028880350
H     -4.252312418566    7.650305535903   -0.174073404883
H     -2.987135943669    7.493934831483   -1.423202473649
C     -3.796750620935   -2.053720726498    1.164186613674
H     -3.291191393585   -2.764962816577    1.835662657526
H     -4.631655582347   -1.592030498192    1.700004695655
H     -4.175971873841   -2.627732512000    0.306458807634
C     -2.868801089678    0.964758911547    3.409665721194
C     -3.921867871379    1.479429849958    4.410718389828
H     -3.475747436980    1.543063694701    5.415996770548
H     -4.302009909109    2.470305806643    4.131367878716
H     -4.785197656121    0.795758407628    4.470221894556
C     -2.404129230897   -0.430416067332    3.867797575879
H     -3.240450220984   -1.146459054404    3.913329342854
H     -1.619628575234   -0.844894267337    3.216232354965
H     -1.980032353081   -0.361934822640    4.881898912662
C     -1.658525633992    1.917258054729    3.395002044347
H     -0.868796376307    1.576928798112    2.706246209198
H     -1.935579763209    2.942814757437    3.108713405106
H     -1.213961170526    1.966157207408    4.401820614173
N      1.396764744813    0.981825582513    0.705856654067
C      0.987061486611    0.090885157581   -0.203876963077
C      1.820214607555   -0.979506464255   -0.626896830363
C      3.079415526942   -1.100583739344   -0.068967980893
C      3.501528603496   -0.163966123442    0.893275172978
C      2.617126698569    0.857566592171    1.236342779329
H      1.456596996089   -1.678290055226   -1.381871782444
H      3.743424993211   -1.912269735761   -0.376677935343
H      2.907069762507    1.613068809826    1.973014646236
C      4.852778676630   -0.291712820475    1.534134783335
F      4.917343017307   -1.356829512044    2.359871237179
F      5.822592905436   -0.466417097752    0.613913410356
F      5.174690445828    0.791900727576    2.260018473817
