68

C      1.373359678549    2.942639554770   -2.123097397792
H      0.029102804827    1.834580230796    2.184533771422
C      0.468138699659    5.268164616656   -0.375045486857
H      0.534953499390    5.659186818751    0.646407905065
H      1.177091202140    5.630111245091   -1.123712792001
C     -0.637422540999    4.542490826636   -0.776301289877
H     -0.799580564085    4.306045912902   -1.831397179363
C     -1.854933891510    4.291221834296    0.077745797900
O     -2.565848666158    3.319548228128   -0.055513688945
O     -2.059495342819    5.281122155212    0.939166637100
Pd     0.961500260561    3.121578771227   -0.175670812341
C      0.259658910924    3.963834494709    2.872513567794
O      0.679583854924    3.092463147169    1.979604854057
O      0.444610927281    5.166081444043    2.809726356969
C     -0.514623989157    3.330047086195    4.058052919064
H     -0.850367205564    4.194532571556    4.652300856807
N     -1.724639586287    2.606014864951    3.659422748905
C     -1.756942518290    1.604440473834    2.871469886793
O     -0.684815300442    1.077760634509    2.215499851661
O     -0.020396532016    0.030613746928   -0.089398948491
H     -0.425636364194    0.487627501680    0.709514417590
C      2.484317588750    3.604778669627   -2.660652744849
C      2.853123074332    3.451821090858   -4.009144605046
C      2.078946211343    2.614189975897   -4.844314608611
C      0.968895789803    1.959319100302   -4.293627610672
C      0.608632081349    2.112817978720   -2.949374629587
H      3.098883260558    4.256383199298   -2.030763089752
H      0.365440182979    1.307092264291   -4.932462557809
H     -0.259816686554    1.576561365222   -2.558363356186
C      4.059931648102    4.178061964448   -4.551439475687
H      4.811788303744    3.475953028949   -4.950748391327
H      3.789910945721    4.851117736298   -5.383146848332
H      4.547751462168    4.784896188036   -3.774711114246
C      2.437422349761    2.427239489830   -6.298321107747
H      2.425153867556    3.383583864875   -6.848911807472
H      3.452190186877    2.010706504143   -6.419330827806
H      1.734696658085    1.745222307019   -6.798635841606
C     -3.180765164825    5.187207412798    1.850226603189
H     -4.096201200231    5.024721241941    1.258852949562
H     -3.027743919165    4.309851083592    2.498152001858
C     -3.218933012270    6.473623435842    2.647202700831
H     -3.384526414629    7.345226938407    1.994713378543
H     -4.036061093323    6.431288017395    3.384061965458
H     -2.268229542794    6.614551291110    3.183193797470
C     -3.041409798573    0.896123350302    2.548715050669
H     -3.827976243158    1.196263633925    3.251033308544
H     -3.349335645874    1.163272600001    1.523910877430
H     -2.897091802521   -0.195050132906    2.585846286689
C      0.417296588539    2.487292892624    4.977947094584
H      0.726816223252    1.592053837268    4.410850799447
C      1.679999298331    3.268357395730    5.363148699891
H      2.303017259629    2.677089747023    6.053568205907
H      2.297988164809    3.519004574937    4.487426662640
H      1.423059718115    4.213742091793    5.869843298074
C     -0.338912892285    2.021429941571    6.228780126379
H     -0.637832124394    2.884591701013    6.847958697842
H     -1.251452222341    1.466205565847    5.969278239693
H      0.297528854938    1.369601576759    6.849177839068
N      1.970098456161    1.209837210341    0.065148450669
C      1.300087493105    0.048205473034   -0.057087674641
C      2.027999201273   -1.162942597813   -0.199922909787
C      3.415092202790   -1.151481724548   -0.163662686911
C      4.070300945255    0.072846763182    0.018911125305
C      3.315238255113    1.233178714579    0.124603230550
H      3.977728613332   -2.080616921894   -0.260282489998
H      3.797136425799    2.204737237996    0.241785205557
Cl     1.164561978482   -2.650577259559   -0.395332043100
Cl     5.805198640204    0.150285659016    0.094357872473
