65

C      1.363904030584    2.927349628206   -2.114407219324
H      0.044569128495    1.865688593963    2.188932888079
C      0.492954155726    5.274402059895   -0.367532542436
H      0.563892569197    5.666389091386    0.653381975948
H      1.205943547398    5.628369863169   -1.116325308747
C     -0.618162887228    4.557653274777   -0.768543682436
H     -0.781369137470    4.322031783430   -1.823574396409
C     -1.838189109077    4.314374808903    0.083834855749
O     -2.556373845331    3.348410812641   -0.053232896864
O     -2.036120113487    5.303319675352    0.947616480242
Pd     0.969780854039    3.123375156016   -0.164556498533
C      0.282822930076    3.993392014522    2.878773840679
O      0.706788868932    3.119572047456    1.990586419198
O      0.475090602983    5.194454791164    2.820895503771
C     -0.506417541338    3.359112223470    4.055380021173
H     -0.839536046159    4.220676352587    4.652193718495
N     -1.717682723372    2.636032853484    3.657235266123
C     -1.745247819126    1.633026376760    2.871264378037
O     -0.671684388803    1.111733819239    2.214148315819
O      0.010965572514   -0.031175275679   -0.043739115460
H     -0.389117295187    0.497665950334    0.710250594688
C      2.486275800985    3.563756359180   -2.659313040492
C      2.844941695730    3.400079955375   -4.009285752432
C      2.048543131591    2.577682782270   -4.838783852781
C      0.927001133839    1.948806772817   -4.281244892508
C      0.577038319139    2.113242155548   -2.935519012092
H      3.118275789924    4.203053570091   -2.034038810959
H      0.305717160396    1.309395562607   -4.915983632609
H     -0.302595242380    1.598557828803   -2.540253917635
C      4.064819241107    4.098316435709   -4.558859421267
H      4.799203940215    3.378719540424   -4.959435024503
H      3.805710127427    4.774876854788   -5.391173877385
H      4.569448978783    4.696095871590   -3.785936425849
C      2.395928593456    2.379601950937   -6.293978731577
H      2.402564474185    3.334814292713   -6.846585013041
H      3.400571923652    1.940272669007   -6.418586891536
H      1.675786906350    1.712459708192   -6.789606561463
C     -3.161655011605    5.218078654270    1.854538352040
H     -4.076091612762    5.063622166897    1.259493450869
H     -3.018110685664    4.338912401492    2.502184692036
C     -3.191937734677    6.504336624563    2.652116996082
H     -3.349506563490    7.377518288145    1.999783197411
H     -4.010932591644    6.467764875551    3.387187666584
H     -2.241320531860    6.638018910972    3.190122200690
C     -3.026681423851    0.917300641595    2.552966767139
H     -3.810658113331    1.210557205912    3.261098775307
H     -3.342571990096    1.185424172596    1.530847723839
H     -2.875297787892   -0.173022076165    2.586646426770
C      0.413156547288    2.503803305130    4.944557562381
H      0.820704428992    1.639595461330    4.399561891584
H      1.255111514703    3.107133618914    5.318652792470
H     -0.155673494529    2.127753094952    5.808709656048
N      1.969471868859    1.208761877500    0.071851400299
C      1.329692022710    0.028403316101   -0.069719949651
C      2.057424828545   -1.163576929299   -0.287229683087
C      3.437590386720   -1.127864260138   -0.297232256354
C      4.092321545017    0.099361573039   -0.082962250887
C      3.317295088030    1.235453475940    0.088968259534
H      1.495649219129   -2.088355621403   -0.420274997228
H      4.014791101896   -2.041767870515   -0.455951530036
H      3.785552280186    2.211067073595    0.226168445223
C      5.596003352817    0.164078831523   -0.045621356556
F      6.088866929418   -0.488337266930    1.022420792976
F      6.133748202538   -0.413177800542   -1.135140463020
F      6.043633125541    1.427962530627    0.010721331480
