59

C      2.615277789799    3.823298759898    1.785283637784
H      3.395917394880    3.060497488712    1.776668591881
H      1.983337463555    3.946606379250    2.667833867602
C      2.591652802299    4.817142217843    0.833405950158
H      1.961477444581    5.688139647597    1.005103028078
C      3.624409631099    4.960060663079   -0.240059000685
O      4.413549582200    4.107617589214   -0.581556860788
O      3.582201095608    6.188207226360   -0.767385867529
Pd     1.065690252000    3.225761649518    0.280994094115
C     -1.539780938393    3.124364597212   -0.939663301208
O     -0.480797791208    2.348839165614   -0.679189442354
O     -2.603782016174    2.676190668780   -1.287064810859
C     -1.214827804239    4.615546735178   -0.774064896352
H     -2.162006732567    5.121892014103   -0.542640039369
N     -0.279517169099    4.733606028768    0.346261109516
C     -0.564904602054    5.363025158881    1.520163248803
O      0.165055769332    5.291575937409    2.510291056310
O      0.077906576052    0.187929547312    0.465977925984
H     -0.325971424610    1.005385466155    0.021302593694
C      4.560407987446    6.499041908317   -1.782551349206
H      5.555343185917    6.206185323230   -1.412772988791
H      4.349442577164    5.879514491120   -2.669586312222
C      4.471497502190    7.979338873224   -2.084887087354
H      4.684581581116    8.578319961637   -1.186284943543
H      5.207757015885    8.244770141861   -2.859249859192
H      3.470519767486    8.249685542540   -2.453058066866
C     -1.830182690427    6.220494080390    1.595285605926
H     -1.807327836185    6.744286850380    2.558527222275
H     -1.891374347631    6.955980144292    0.779862366619
H     -2.735940863057    5.594497119357    1.554092207572
C     -0.665769070534    5.221177477553   -2.103183643536
H      0.262296747013    4.668077137479   -2.345359656878
C     -1.660109914702    5.024272247422   -3.255518499846
H     -1.242814981911    5.393849862564   -4.204015945812
H     -1.928908956466    3.968485039378   -3.397623438611
H     -2.596094809579    5.576661280759   -3.063945118381
C     -0.287730242790    6.701159065494   -1.910358446785
H     -1.207422440349    7.280930474118   -1.706769100007
H      0.340094855747    6.785711284092   -1.009758316480
C      0.458569169909    7.329961760682   -3.089073241872
H     -0.152652834202    7.366581050255   -4.004329025447
H      0.758055647401    8.364495602389   -2.856129955109
H      1.375046365362    6.763396083444   -3.325538462471
N      2.098412504642    1.297377403744    0.123766725926
C      1.380190979793    0.158559230190    0.337557203711
C      2.023607032049   -1.098142489990    0.442170464123
C      3.385880084030   -1.189083047713    0.260459963585
C      4.117237158258   -0.018853305679   -0.029242567833
C      3.429491474807    1.190944643454   -0.081726022403
H      1.396145742151   -1.967486344594    0.640536713634
H      3.899116515483   -2.149610395329    0.322229464811
H      3.978918103941    2.113763581870   -0.287787917104
C      5.587391277200   -0.013057169115   -0.267187481925
O      6.245767545688    0.971988846179   -0.501839074055
O      6.111524350487   -1.253080385878   -0.188069194721
C      7.519230418149   -1.356060637471   -0.401360388318
H      8.071855932507   -0.763663974009    0.343519393038
H      7.766671987333   -2.420053871706   -0.302191431885
H      7.790049391858   -0.992052258783   -1.403970854502
