65

C      1.383566116535    2.906160827816   -2.122318158074
H      0.013907886152    1.845638490420    2.190825267615
C      0.495296140200    5.258250031184   -0.387218729685
H      0.564916438871    5.655803098719    0.631456016907
H      1.209196581782    5.607984165591   -1.136891572580
C     -0.614513380927    4.538673424114   -0.784609529786
H     -0.776733591751    4.293608085331   -1.837627122752
C     -1.835709265402    4.305724847264    0.068323681325
O     -2.566286326928    3.349340680340   -0.069088294447
O     -2.022287546793    5.295829836410    0.934932015389
Pd     0.975639499125    3.106012755765   -0.175685257416
C      0.280311621093    3.985822199466    2.865863712933
O      0.681588737606    3.105786348524    1.976034201496
O      0.492042091245    5.184398315118    2.808605188605
C     -0.508039343102    3.364429026263    4.050668081943
H     -0.829215891641    4.232090625349    4.645399714503
N     -1.727941056490    2.648991937213    3.666393844040
C     -1.766704809857    1.637488596458    2.890542079459
O     -0.704928435132    1.099386117611    2.232600676131
O      0.006510426746   -0.004631493039   -0.078391143940
H     -0.410012726587    0.489211822859    0.681925474029
C      2.481736377189    3.576328359342   -2.676885433685
C      2.836967589204    3.422523285601   -4.028829896608
C      2.062836015741    2.573785995166   -4.852336567280
C      0.967089246680    1.908397240020   -4.285765351780
C      0.621280468637    2.063060542062   -2.938052466240
H      3.097021399074    4.236481024945   -2.056628847807
H      0.363811937275    1.246658249885   -4.915132108990
H     -0.234679512337    1.516523918425   -2.534200294481
C      4.029273493690    4.160569450388   -4.587641986058
H      4.784189243719    3.466316922280   -4.995188090488
H      3.742216077242    4.829363376836   -5.417199900777
H      4.519749690132    4.774407020537   -3.817993095409
C      2.405886188989    2.386153661623   -6.310130514868
H      2.375236656184    3.340176959447   -6.864224353241
H      3.424044717787    1.981342572946   -6.443009581578
H      1.705156097193    1.694034170133   -6.799479986885
C     -3.147243120726    5.221076717218    1.842081852930
H     -4.063606887431    5.071811733334    1.248555548308
H     -3.010203405374    4.343240009127    2.493033433608
C     -3.167368175773    6.509824946975    2.636323706348
H     -3.319494304538    7.382460924158    1.981822795856
H     -3.985289702361    6.481277622890    3.373003469724
H     -2.214718907933    6.637977755900    3.172141767851
C     -3.057430209419    0.931009084709    2.587464833777
H     -3.834546570954    1.238480198225    3.297209032049
H     -3.376317489913    1.191742106846    1.564299232268
H     -2.915835582404   -0.160333960112    2.630116146580
C      0.411777879607    2.507112614872    4.938034676030
H      0.808433406540    1.637020938247    4.394339280334
H      1.261101143955    3.106225663085    5.302427830664
H     -0.153304417934    2.139879824559    5.808547130454
N      1.975639644131    1.214819041445    0.087115340655
C      1.335126405626    0.034656443776   -0.030420765981
C      2.054078963471   -1.170310970951   -0.146995458022
C      3.444451286867   -1.173923694622   -0.100642061303
C      4.088097292510    0.069070717734    0.075358272392
C      3.325122443410    1.219391649575    0.157898071452
H      1.478135795334   -2.090919918217   -0.252306441460
H      5.175965299775    0.138102558743    0.135806228822
H      3.797670553133    2.197447644823    0.271082581075
C      4.238902441512   -2.446566398854   -0.217238017159
H      4.882165453683   -2.589601499726    0.666397699519
H      3.587662274219   -3.326121076331   -0.315990859402
H      4.903926546626   -2.410171475465   -1.095944314618
