66

C      1.633168747255    3.013649970384    2.093296122688
H      0.642881686141    4.361107466468   -2.845263343415
C      0.350339956577    5.153969837260    0.232486938450
H      0.194454196701    5.412813444056   -0.817190704817
H      1.155535007326    5.664581229777    0.766926546135
C     -0.599905842083    4.451492353827    0.944340433549
H     -0.533557651864    4.382985517793    2.031898012314
C     -1.942593530129    4.001573685543    0.439909865931
O     -2.699078163550    3.364503397940    1.135533358676
O     -2.203551198924    4.404047323826   -0.807184352110
Pd     0.963313048092    3.022989246181    0.209986723340
C     -0.489353232509    2.334653553688   -2.393901585690
O      0.451041975989    3.062176830860   -1.907728991666
O     -1.055077540004    1.418498603754   -1.772465522587
C     -0.907598672235    2.606288043556   -3.854554571822
H     -1.745455227102    1.913698867630   -4.022043414611
N     -1.410142568744    3.944763280112   -4.149221809049
C     -0.763627384108    5.030303037753   -3.960007771896
O      0.433061055800    5.189819760594   -3.360045931567
O     -0.005118572688    0.032348954268    0.056291832882
H     -0.439249686621    0.702353935999   -0.601184008433
C      1.049775220284    2.178175460269    3.054493331259
C      1.529281862449    2.128650146306    4.373594526980
C      2.630084274629    2.938880148843    4.741752979561
C      3.206217087768    3.767061620471    3.771261390923
C      2.719495650081    3.814723689875    2.457559986271
H      0.200446025071    1.544090590621    2.783016072281
H      4.058719634773    4.396371521251    4.045669112424
H      3.206331112737    4.476408471032    1.734723950426
C      0.872173976344    1.218055387768    5.381993453206
H      1.585844758756    0.482965667225    5.792235998786
H      0.477318703490    1.783617542625    6.243403160539
H      0.036053895072    0.662028918672    4.934334874489
C      3.172681857654    2.913306363527    6.149851471938
H      2.406760762572    3.205138336607    6.888830248500
H      3.515123991727    1.904594078130    6.438353611856
H      4.024350231845    3.600019605092    6.263016756989
C     -3.466862454548    3.995926162465   -1.391861604601
H     -3.276210103630    4.016860436535   -2.473445377427
H     -3.673205611940    2.963534482798   -1.076796138854
C     -4.592484937327    4.935496475460   -0.996773921105
H     -4.359010938448    5.974102992972   -1.279427693064
H     -5.516553471819    4.640258035824   -1.519366799316
H     -4.785065441164    4.894350499198    0.085530651104
C     -1.329438339056    6.344098776863   -4.429107473072
H     -0.580953185094    6.874749369528   -5.039206718833
H     -2.241376255090    6.179372491823   -5.014423614281
H     -1.553752764157    6.989003919914   -3.563326854265
C      0.230868199010    2.200951939396   -4.809781076112
H      1.121862042046    2.830063072489   -4.665334639374
H      0.516735837726    1.148982334057   -4.651134506308
H     -0.109168856274    2.316678348834   -5.849929307027
N      2.002289008100    1.178285823804   -0.034020271818
C      1.304617454336    0.032629941159    0.013450457390
C      1.995638064341   -1.225243905443    0.057015792684
C      3.382963402606   -1.230601290849   -0.000379934360
C      4.076239872257   -0.008259502626   -0.089872879941
C      3.358178940837    1.168149178908   -0.096107300415
H      3.937823322231   -2.169104619073    0.013761255883
H      5.165684606504    0.014093861387   -0.140903316453
H      3.850100388401    2.140982492645   -0.132508677529
O      1.202788335005   -2.309599539318    0.136556824248
C      1.797107247674   -3.588064251180    0.179793761713
H      2.452491556437   -3.705104918852    1.061943095156
H      0.974248025436   -4.311423967694    0.247136635896
H      2.385366817128   -3.796767224422   -0.732341220204
