74

C      1.366928142505    2.917132438735   -2.097658991050
H      0.021162632461    1.849257374994    2.194964125406
C      0.487039398527    5.262447774532   -0.353530933803
H      0.551376513378    5.653248944213    0.668248579597
H      1.206580969889    5.614470591997   -1.096956463882
C     -0.622403056953    4.547753405730   -0.762043746996
H     -0.778656411928    4.311634006923   -1.817967836283
C     -1.848903843497    4.308094760814    0.081519163255
O     -2.568901418399    3.343885357243   -0.059663912293
O     -2.050993429953    5.298201193010    0.943124870441
Pd     0.961349498291    3.109977343517   -0.149777840808
C      0.249124780427    3.973248182692    2.892601097414
O      0.682251968072    3.102134449950    2.006328204777
O      0.429605887471    5.176332679927    2.830750742436
C     -0.537573901965    3.337873567109    4.069225528810
H     -0.875566241673    4.200948510314    4.664313290721
N     -1.746827532366    2.620552350597    3.655712743798
C     -1.774804737903    1.625101582080    2.859266324075
O     -0.700789196763    1.099103617325    2.208648165043
O      0.007573892825   -0.041281634249   -0.048209168277
H     -0.400782261325    0.489702903296    0.698186517972
C      2.499997851579    3.544381549554   -2.630782670555
C      2.864400757793    3.387520541293   -3.979946152189
C      2.063734635058    2.580825488983   -4.820650338818
C      0.932575944899    1.959337095969   -4.274455547635
C      0.576672480993    2.117253251113   -2.929491689015
H      3.136627885105    4.169405327997   -1.996013850830
H      0.308289582424    1.331322963961   -4.917649784411
H     -0.310196264473    1.608416855268   -2.543016399605
C      4.095376960390    4.076435258829   -4.516586544815
H      4.822558844853    3.352214377929   -4.922076818261
H      3.848533069184    4.765494614068   -5.342473144996
H      4.604068213208    4.658669593630   -3.734584586680
C      2.416875691474    2.391173171531   -6.275687067961
H      2.436726850985    3.350777874473   -6.820400732347
H      3.417476191255    1.942181346608   -6.399055577875
H      1.692260529238    1.735936455857   -6.780709906962
C     -3.178063261537    5.212518057131    1.847367639075
H     -4.091829311084    5.060457333747    1.250568912678
H     -3.036866486299    4.332159170958    2.493916782371
C     -3.207990877741    6.497140904281    2.647705192568
H     -3.362219935807    7.372028894359    1.996802818870
H     -4.028864414946    6.460622723650    3.380726475573
H     -2.258235422115    6.627293833742    3.188049414945
C     -3.060076436385    0.925034507827    2.520443259918
H     -3.850075077335    1.220032019662    3.221151310476
H     -3.360421996362    1.205460521400    1.496974372725
H     -2.919885765636   -0.167025657367    2.546047954902
C      0.382370681260    2.487178094666    4.993391133966
H      0.693649675916    1.593516427673    4.424784312025
C      1.644617822325    3.261600969230    5.393132265815
H      2.259646784749    2.664880521064    6.086090655052
H      2.270912777841    3.513650330783    4.523807512466
H      1.386737303338    4.205529894379    5.902144247157
C     -0.386851255389    2.018355406267    6.235139799147
H     -0.687587006470    2.879732006081    6.855974638642
H     -1.299534269856    1.468553431495    5.964649958303
H      0.241202863215    1.360742399615    6.858087672821
N      1.964365360928    1.201482041003    0.088848817075
C      1.327418126725    0.016185848381   -0.056299891114
C      2.057876633978   -1.175185646668   -0.255007346604
C      3.439746601208   -1.140341273838   -0.244901327533
C      4.094683829973    0.088250907203   -0.032530635689
C      3.308420032580    1.226751962904    0.120861615977
H      1.496801640641   -2.100761885064   -0.386397691208
H      4.025588037821   -2.050249437269   -0.382921058809
H      3.791514710285    2.196277459530    0.257253438746
C      5.575373426284    0.244525776052    0.017168234785
O      6.144940681465    1.297630853696    0.184302850881
O      6.212399146379   -0.928481950931   -0.146846770566
C      7.640106739683   -0.882785145213   -0.113075507033
H      7.994433821916   -0.494714750053    0.853644541630
H      7.981969475357   -1.914537541884   -0.259163046821
H      8.027969264482   -0.233618550747   -0.912410313572
