59

C     -1.259863413461    2.805097313429   -1.995936399213
H     -2.217994556187    3.249779080799   -2.274917573390
H     -0.807406459452    2.081175799514   -2.677230710837
C     -0.534149899137    3.332000361800   -0.951320958014
H      0.487913553746    3.008873000298   -0.739526151404
C     -0.991244039703    4.504280374252   -0.125717124805
O     -0.467665240582    4.805562926188    0.921651931357
O     -2.008833587318    5.155378219732   -0.691117094665
Pd    -1.669605167664    1.528670391033   -0.212448730219
C     -3.826441186373    2.273801349590    1.464482378225
O     -3.117451985415    2.710738181410    0.444392776177
O     -4.732216788480    2.917282818390    1.950059427883
C     -3.407421449835    0.898992162127    2.039145842757
H     -4.339870313155    0.364462881804    2.274387945585
N     -2.647583728882    0.182158764928    1.005068400791
C     -2.756978054528   -1.084154173211    0.732265177735
O     -2.012527000877   -1.655018232796   -0.182931795099
O     -0.345540593208    0.131573471972   -0.928859320446
H     -1.311746233828   -1.015760398524   -0.556351860717
C     -2.698674903578    6.134308022020    0.112452800315
H     -3.248669926637    5.589943168710    0.896847875161
H     -1.954605052517    6.783570572257    0.598463527794
C     -3.635232940958    6.907148676941   -0.791298219777
H     -4.366515603843    6.234974768546   -1.265517270349
H     -4.189209873827    7.653811704389   -0.201275267559
H     -3.080335067062    7.434949056727   -1.582803313282
C     -3.710653973444   -2.051024155886    1.377382934573
H     -3.144015266045   -2.730012066109    2.033180821667
H     -4.499232080473   -1.568061799586    1.962508552927
H     -4.158952449126   -2.664065763598    0.582220618871
C     -2.610022149194    1.063313535282    3.394970976942
C     -3.574032151066    1.612125182001    4.465191205792
H     -3.039790071122    1.722071937658    5.422463625253
H     -3.989459583736    2.586886432135    4.179513844855
H     -4.420528076783    0.924867856483    4.631258260942
C     -2.093245979565   -0.309278657058    3.865415575846
H     -2.915288748294   -1.028111250475    4.012943852508
H     -1.364685337698   -0.744392013452    3.164400823555
H     -1.582512818070   -0.196859846521    4.834743820804
C     -1.414136534586    2.020332446303    3.233625297642
H     -0.689368444990    1.659345759161    2.486718785615
H     -1.726547112062    3.032828518744    2.937507748937
H     -0.878651926148    2.108598949300    4.192447152679
N      1.342554341530    1.004713761572    0.349598242885
C      0.901975470201    0.070974353840   -0.465680210664
C      1.721003019847   -1.030939637202   -0.893209450244
C      3.007709745808   -1.112408752458   -0.429117358237
C      3.516234232648   -0.114268443280    0.453575724616
C      2.624447627740    0.947196457754    0.813931826808
C      4.836342478415   -0.123685882074    0.973050297266
C      5.265568885981    0.881885305599    1.817952693996
C      4.385415370192    1.934239976234    2.170274032149
C      3.093238637381    1.970092699709    1.681741343681
H      1.302070681979   -1.771629585351   -1.576613741711
H      3.655864800072   -1.939450085387   -0.733807289992
H      5.509306918453   -0.939200536516    0.692541929216
H      6.283684092747    0.869590233024    2.214577274165
H      4.734844159525    2.727413314386    2.836596930174
H      2.403471835266    2.776336511055    1.941034884214
