56

C     -0.882496579608    3.006255292258   -1.714372131947
H     -1.779729925333    3.458994796866   -2.143099466650
H     -0.296455225504    2.329258804883   -2.340002956865
C     -0.379193062185    3.473124345740   -0.521982545317
H      0.588849522839    3.138819682222   -0.138888670675
C     -1.009008684880    4.589297704965    0.268466266688
O     -0.699988601228    4.828629949102    1.411325839930
O     -1.910711054683    5.266765416667   -0.444059216367
Pd    -1.592904207424    1.606960157406   -0.119124006588
C     -4.004582418852    2.264432347339    1.212267142320
O     -3.123283672564    2.761676686773    0.369726423443
O     -4.979689662786    2.882934068462    1.581960594573
C     -3.695137397434    0.854790678251    1.755013139979
H     -4.645675163848    0.301830998637    1.762424565338
N     -2.724782017861    0.199596730401    0.863630497123
C     -2.707618623393   -1.083231815416    0.656587525056
O     -1.819347889730   -1.646323792508   -0.120529579138
O     -0.187711724605    0.226355100252   -0.716487123601
H     -1.134143029948   -0.969429090686   -0.452063843454
C     -2.758715543224    6.189450787169    0.270305892637
H     -3.421686904526    5.595079551099    0.919324813307
H     -2.130246218269    6.827429683939    0.910284656094
C     -3.542939132433    6.989220524780   -0.747680846345
H     -4.160046604342    6.327949293748   -1.374953338521
H     -4.212943628255    7.693797270037   -0.230861031227
H     -2.872675203682    7.567564535011   -1.402792358938
C     -3.704806055720   -2.043453298105    1.249021373397
H     -3.777223137571   -1.928089013013    2.339287260831
H     -4.705631216602   -1.861588222992    0.826010090649
H     -3.398430626945   -3.068460316218    1.009230357406
C     -3.126197384847    0.935280622748    3.193347540850
H     -2.870638601633   -0.093742912009    3.506407446040
H     -2.169825148458    1.483841477317    3.145515998130
C     -4.027075284810    1.573126862480    4.268023006983
H     -4.201929768157    2.622895161627    3.981141471628
C     -3.293683847723    1.564261183799    5.615926493882
H     -2.318602585460    2.073572415804    5.550152474324
H     -3.886717663420    2.075366566827    6.390912636784
H     -3.109066751041    0.532999736383    5.964775148301
C     -5.398715980285    0.894707849084    4.374415649940
H     -5.975576909827    1.314929163132    5.213795778905
H     -5.995199596385    1.050585916979    3.463156136112
H     -5.300942808513   -0.191140479924    4.555284301646
N      1.489375811954    1.070951312451    0.611787237020
C      1.036871170859    0.128042352719   -0.220771349196
C      1.840135770031   -0.983012820516   -0.594834621077
C      3.113444109274   -1.089723954655   -0.066947974449
C      3.579171095792   -0.099015089092    0.817550849073
C      2.722635723926    0.959996887905    1.114317633984
H      1.443585719781   -1.724866316395   -1.289810256493
H      3.754115497400   -1.932589658929   -0.338072370353
H      3.047523786881    1.758180551113    1.788820568079
C      4.946670946334   -0.208218129203    1.426618808397
F      5.020356401000   -1.220814349128    2.315035304342
F      5.886486128240   -0.455140718985    0.491799177615
F      5.305131977147    0.913265837477    2.073592171181
