84

C      1.360122639154    2.809374525856   -2.064697220371
H      0.014915058924    1.884866925137    2.245898988560
C      0.430800904058    5.208815490675   -0.422058749933
H      0.480044144634    5.649129153058    0.579930748270
H      1.144105437094    5.546125096551   -1.178235714997
C     -0.661613677403    4.452498075276   -0.801980838567
H     -0.808475730150    4.167653367070   -1.846943824982
C     -1.888617098458    4.228880957057    0.044059722170
O     -2.604845177580    3.258835042342   -0.075403847800
O     -2.098565603243    5.239494946033    0.880425778238
Pd     0.953366087009    3.081252668677   -0.125714940794
C      0.205499865190    4.051690456874    2.881067461515
O      0.653218966561    3.160396481339    2.026780390066
O      0.390713814328    5.253359657138    2.801646678796
C     -0.597993265985    3.435880664183    4.057676721440
H     -0.955456774734    4.302067982430    4.633913166807
N     -1.782897479718    2.682408444904    3.654259269981
C     -1.784033352400    1.658464414996    2.895347418030
O     -0.692724459161    1.126748781947    2.276995807592
O      0.018094453398   -0.015038260756   -0.003264280974
H     -0.382788861979    0.521067301291    0.740836618409
C      2.479616473688    3.429566398105   -2.633018515554
C      2.830125262489    3.228948082855   -3.979762136250
C      2.030163831053    2.384073905604   -4.782505064158
C      0.912436563229    1.770150120986   -4.201717008827
C      0.569396319843    1.972886772082   -2.859469362208
H      3.118495495304    4.078849975839   -2.026574922856
H      0.288326530967    1.112385413923   -4.814646855038
H     -0.307599906372    1.468784122793   -2.445683570342
C      4.048266701602    3.910482218664   -4.554118186312
H      4.780315107144    3.179230499891   -4.937762050144
H      3.786813612769    4.564630203843   -5.403594996322
H      4.556790433306    4.528051824556   -3.799509759931
C      2.370373586488    2.145565824496   -6.233438553071
H      2.375453688690    3.084907900588   -6.812805612114
H      3.373882299383    1.701437078721   -6.350966411933
H      1.647083470090    1.465679458927   -6.706860433178
C     -3.236820475991    5.177959442854    1.772804252338
H     -4.141597461541    4.998858319944    1.169935270051
H     -3.098463357891    4.321926671036    2.451781768924
C     -3.285416385123    6.489910080994    2.526654259444
H     -3.439395064113    7.339990381789    1.843578297126
H     -4.113625991025    6.472519203236    3.252054220122
H     -2.342632059414    6.647355491091    3.071984822836
C     -3.053466092133    0.925072685893    2.568578463772
H     -3.849608893589    1.218513885798    3.262830099194
H     -3.357479298663    1.178522554431    1.539155800612
H     -2.891084393134   -0.162965905777    2.617476825662
C      0.355919103014    2.631080560688    4.985766792348
H      0.774865636111    1.779371387067    4.429591790592
H      1.198682668755    3.296452536102    5.236700734052
C     -0.297585899662    2.140677118506    6.258070754056
C     -0.491357735328    3.008129247043    7.345723212610
C     -0.738777973407    0.814091677802    6.380785714580
C     -1.111252635667    2.566498978712    8.517090494403
H     -0.147639737224    4.044660497248    7.274210569673
C     -1.358719668209    0.366860134657    7.551285751325
H     -0.590409646675    0.122524119006    5.546611775914
C     -1.548657831573    1.242320959656    8.623956809573
H     -1.249645040692    3.258130111982    9.352577684901
H     -1.693621231832   -0.671365327059    7.625705976480
H     -2.031608772776    0.894158971456    9.540775284414
N      1.971498876737    1.179747653412    0.200331360058
C      1.342033182965    0.043345941612   -0.008956778513
C      2.045862553859   -1.191310790646   -0.301572744150
C      3.465376055368   -1.187269730031   -0.307281447453
C      4.150423296019    0.050337245895    0.035472680337
C      3.362354439437    1.205761763019    0.293395026503
C      1.327166316445   -2.375502745264   -0.581096576585
C      2.004958494909   -3.543332002917   -0.887146254852
C      3.413291065606   -3.547106148165   -0.909656521225
C      4.129625355411   -2.394857599836   -0.623185446939
C      5.556405159764    0.161243810402    0.135610606728
C      6.163403309552    1.357774248630    0.482909506436
C      5.375233530832    2.491885807305    0.750129254645
C      3.995127864236    2.415196025731    0.656113196412
H      0.237857034338   -2.343319826028   -0.555457990350
H      1.451161069293   -4.458405145845   -1.108928153571
H      3.949510674465   -4.468198873488   -1.151811760157
H      5.219271462392   -2.428573249964   -0.643961227029
H      6.180018693710   -0.712741612217   -0.056708770357
H      7.251726348918    1.415871500673    0.557015389892
H      5.847365255708    3.433397688586    1.040367724738
H      3.372117649240    3.283363061843    0.883321180949
