44

C      1.045447531421    2.650409446553    2.950815369163
H      0.114377829734    3.220832780049    2.960815490161
Pd     1.128652647526    2.969555561760    0.577199559223
C      0.158958178004    5.541977116468   -0.056132235472
O      0.323375581937    4.753729901196    0.984354700464
O     -0.146648730662    6.709698269366    0.009804970287
C      0.421235802790    4.860656387842   -1.416915446841
H      1.423305241988    5.176978592680   -1.758933688239
N      0.365306878554    3.406184844684   -1.269904358875
C     -0.339464305015    2.654098767176   -2.070491412971
O     -0.599071667935    1.404088968905   -1.860865063194
O      0.129407430708    0.102004488264    0.114687321212
H     -0.311844809342    0.963675437119   -0.948440786571
C      2.276066052844    3.320933041864    2.763104031722
C      3.512319849947    2.658278555919    2.961547274721
C      3.504144062559    1.305992198950    3.345208039995
C      2.265650466988    0.641538171892    3.508557860450
C      1.054419123291    1.288795784238    3.323064996366
H      2.268170622179    4.399670237426    2.591410269897
H      2.271663203885   -0.411417739394    3.803067152347
H      0.112622461816    0.758016909498    3.474025162457
C      4.807768862260    3.409946858440    2.788298176343
H      5.382928252394    3.444747695630    3.729153955427
H      5.462005122202    2.925814302994    2.043419829159
H      4.630766338390    4.445559440256    2.464717802070
C      4.794050019225    0.566304631496    3.593024483076
H      5.409601375984    0.509644640164    2.679719095178
H      5.407252160982    1.071945063895    4.357587865387
H      4.607084760924   -0.461247404409    3.935471854998
C     -0.944105257785    3.181513821764   -3.351947286169
H     -1.842518064205    3.780620570192   -3.130837945829
H     -0.242009278942    3.813466892404   -3.912600419993
H     -1.245578665066    2.325518787557   -3.967460965268
H     -0.309753090451    5.252146975082   -2.136582811346
N      2.116411708896    1.219692173003    0.108820787145
C      1.386755232551    0.055971036820    0.081169154895
C      2.146237369126   -1.172216109013   -0.004042637679
C      3.518974642665   -1.165059376183   -0.129795513435
C      4.190670189286    0.073827357830   -0.162545658995
C      3.458749351370    1.237311314706   -0.035856497626
H      4.072229408531   -2.101726987245   -0.211607166505
H      3.947703686304    2.212592671126   -0.040759995069
Cl     1.262640740296   -2.665388244137    0.030538473653
Cl     5.931550519427    0.143719573843   -0.315952516901
