74

C      1.383710484393    2.926006944289   -2.171560421466
H      0.048414684737    1.749831759909    2.073733454682
C      0.563871193231    5.219218894726   -0.330609667924
H      0.657917602762    5.571098132531    0.702941986002
H      1.273847276828    5.589235397461   -1.074542186028
C     -0.563581514329    4.537002010314   -0.746278945055
H     -0.740766978915    4.345679120795   -1.807956943727
C     -1.781526905451    4.277722156914    0.103688267866
O     -2.530434383307    3.345124749656   -0.086308094878
O     -1.944176857544    5.215520491145    1.031822720020
Pd     1.003063784689    3.053893897516   -0.213763460868
C      0.374014539685    3.845249460215    2.859441915275
O      0.739542866617    2.975328441575    1.943777719167
O      0.681556490487    5.024988999326    2.844276540161
C     -0.508706116708    3.286153382447    4.011216723946
H     -0.943194038147    4.201097448885    4.442888669174
N     -1.652930384524    2.461410660065    3.630176212513
C     -1.710789866083    1.491073314276    2.808076597673
O     -0.683315234874    1.007492087137    2.059606566880
O     -0.030390545943   -0.076982256996   -0.228983133650
H     -0.422645565580    0.434618357802    0.541205153187
C      2.519698818493    3.556746457803   -2.694213931728
C      2.870191150590    3.439082911145   -4.051102688769
C      2.051536797241    2.670197243449   -4.909831185892
C      0.916723413982    2.046544836060   -4.373752370788
C      0.574660267422    2.164845660892   -3.021132261265
H      3.168769071863    4.154583973881   -2.045835151058
H      0.278389969802    1.448254578850   -5.031239733687
H     -0.315454157652    1.655405878371   -2.643105155444
C      4.105017659191    4.129217131810   -4.576963151884
H      4.820336909653    3.408800903661   -5.009281366554
H      3.859889557852    4.845015360750   -5.380183913108
H      4.626476055578    4.682785451071   -3.782592133435
C      2.389835100451    2.522452963930   -6.373124086632
H      2.418085360442    3.498666620865   -6.886973149882
H      3.383151616242    2.064353090698   -6.519065520138
H      1.652313632596    1.893341263245   -6.892347980987
C     -3.082856173274    5.116629632239    1.920352068732
H     -3.990158272817    4.986526923333    1.309237471917
H     -2.958541832227    4.217352075388    2.544140021785
C     -3.115268015538    6.381519874695    2.751620979057
H     -3.263936844133    7.271696961032    2.120624354416
H     -3.940982054907    6.329229110615    3.478130239381
H     -2.169837457034    6.501082849838    3.302095219330
C     -3.001248174237    0.764043396185    2.547612705729
H     -3.748964626743    1.031960052858    3.303205345479
H     -3.375975395739    1.047800304603    1.549693934779
H     -2.835948141676   -0.324812168673    2.547205640486
C      0.337435758288    2.667597129765    5.190663323713
C      1.340050509165    3.724105715743    5.694232897289
H      1.882915488547    3.337176120206    6.572012160493
H      2.082987311163    3.991413316838    4.928149172839
H      0.829353207249    4.652900869062    5.993946704073
C     -0.627102699775    2.314338445698    6.339505873828
H     -1.185704174954    3.202905870595    6.675946047705
H     -1.361168699125    1.556416069189    6.031924336109
H     -0.063463032423    1.922969096493    7.202416289577
C      1.109222205609    1.404206499781    4.768242753235
H      0.436771079154    0.608064679929    4.416506751468
H      1.831021917121    1.620194672090    3.965869615722
H      1.673196088493    1.006555302903    5.628059430164
N      1.956607660864    1.109901176631   -0.055145325843
C      1.289235849389   -0.048297288284   -0.245513691511
C      1.989930552263   -1.248103946171   -0.505122136785
C      3.370548391513   -1.245152673580   -0.507175638833
C      4.053253896654   -0.043092111422   -0.243098196761
C      3.304573461493    1.103702895990   -0.030742923144
H      1.407154495393   -2.153427722815   -0.676181523726
H      3.926691826033   -2.165936397603   -0.698043093083
H      3.795040280452    2.061792269582    0.146658403966
C      5.557828857721   -0.015804484960   -0.196681818018
F      6.029577698172   -0.718867272599    0.848386933660
F      6.087388392822   -0.564930056684   -1.304656586144
F      6.034913274703    1.234139743926   -0.091549955300
