56

H     -0.335712337419    0.674965254101    0.747600505050
C      2.077460796314    3.132325419866   -2.329321039087
H      2.876663576592    2.387638888299   -2.356846565380
H      2.348505452476    4.190085345915   -2.322640719798
C      0.782892543239    2.746640439645   -2.578730969596
H     -0.002262795809    3.488762617601   -2.741591702073
C      0.438446120864    1.321336077595   -2.897096446323
O      1.242887417941    0.421503501914   -2.979245803016
O     -0.876964904557    1.189421363292   -3.082717469452
Pd     0.991117650954    2.986004040569   -0.341283301803
C      0.045866459837    5.533207468487    0.435480568532
O      0.244110279597    4.803968120749   -0.648486178314
O     -0.336915563248    6.682679682645    0.394740453902
C      0.374729415001    4.825280262275    1.767118495615
H     -0.413006082612    5.122857705820    2.472038278116
N      0.342424648211    3.376454039215    1.537839948418
C     -0.384014775598    2.535442997331    2.273537426090
O     -0.635463448467    1.350017617466    1.942410513968
O      0.001881707433   -0.002441843193   -0.002491193074
C     -1.380439199431   -0.143452376664   -3.303958259331
H     -0.811375270271   -0.604502895028   -4.126762983977
H     -1.189052491580   -0.729103740694   -2.390890751284
C     -2.858265917941   -0.039693610324   -3.614752526151
H     -3.031960448515    0.561174154029   -4.520783410352
H     -3.275158149947   -1.045033751327   -3.781891839405
H     -3.404701616898    0.425636549320   -2.780353367614
C     -0.971261155411    3.003358016733    3.598115869347
H     -1.251887104897    2.111808890655    4.172119316487
H     -0.274468539637    3.618922627106    4.183817887352
H     -1.882897495763    3.597017912239    3.419733368032
C      1.742974932525    5.273316632619    2.329849847704
H      1.908371827309    4.708916683244    3.266159759156
H      2.526229620434    4.930985759498    1.629369227162
C      1.934361934228    6.776860175406    2.604566108183
H      1.849794134060    7.309155359442    1.642142277197
C      3.342447286883    7.023799217619    3.162346956722
H      4.121779922295    6.634954964464    2.485993939337
H      3.530446256063    8.100145332604    3.304512999463
H      3.476304110238    6.530837342921    4.141280551408
C      0.858476520634    7.352136055158    3.534760472942
H      1.082120498297    8.401501064165    3.786471746198
H     -0.130332097459    7.336833316656    3.053510049579
H      0.802532897329    6.789886542366    4.484214467757
N      1.965017794331    1.176335155968    0.058418083483
C      1.312974084649   -0.005810890424    0.020597499322
C      2.026567044970   -1.238466914006    0.008019331303
C      3.408542146465   -1.183664994667    0.109647486975
C      4.070922877454    0.051676906895    0.222379773265
C      3.312900525634    1.204991735718    0.184921954126
H      3.983587844674   -2.113846586575    0.117343046807
H      5.155202522770    0.111468999233    0.324715309335
H      3.772245586648    2.194325687695    0.243171652079
C      1.252195423691   -2.520205530256   -0.101057485753
H      0.472725492931   -2.575556984076    0.674773746995
H      0.733717455140   -2.577165280746   -1.072486333726
H      1.913447509792   -3.393631683438   -0.009193683050
