60

C      2.882851902206    3.920456199138    0.853477243502
H      1.671972658521    5.255965352382    1.698706457524
Pd     1.210643718713    3.123539815303    0.080319329627
C     -1.521742141579    3.215938187661   -0.983518735518
O     -0.590263152377    2.351060838058   -0.687007872543
O     -2.650662420914    2.960224214211   -1.342989515492
C     -1.046773729228    4.691425667274   -0.914404498078
H     -1.928462610281    5.280643840218   -0.628453952968
N      0.032553304928    4.840124132090    0.074401326510
C      0.021511321643    5.807052523429    0.935235771589
O      0.976530923823    5.941576223961    1.836901091089
O      0.084788135747    0.124713135355    0.270148944294
H     -0.333661043241    0.974278910672   -0.092500401998
C      3.303441960795    3.599120428927    2.159391266895
C      4.492831302910    4.098011515661    2.718904424675
C      5.312746081961    4.951675452583    1.945543306881
C      4.900276212516    5.274406162995    0.644925553903
C      3.708394860545    4.779197733401    0.104888010099
H      2.690028704598    2.930453025383    2.772018669314
H      5.526944843237    5.936881867601    0.039319249472
H      3.429450484985    5.065476216506   -0.913262883856
C      4.886523452458    3.719977129462    4.125903508325
H      5.862494184795    3.205445338614    4.151360543024
H      4.985702174215    4.607942096729    4.773580162496
H      4.143113234963    3.051884007627    4.584329498681
C      6.599124452455    5.507677403520    2.504719923702
H      6.423157280823    6.111759112858    3.411427468910
H      7.299033225449    4.705705649505    2.796194372923
H      7.110884040347    6.147716697149    1.771214624834
C     -1.041911236083    6.866919115165    1.055041925834
H     -1.149097971276    7.427402049603    0.116210409362
H     -2.015943813019    6.412020863997    1.292851953072
H     -0.764829077253    7.557024450141    1.860579919901
C     -0.606598935601    5.132518806848   -2.336143810589
H      0.299091313624    4.566853335717   -2.607614547966
H     -1.410501860030    4.813895155858   -3.017238509891
C     -0.365502661214    6.617201817467   -2.486228793125
C     -1.427147372536    7.482360971064   -2.804384203158
C      0.907305257508    7.175131340356   -2.284349640180
C     -1.226009411230    8.861270544371   -2.908187720923
H     -2.424003825068    7.066025053948   -2.978608407952
C      1.112841334072    8.554865877770   -2.386452242855
H      1.748568796295    6.519333257333   -2.046470155088
C      0.046251014493    9.403269010618   -2.696246047304
H     -2.064584457962    9.515031472644   -3.162308447041
H      2.112394934509    8.967654255745   -2.226563548662
H      0.206168128377   10.481266293373   -2.779652671437
N      2.125054151640    1.219489569657   -0.013883654750
C      1.390120580357    0.088148215361    0.137511760871
C      2.014458717464   -1.181781811636    0.176009854578
C      3.383706309289   -1.310783194392    0.008195477087
C      4.120945438737   -0.124035302158   -0.202280275512
C      3.463804355082    1.089479316879   -0.199328965836
H      1.364454111952   -2.046176139331    0.320199483368
H      5.201149422751   -0.148518226381   -0.358489912667
H      4.014451484795    2.018802337855   -0.338481190976
C      4.066029121950   -2.651911498434    0.033186954474
H      4.814703402552   -2.693440488515    0.841720028261
H      3.349915856056   -3.471580291295    0.185369155754
H      4.604776764343   -2.834558887619   -0.911241946163
