50

C     -1.270133080319    2.769841993797   -2.022366951184
H     -2.246786250984    3.227269890818   -2.197190116264
H     -0.905339659290    2.036206109053   -2.744975959405
C     -0.425695904826    3.291735198701   -1.068607778345
H      0.607650487686    2.953029578866   -0.967455675389
C     -0.765694494437    4.473717494993   -0.201650624693
O     -0.121890421429    4.764534376207    0.779254340467
O     -1.826736982938    5.144701130812   -0.652496932019
Pd    -1.513957431649    1.516472224237   -0.192790353375
C     -3.499310160702    2.341485171393    1.649912616649
O     -2.888560637163    2.734581905795    0.554026597449
O     -4.263648450122    3.044780825105    2.273097000712
C     -3.155892065887    0.919815477670    2.152038006674
H     -4.120791037479    0.415311157284    2.324544209115
N     -2.377411124856    0.203290556011    1.131412850545
C     -2.388650297929   -1.091761759489    1.013947025436
O     -1.676910014993   -1.711374391500    0.110970955063
O     -0.246038547462    0.094648678358   -0.968581902074
H     -1.083393792205   -1.060119029970   -0.410597573734
C     -2.413630414034    6.126030717710    0.226821460759
H     -2.883591121591    5.582047845089    1.061936649465
H     -1.613663162476    6.763021479818    0.633884149377
C     -3.431877499828    6.916380435368   -0.566712387731
H     -4.217341730544    6.255510371644   -0.963999578086
H     -3.910943460496    7.664552177086    0.083870892242
H     -2.958808104214    7.443907858793   -1.409907402065
C     -3.229718659696   -2.003285921542    1.868631686136
H     -3.032834720638   -1.844525460373    2.937996905832
H     -4.300246958322   -1.810897699030    1.694570327895
H     -3.006130411773   -3.044332182226    1.607738770232
C     -2.401151769642    1.037781434863    3.484198329282
H     -2.193801304960    0.050478108839    3.924238970699
H     -1.442099205668    1.558420350270    3.338096089328
H     -3.012129250834    1.619510999545    4.188904805354
N      1.521281483475    1.038821149638    0.140092201093
C      1.038603928876    0.071686902152   -0.607765287904
C      1.843324181381   -1.029491146905   -1.061753969290
C      3.163130230394   -1.073052013652   -0.694116307997
C      3.717445481752   -0.037356617281    0.114503953339
C      2.835178495308    1.020992075270    0.506006381003
C      5.072939359180   -0.005433294856    0.532482475545
C      5.543748145262    1.037239103664    1.307312606806
C      4.672251702801    2.087097190111    1.688578534697
C      3.346489361287    2.083425341531    1.299087668772
H      1.389178355415   -1.799985788041   -1.687270235416
H      3.802389356138   -1.898784960539   -1.020416962525
H      5.739413673746   -0.818438733777    0.230017524453
H      6.588832613215    1.056693133202    1.625914894742
H      5.055707743379    2.909793028275    2.297944529303
H      2.660863929114    2.886620809969    1.578642572185
