81

C      2.484081727221    3.774552835353    1.413714247436
H      0.679894976088    1.969453272832   -2.877467510922
C      0.399107821360    5.458454263729   -0.009167817623
H      1.157419847755    6.132834810776    0.392075644607
H      0.073620289402    5.571849051050   -1.046182665992
C     -0.375728230845    4.693565430234    0.838974828783
H     -1.266271194315    4.203022208761    0.438627087385
C     -0.327205287254    4.727409763529    2.337398575283
O     -0.889093329665    3.912352464479    3.031062358242
O      0.362236616005    5.773032817565    2.810354947791
Pd     1.188860410425    3.384159765649   -0.059310072632
C     -1.220616072235    3.096274365448   -2.183441215710
O     -0.155329596674    2.579564913063   -1.598635499536
O     -1.672766424920    4.196756285386   -1.923030046200
C     -1.909929930625    2.189185176629   -3.245703334694
H     -2.808640835033    2.769160414291   -3.511200558549
N     -1.212631664956    1.945683934182   -4.493547617977
C      0.034402213859    1.745567183310   -4.676095626087
O      1.031877875397    1.732272737079   -3.772397436080
O      0.375989694978    0.409956838623   -0.237461008334
H     -0.026076200247    1.195379693701   -0.713916401652
C      2.475531448040    2.924210255244    2.526557533846
C      3.389379128029    3.079296032880    3.583221097833
C      4.342517534134    4.122672070225    3.524362926053
C      4.336543290138    4.970896001260    2.409352300974
C      3.421241617908    4.810042622149    1.362194522957
H      1.742521165369    2.115002086677    2.594062054186
H      5.070902594100    5.780542705990    2.352564117704
H      3.463499726312    5.498439488162    0.514418976238
C      3.352348856967    2.134311066377    4.759748194172
H      4.303615603114    1.585682624513    4.869382157952
H      3.191414415860    2.671411670785    5.710200021616
H      2.547203559678    1.393168108006    4.653937880907
C      5.348089176529    4.316605012979    4.632971372304
H      4.858366803892    4.495776457525    5.605592982084
H      5.985718839324    3.425645806788    4.765582891386
H      6.008741608299    5.171946898775    4.428999061507
C      0.488893786339    5.873887268873    4.240828735714
H     -0.519494498642    5.878513096251    4.684981541303
H      1.005563166809    4.973383310504    4.609002191183
C      1.259060121457    7.138822142702    4.555088975187
H      0.733208081940    8.027375514753    4.172649108225
H      1.370319816822    7.247624721350    5.645262122962
H      2.263109551469    7.106853582735    4.105673555000
C      0.554546093541    1.471462351154   -6.063351959321
H     -0.270406512540    1.478604225191   -6.784571084322
H      1.302837728324    2.231701022866   -6.340523631985
H      1.067044078928    0.495819353072   -6.085140032004
C     -2.401832038260    0.905082107920   -2.566002363675
C     -2.047972990520   -0.369404197785   -3.023078868232
C     -2.519309603153   -1.516186747220   -2.372885375520
C     -3.352748761664   -1.404505220474   -1.258134429481
C     -3.719259883889   -0.134159750054   -0.798659547481
C     -3.251635005655    1.007773232894   -1.450429954892
H     -1.411739501793   -0.463571157228   -3.904003246510
H     -2.235087177654   -2.503542346816   -2.747314226944
H     -3.721347177292   -2.300473463801   -0.751762081189
H     -4.376428953797   -0.032587031900    0.069084594012
H     -3.550875550831    1.996914330140   -1.090605648436
N      2.323863957793    1.583411683289   -0.533682347882
C      1.691183513518    0.442728678057   -0.337216726862
C      2.387904956901   -0.820269393555   -0.184510277417
C      3.800329801194   -0.839074538285   -0.315219316109
C      4.473615384554    0.399212794929   -0.682225714546
C      3.693352998141    1.582939335602   -0.798715112344
C      1.669926524697   -2.002002232878    0.104846340184
C      2.348423701316   -3.194645038071    0.292691295391
C      3.752498235771   -3.222464489624    0.186120341329
C      4.464668964343   -2.070885717223   -0.114961043678
C      5.857356566173    0.476301308105   -0.960416496832
C      6.448887918224    1.665165322289   -1.357283377621
C      5.663810954686    2.822986918400   -1.498988434353
C      4.307207780438    2.779703883056   -1.222257395679
H      0.583242742965   -1.950455877425    0.178413838616
H      1.798064934938   -4.110010156421    0.521607951658
H      4.289101245800   -4.162609588708    0.337373546602
H      5.550634433219   -2.124501847994   -0.196996117357
H      6.473012559531   -0.420322942355   -0.877993862433
H      7.519295522916    1.697134619644   -1.572886505325
H      6.119617348573    3.757940045980   -1.833193911631
H      3.685676156626    3.667425924678   -1.343540657738
