44

H     -0.455024109178    0.977965752978    1.103956721277
C      2.007089871889    3.281891289749   -2.366895178634
H      2.858659072023    2.598488398548   -2.413997176703
H      2.197443020100    4.356990498595   -2.348056505783
C      0.742690833333    2.802345128303   -2.621805582474
H     -0.096455779288    3.485607822267   -2.775092011521
C      0.511569093089    1.356914438247   -2.966548929334
O      1.392861049018    0.534835027279   -3.063632911835
O     -0.785216146743    1.119460619089   -3.151605209526
Pd     0.957560778412    3.025168614955   -0.396419846007
C      0.072055701278    5.571663105476    0.428719337701
O      0.166859976186    4.836243089668   -0.660957147106
O     -0.194342939234    6.751270093762    0.425007973157
C      0.366820369741    4.832057270664    1.756814813953
H     -0.418857291806    5.157157353011    2.453716533096
N      0.287785753855    3.381029921712    1.523059447788
C     -0.379440284559    2.593950758865    2.323936558743
O     -0.666313212919    1.359564590644    2.062488037356
O     -0.104128073377    0.215765300559   -0.061857047418
C     -1.174905295372   -0.256058255009   -3.363549076580
H     -0.617782439646   -0.648477794459   -4.229140369844
H     -0.872281222336   -0.831046298116   -2.474946204263
C     -2.671949918260   -0.287343890540   -3.580829932644
H     -2.960247541927    0.310434672114   -4.459415559054
H     -3.000766431315   -1.325067375780   -3.746163571842
H     -3.204165981825    0.106046367838   -2.701542653325
C     -0.916377251806    3.053834173540    3.659996452324
H     -1.134162697117    2.166443744054    4.266722037302
H     -0.214417593037    3.706520215619    4.194655139932
H     -1.858879220595    3.607010448789    3.514742768501
C      1.727599876159    5.270249992088    2.310655233900
H      1.927699125617    4.805917862359    3.288819560612
H      2.541765201815    4.986580162349    1.624338670443
H      1.737169482588    6.363700218663    2.426591396242
N      1.934291696408    1.226791114890   -0.067913696462
C      1.155014586562    0.100978000210   -0.066432423456
C      1.848995218686   -1.163085730677   -0.065297403596
C      3.223215005504   -1.228129278480   -0.002551635130
C      3.959817327898   -0.026335750950    0.051722318306
C      3.283598400764    1.176229632893    0.006021336205
H      3.732982405387   -2.192363164017    0.009679341858
H      3.823232261649    2.125152487130    0.022584151685
Cl     0.886404204712   -2.604815833666   -0.134203079577
Cl     5.700536665063   -0.055974300467    0.157783281287
