71

C      1.383639902580    2.927992311524   -2.118911837916
H     -0.000437021922    1.831940030368    2.185438949819
C      0.488553855494    5.264965641448   -0.369146169684
H      0.557546352703    5.656252331787    0.651902337651
H      1.202657492275    5.620917393569   -1.115696314286
C     -0.620534239899    4.547506734480   -0.772759799302
H     -0.781347679217    4.310431439613   -1.827827524261
C     -1.842798700660    4.306773745352    0.076626640503
O     -2.574999561395    3.353692006279   -0.073381193999
O     -2.028001713948    5.286395468163    0.955467857681
Pd     0.969064815999    3.111891964060   -0.172282799675
C      0.268375582281    3.967924731669    2.876168686010
O      0.663332259606    3.094629901658    1.978355695963
O      0.503465670013    5.164245455989    2.835102202305
C     -0.536994597208    3.351371154587    4.050506171000
H     -0.882367255016    4.219834453433    4.627884604686
N     -1.746938827650    2.621860159015    3.659662938583
C     -1.780055064127    1.612493131086    2.881502928365
O     -0.715570918007    1.082443303682    2.219447434316
O     -0.003158791245    0.010937316516   -0.098254269080
H     -0.421721833448    0.489961374340    0.671986682913
C      2.485317838191    3.600498337352   -2.663326311545
C      2.846056059125    3.455635489754   -4.014824526710
C      2.073814404991    2.614221784530   -4.847668765567
C      0.974287318296    1.946935825195   -4.290795800589
C      0.622784415437    2.092468010720   -2.943496387083
H      3.098869015771    4.255241679898   -2.035679169138
H      0.372541176277    1.290926163192   -4.927517515992
H     -0.236105754078    1.544939691440   -2.547301116770
C      4.042173376272    4.195205478970   -4.563215588787
H      4.797228086130    3.502203248230   -4.972534820526
H      3.759860123664    4.870432722247   -5.389150044110
H      4.530713450790    4.802504876620   -3.787186806886
C      2.423043663502    2.436133694674   -6.305144309739
H      2.397501153189    3.394223549357   -6.852367883477
H      3.440706877137    2.029530505838   -6.435993295334
H      1.722829098953    1.749403277816   -6.802666541440
C     -3.158326677311    5.205513460456    1.855843308955
H     -4.072183100194    5.070045906547    1.255247523667
H     -3.030038204279    4.317744594015    2.494941037069
C     -3.175285768090    6.483219495193    2.667775664404
H     -3.318933040156    7.365686756716    2.024701903073
H     -3.997203740718    6.449220721612    3.399739755705
H     -2.224848261157    6.598820920274    3.210348241986
C     -3.066414602828    0.898252101489    2.578003645201
H     -3.844789534913    1.199439089110    3.288977322700
H     -3.388156177543    1.158684425886    1.555646938956
H     -2.917916422310   -0.192215763106    2.618464861318
C      0.360925701475    2.493596006293    4.972508823182
H     -0.270808616787    2.167615657526    5.818116270532
H      0.653877586942    1.576074793439    4.436031809906
C      1.629522170560    3.177916608651    5.516322867173
H      2.278229485880    3.419411586501    4.653669516181
C      2.402942689597    2.200807809454    6.412265458212
H      2.639434202769    1.264139277118    5.880852290188
H      3.352566103508    2.640704502416    6.758183027574
H      1.814375492396    1.934497078070    7.307394783544
C      1.335596971246    4.491222856923    6.254075066562
H      2.257263511652    4.906504436877    6.693820159466
H      0.922515409347    5.252021363273    5.575674269516
H      0.617620160936    4.332193335491    7.077951345380
N      1.972840252272    1.217664213995    0.079615482791
C      1.324438898841    0.040534953363   -0.043272481643
C      2.041397963816   -1.166965169798   -0.158792370728
C      3.426415190637   -1.146963352002   -0.099981426775
C      4.087549552989    0.076525472980    0.081043140073
C      3.320566938924    1.228543850314    0.159997325674
H      1.471901523425   -2.089954824635   -0.271933767020
H      3.993056761575   -2.078090621164   -0.179783180376
H      5.174442221771    0.138475694518    0.147966162313
H      3.788096448494    2.208651556682    0.276291430697
