57

H     -0.421122637365    0.743172836134    0.703795432531
C      2.084407951197    3.132873939386   -2.296643940754
H      2.911962503030    2.419302428512   -2.316308742715
H      2.313308566671    4.200245469761   -2.291065265206
C      0.807399687481    2.693084002495   -2.547217243865
H     -0.008942257121    3.399137560852   -2.717962153817
C      0.534768539184    1.251701435178   -2.864236000123
O      1.388335666950    0.397111982047   -2.943116946433
O     -0.769334314763    1.043954189039   -3.049022788031
Pd     1.007575584295    2.975023451595   -0.306974167093
C      0.130844065184    5.559179577440    0.448409802193
O      0.276005898266    4.797227709170   -0.622325247089
O     -0.218920159336    6.717605290374    0.381029531806
C      0.471580209306    4.867435696026    1.790953473913
H     -0.299973195247    5.190594661139    2.503543826602
N      0.388160598917    3.418653357223    1.577048524943
C     -0.486584896849    2.637540823377    2.217012753911
O     -0.781208025007    1.473039943453    1.850642276773
O     -0.084324864824    0.033036034052   -0.010958875805
C     -1.190395325870   -0.322309419662   -3.249410445061
H     -0.660608567719   -0.727392880680   -4.126678871390
H     -0.880122265930   -0.903333556144   -2.367366199208
C     -2.692287343915   -0.323899721039   -3.435711848078
H     -2.986260299484    0.280621897578   -4.307711840227
H     -3.046095787763   -1.354459972773   -3.594604147521
H     -3.198226962927    0.080192094042   -2.545848420881
C     -1.208369280412    3.142503992759    3.459380904279
H     -1.661812265618    2.275153579770    3.954009917817
H     -0.546522497877    3.666381900964    4.160891957037
H     -2.015400912597    3.836050427787    3.171108379595
C      1.849435928280    5.373172766165    2.370956460630
C      1.664885681863    6.820538118040    2.868155824552
H      2.617673289554    7.213452992858    3.259113726422
H      1.312386521794    7.479576355461    2.063213924285
H      0.924946757978    6.865834749927    3.684501248484
C      2.268137717113    4.484854090213    3.555754224730
H      1.522150594401    4.512881236543    4.366238031411
H      2.402442569760    3.436025214371    3.251729962913
H      3.220488468279    4.843894660891    3.978529800775
C      2.963840109001    5.348054888534    1.307722194821
H      3.118838588419    4.334881923450    0.902083461521
H      2.740555049681    6.021748621029    0.466037553927
H      3.918092615502    5.674459782210    1.751716015937
N      1.927495423459    1.131925558093    0.091315236834
C      1.219713894695   -0.007428614531    0.025062429699
C      1.895743506889   -1.271511104842   -0.028770660080
C      3.277834219945   -1.297227631008    0.079518370772
C      3.981305192446   -0.084420824319    0.224297650447
C      3.280809663366    1.101321670864    0.217412822277
H      3.822934388063   -2.241300172188    0.064050156749
H      5.067251101022   -0.077530797918    0.327197818558
H      3.782710658638    2.066707967231    0.300132674042
O      1.088319858703   -2.338900802847   -0.170398027323
C      1.667544137618   -3.623480701211   -0.250380913661
H      2.221647356791   -3.878799390876    0.670984239167
H      0.838421275358   -4.331815034207   -0.375448467332
H      2.349902536410   -3.709584642143   -1.114990354866
