72

C      2.448788230027    3.785974962338    1.375813611921
H      0.412060790220    1.997456237577   -2.667637649837
C      0.179863146397    5.287938679609    0.061536981139
H      0.976450225793    6.001451175734    0.280480037590
H     -0.272922367982    5.295755859067   -0.932625666152
C     -0.471389438265    4.627715951429    1.083704348251
H     -1.397005072947    4.093297956244    0.852245709235
C     -0.227486856635    4.842381397798    2.547500726104
O     -0.671498612385    4.113990280137    3.403807961447
O      0.491450436304    5.945231631340    2.795512351037
Pd     0.987110248927    3.223181850451    0.142091680553
C     -1.590209324784    2.844724682491   -1.765915786446
O     -0.433069729255    2.390996280584   -1.315124587010
O     -2.216469860471    3.750674824655   -1.247429619999
C     -2.138153663047    2.128998081549   -3.035320623809
H     -3.135154818569    2.581552849263   -3.157493810769
N     -1.429815042057    2.383900311520   -4.277791369755
C     -0.170352943874    2.299794398664   -4.470526192605
O      0.797449909243    2.007066135707   -3.581844506398
O      0.159853988465    0.159322260767   -0.113221001719
H     -0.252484908685    0.980635917443   -0.505021669788
C      2.580036012953    3.178638309646    2.630290028155
C      3.657477025071    3.474570948982    3.482800446126
C      4.634137661851    4.409989436057    3.065472199156
C      4.489505674831    5.013243513156    1.809310309368
C      3.411146338239    4.714555810887    0.965893994202
H      1.832781473169    2.455841238075    2.969648165920
H      5.238913074760    5.738587862565    1.477255367926
H      3.342700443475    5.211035079272   -0.006257624415
C      3.769279541526    2.791485076958    4.824244070512
H      4.701678151585    2.206804161006    4.905663771293
H      3.786278225450    3.520071648250    5.652851505365
H      2.926683096572    2.106838893275    4.997201504684
C      5.809607123279    4.748363986156    3.949627638381
H      5.487092323923    5.159503409199    4.921584836610
H      6.419845140115    3.857264292959    4.176492636592
H      6.467094374022    5.491072211178    3.474617028541
C      0.792469480174    6.228386610415    4.173987796750
H     -0.154281292840    6.312597122043    4.731714709130
H      1.344818306977    5.373120318123    4.594297212193
C      1.601823597171    7.506921040331    4.223464045501
H      1.038478325782    8.348596851395    3.791694575674
H      1.844929728894    7.755701955058    5.268300979836
H      2.543849373800    7.395289777036    3.665298205440
C      0.397163696326    2.529446323734   -5.846733780856
H     -0.409405242313    2.744402417355   -6.556680706313
H      1.112407540955    3.367761860982   -5.825213451053
H      0.958677464211    1.638614333312   -6.172585106676
C     -2.365634506178    0.641632664231   -2.736118373520
C     -1.860739217590   -0.377641749237   -3.551561603036
C     -2.106913220777   -1.722178378750   -3.248063040279
C     -2.865095178132   -2.066584782742   -2.127019957510
C     -3.383551044966   -1.054166724832   -1.311593787073
C     -3.140098147100    0.285135372349   -1.617883466139
H     -1.284026235362   -0.118479805973   -4.440080828192
H     -1.707659726972   -2.503870538859   -3.900342272366
H     -3.058191027204   -3.116536958332   -1.891855659625
H     -3.984459848897   -1.309286007674   -0.434685011269
H     -3.558608349180    1.069765570905   -0.980077761486
N      2.109451708980    1.403767305299   -0.247046970128
C      1.477674056963    0.211879164702   -0.225477101376
C      2.181537789947   -1.020501997807   -0.302919216801
C      3.559500433533   -0.955913741138   -0.457792954822
C      4.211072226020    0.285559981159   -0.531438919529
C      3.453199880193    1.434869081766   -0.413406281551
H      4.133936514757   -1.883193421080   -0.536338367594
H      5.291015410153    0.356287726908   -0.667116212011
H      3.913956082216    2.422237521238   -0.429932462467
C      1.407297626192   -2.307077234627   -0.244857928131
H      0.869518276395   -2.403997381721    0.712416731861
H      0.638354216016   -2.335978651285   -1.033330602799
H      2.073285808580   -3.173913104812   -0.361509577293
