83

C      1.478463106726    3.210762666075    1.886733390785
H      2.378308565854    2.983824921509   -2.190889620845
C     -0.269734649801    4.953249218242    0.043185592734
H     -0.932630487575    4.963488012597   -0.822574103236
H     -0.741272587124    4.893233948154    1.026358067653
C      1.056467750436    5.312884092892   -0.068812797022
H      1.650763638152    5.532651082286    0.819772556050
C      1.737956099315    5.754444774916   -1.326527424131
O      2.935670260360    5.919743431684   -1.398347293726
O      0.893630479919    5.969813199753   -2.345445583161
Pd     0.951936053743    3.068056668794   -0.046721394071
C     -2.148776352341    2.568176077689   -0.966121165121
O     -1.823109979517    1.987309546786    0.179441684720
O     -3.044631468362    3.378598367961   -1.039401248708
C     -1.355141547317    2.166861973379   -2.226522555177
H     -1.838142468219    2.749909569712   -3.023596409774
N      0.059816021430    2.580369154138   -2.115048116133
C      0.764855713948    2.713796785917   -3.180488232856
O      2.065570283222    3.012948696414   -3.115246041937
O      0.048941352187    0.250236293865    0.329071384944
H     -1.059331579764    1.317312208576    0.151001779787
C      0.467161956252    2.862834845354    2.791033331269
C      0.688405884666    2.887519253963    4.178857263003
C      1.955792570588    3.275715583385    4.671107140699
C      2.953067105389    3.623004964426    3.751601993381
C      2.730350457721    3.594724601188    2.368800136236
H     -0.516568720018    2.554577249449    2.426655878202
H      3.938339607596    3.923161785984    4.121687519115
H      3.543824346678    3.867050976319    1.694143443725
C     -0.421280924920    2.498157303308    5.124899058755
H     -0.136176393160    1.634559072051    5.750047201857
H     -0.670520222914    3.318307324596    5.820037091960
H     -1.336950247568    2.228987861425    4.579226056871
C      2.231309850301    3.313557360425    6.154439414785
H      1.550738264818    4.005402290087    6.680030316614
H      2.090706346870    2.323472613810    6.621267072382
H      3.261961718999    3.636902392249    6.361596315167
C      1.476847428687    6.431885660231   -3.581174998036
H      2.104025977190    7.311133627609   -3.366167200893
H      2.142136728926    5.642862192911   -3.966421264259
C      0.351009987003    6.758209485592   -4.539445585849
H     -0.303151022003    7.542043893015   -4.128170315760
H      0.766071004361    7.120303277253   -5.492887739768
H     -0.267737485289    5.871799265002   -4.748254596349
C      0.325800980993    2.576794997040   -4.612372803165
H      0.667102090646    1.607185822127   -5.008404244782
H     -0.760438044182    2.644634101797   -4.734260042214
H      0.815565992198    3.358873575833   -5.209414469486
C     -1.498758013105    0.659436474926   -2.529168757039
H     -1.010826260220    0.455007505817   -3.498100206191
H     -0.933913467762    0.100202905172   -1.768715701419
C     -2.944322069162    0.125444480151   -2.579744607059
H     -3.389199560367    0.265741291861   -1.577770347347
C     -2.923518295794   -1.382809859948   -2.862011750010
H     -2.311596003521   -1.923244091958   -2.122182921227
H     -3.940241102591   -1.806228575064   -2.833401714772
H     -2.503661409272   -1.593824364350   -3.861084931753
C     -3.828645130515    0.866994084463   -3.591959071319
H     -4.828349887106    0.406693298097   -3.645524721090
H     -3.972656169847    1.923034157245   -3.317501744578
H     -3.393834288757    0.825567330477   -4.606752047865
N      2.047535593747    1.251820150745   -0.084292346699
C      1.294080516717    0.162417341123    0.167482145693
C      1.949932307032   -1.158021415665    0.246505992821
C      3.344532994077   -1.280702983383    0.037907955062
C      4.110467004198   -0.073353339062   -0.259592130615
C      3.415417255170    1.171452315603   -0.294331712165
C      1.166879330839   -2.291394103859    0.540231092907
C      1.751344095284   -3.546519431792    0.625865702463
C      3.135773231995   -3.680896116956    0.417913626402
C      3.917351138599   -2.570409335063    0.130113455453
C      5.497149568649   -0.080635592033   -0.519726353574
C      6.197065525634    1.084219282442   -0.805776129377
C      5.511984539532    2.308529605094   -0.834988652182
C      4.148083164697    2.348582592801   -0.579123782199
H      0.097839872579   -2.144716057935    0.700270730398
H      1.142783744940   -4.424528536847    0.855695321934
H      3.603982282156   -4.666475987367    0.485494372568
H      4.989153514154   -2.704099698314   -0.021618433684
H      6.038171685462   -1.027991195243   -0.501127222667
H      7.270228582533    1.044954966368   -1.005233417611
H      6.044825730091    3.236986239965   -1.054485768707
H      3.628238947509    3.310473486663   -0.576634779417
