55

C     -0.797785523970    2.998943961754   -1.608621399036
H     -1.678514592045    3.447310544580   -2.074722646932
H     -0.179817091851    2.330033013833   -2.212085986528
C     -0.349323345338    3.463009863470   -0.393633521133
H      0.603389620945    3.127245686462    0.026187903972
C     -1.019683218984    4.570041531884    0.376514564932
O     -0.772767755207    4.791195590389    1.537972061225
O     -1.879188351595    5.259578659814   -0.374497135971
Pd    -1.569538117761    1.586382959014   -0.051063094721
C     -4.028908019774    2.251988973347    1.182153808182
O     -3.117671545957    2.739549245557    0.364216230641
O     -5.014698087631    2.876676222046    1.508463746615
C     -3.739266713121    0.849269013837    1.750741460091
H     -4.689839116679    0.296890440624    1.731848086444
N     -2.739666013396    0.184131462361    0.899376697446
C     -2.722239910740   -1.100285995624    0.704001172026
O     -1.809181335644   -1.674964820630   -0.036456821964
O     -0.143630528026    0.192862775436   -0.579496861622
H     -1.110663364612   -1.007029961510   -0.346951169506
C     -2.757506908402    6.181238706542    0.304839981333
H     -3.455146928263    5.585023713615    0.914669744874
H     -2.158296288255    6.809483818753    0.981412089227
C     -3.484846099124    6.994656082713   -0.743960203089
H     -4.073221529419    6.343007098362   -1.407846153678
H     -4.176083621127    7.698517877450   -0.254936611267
H     -2.779169600733    7.574950055589   -1.358842411170
C     -3.743714760190   -2.051448562700    1.268218253219
H     -3.852360964364   -1.928335373421    2.354646422757
H     -4.728667296169   -1.867661665740    0.810271683299
H     -3.434622234990   -3.079559303802    1.045880720946
C     -3.219569182649    0.945131095713    3.206653662499
H     -2.974232671439   -0.080484431157    3.538450021476
H     -2.262765035777    1.494763751067    3.186397804650
C     -4.157581554762    1.592736000148    4.243123005082
H     -4.323140796108    2.639449385179    3.939942649622
C     -3.470767280483    1.598389263128    5.615352705431
H     -2.494642307052    2.108518409211    5.578004795962
H     -4.090644766784    2.116495028212    6.364146051516
H     -3.297316519757    0.570982200358    5.980803239876
C     -5.531366116020    0.913480982012    4.309123694503
H     -6.137109910931    1.341673696533    5.123674527796
H     -6.096896301448    1.058696371902    3.376561373662
H     -5.438767617203   -0.170220056720    4.504835481597
N      1.594413843883    1.099359480338    0.620157141772
C      1.086619280392    0.099665287440   -0.117927538600
C      1.847138695891   -1.065353097146   -0.423268088937
C      3.134713229278   -1.170988093007    0.064957896694
C      3.638219232506   -0.115921973806    0.840497537384
C      2.837081446065    0.998297662035    1.088234073717
H      1.403114032005   -1.851257307273   -1.036198351394
H      3.763040564309   -2.040022525948   -0.132800914574
H      3.228567652871    1.824692901144    1.687394881006
N      4.994517974365   -0.180651851115    1.381282054554
O      5.386628678462    0.766606078114    2.046910294529
O      5.652975617903   -1.180762463883    1.132893018975
