57

C      2.774480948861    3.649945250336    1.787735604655
H      3.501639881784    2.835931012939    1.783694404466
H      2.152050731408    3.824363777038    2.668482223118
C      2.815542520008    4.635905135148    0.827960173436
H      2.240718372357    5.546500817013    0.991077952180
C      3.853874501232    4.699419602712   -0.248370011423
O      4.662802061698    3.833109518068   -0.502278054832
O      3.795465006845    5.866973707760   -0.896666653202
Pd     1.176968530746    3.159605361878    0.285236272613
C     -1.381957998237    3.249550529122   -1.039261526748
O     -0.400442000381    2.404397631412   -0.715180223652
O     -2.380008563874    2.901914122488   -1.617405010115
C     -1.074528187021    4.702911582864   -0.651757089857
H     -2.029020156631    5.132084592163   -0.318296160834
N     -0.095559138548    4.725010842467    0.430380775509
C     -0.288178822336    5.373860843419    1.615124122663
O      0.485669899776    5.267238751978    2.567274762211
O      0.038333866270    0.139720509302    0.265474828354
H     -0.317401419134    1.000907232346   -0.130205019695
C      4.760383691800    6.082004884493   -1.951417561262
H      5.766088786238    5.886557824630   -1.547995549008
H      4.578112550154    5.338155238383   -2.743855531228
C      4.607692200230    7.501629532531   -2.452590672974
H      4.795364987308    8.227120198544   -1.646225067128
H      5.334189009684    7.688033319338   -3.258511487336
H      3.597576003714    7.679061922679   -2.851582886800
C     -1.508994110599    6.284288556236    1.753258785408
H     -1.407803253290    6.812720648160    2.708826077516
H     -1.588338557536    7.013801507975    0.935063731886
H     -2.438915018801    5.692888339089    1.775193414624
C     -0.632479968640    5.476505695997   -1.927853385200
H      0.352915759862    5.093254927734   -2.240013510278
H     -1.351191085502    5.218951130294   -2.721464040248
C     -0.581009297075    6.976284766706   -1.753179242193
C     -1.723689741233    7.758667404104   -1.992408127838
C      0.588610299577    7.621031199855   -1.318584642891
C     -1.702901251202    9.142194216066   -1.796683466829
H     -2.641596831219    7.276039986523   -2.341714611017
C      0.611696415159    9.005610989001   -1.120361115401
H      1.491803007101    7.034275495426   -1.137138848639
C     -0.533698998689    9.771054053480   -1.356630141011
H     -2.602062375512    9.732181462792   -1.993036046629
H      1.531863616338    9.488504382474   -0.780548685505
H     -0.514863997880   10.853124707636   -1.203615495411
N      2.112193649428    1.180959229055    0.048635623587
C      1.342106622601    0.066778260492    0.178131412414
C      1.930313568548   -1.221003056817    0.240974917272
C      3.292952861957   -1.360960699392    0.103608793789
C      4.075357681237   -0.208751094563   -0.101165074174
C      3.446753111442    1.026467159577   -0.117582986143
H      1.262564909942   -2.071784781340    0.378237084491
H      3.759357307386   -2.347644658774    0.144899174440
H      4.032671536982    1.937955558248   -0.254878311057
C      5.559437026103   -0.322559652127   -0.328079746242
F      6.093827521013   -1.282047891549    0.451650021678
F      5.843647907159   -0.656168153214   -1.601347414601
F      6.199663293584    0.824541060252   -0.063488532720
