44

C     -0.849059625846    2.850099779562   -1.658042833103
H     -1.767909971955    3.304101770488   -2.036587230809
H     -0.320824798136    2.140757424747   -2.299171417536
C     -0.254363608752    3.350572014351   -0.522246394189
H      0.736875933277    3.023606632314   -0.198843228676
C     -0.806295887581    4.506047059711    0.270511695355
O     -0.406057892877    4.781406861632    1.376359662216
O     -1.751305509686    5.170713483557   -0.395540866052
Pd    -1.472149875203    1.529200143723    0.033471517101
C     -3.766184931384    2.295873388746    1.500714860577
O     -2.960771796451    2.723323030426    0.551537979774
O     -4.635078644569    2.982351868094    1.989630085217
C     -3.517228718053    0.858033244825    2.008994170137
H     -4.497165000230    0.354047384992    1.991829604949
N     -2.570650649175    0.171277249693    1.117250564109
C     -2.576797379492   -1.117341491399    0.943105656044
O     -1.726052405844   -1.718292561419    0.155038990315
O     -0.095430440121    0.129243688458   -0.573151624054
H     -1.044026479818   -1.073212353911   -0.233110138007
C     -2.537693218625    6.123862055949    0.349876292235
H     -3.156789601105    5.555813902318    1.062730518273
H     -1.858805962762    6.774118504022    0.922356344539
C     -3.386724121025    6.900745380181   -0.633185718532
H     -4.053192334921    6.227309952556   -1.193455293689
H     -4.011711111855    7.627417192501   -0.091177621823
H     -2.761149633885    7.452115627991   -1.352658136118
C     -3.567689318586   -2.045965930486    1.594282737992
H     -3.584563515400   -1.915975881154    2.685146267035
H     -4.583136524896   -1.844166949640    1.217735254380
H     -3.297528928313   -3.080857190232    1.353820659177
C     -3.008214107054    0.927183592110    3.456067978054
H     -2.878761544380   -0.076018590480    3.889928505184
H     -2.039974769170    1.449630471014    3.499205299734
H     -3.734596496570    1.485774049915    4.063286796145
N      1.559166357487    0.941350732611    0.807689215592
C      1.131469600134    0.049929298208   -0.087329774822
C      1.996336251287   -0.996444316128   -0.520480268914
C      3.281332690036   -1.085004456007   -0.004432797603
C      3.691252516448   -0.130890620612    0.936673478648
C      2.794897308047    0.868744459302    1.309626368311
H      3.952948066747   -1.881280070697   -0.327598595881
H      3.086990359258    1.631273403172    2.038433455262
Cl     1.435669006128   -2.152060903649   -1.699212529744
Cl     5.294379991332   -0.192164278377    1.622844928259
