53

C      2.649215480913    3.690299608602    1.720656808949
H      3.400639614958    2.898766517702    1.692974679212
H      2.026838461139    3.821500468811    2.609006296161
C      2.654103801999    4.699075275337    0.784655965164
H      2.052348230670    5.587007772840    0.971663198331
C      3.693118221002    4.832940852497   -0.283928909688
O      4.501566157287    3.985336564033   -0.598440635273
O      3.639367149277    6.046451122344   -0.838589473935
Pd     1.051893886949    3.175886417982    0.231439902495
C     -1.593468813870    3.162889169877   -0.899415105605
O     -0.546897425760    2.355255509123   -0.685872421260
O     -2.679125429649    2.747665383766   -1.217555816066
C     -1.222458981512    4.642024654111   -0.723786899749
H     -2.146795989337    5.169735605627   -0.451791334755
N     -0.245911111355    4.718987574179    0.365259764935
C     -0.474458214082    5.340585010056    1.556320523586
O      0.285033961775    5.235119411445    2.520551439798
O      0.006750765825    0.151270996084    0.384929006760
H     -0.401298854634    0.983835414825   -0.025888687405
C      4.621443716662    6.352324548743   -1.852316408536
H      5.617811385042    6.086585537851   -1.466219174428
H      4.429444225900    5.708860353339   -2.726488609532
C      4.508759103780    7.823420263504   -2.188980853700
H      4.704140341731    8.446333159307   -1.302764582556
H      5.246587566449    8.083904103555   -2.963467236463
H      3.506277309929    8.067428456482   -2.570955642121
C     -1.711051141869    6.232545896875    1.683983454686
H     -1.641110075290    6.742609106117    2.652278755228
H     -1.778063754877    6.980177525864    0.880209168167
H     -2.635157949992    5.632869345673    1.665745050126
C     -0.703837997873    5.252799632634   -2.062752008948
H      0.200616702995    4.679605412450   -2.344677807180
C     -1.742191068788    5.098556872711   -3.182319923823
H     -1.348204680478    5.471253560430   -4.139468947017
H     -2.043410562245    4.052339045349   -3.329878305177
H     -2.656127123016    5.672035440314   -2.950644859199
C     -0.280447794332    6.719524148848   -1.862961049624
H     -1.176385232025    7.319319223805   -1.616280155196
H      0.382646260974    6.774213606907   -0.985566776767
C      0.436525173444    7.347325682856   -3.060317494676
H     -0.209509107656    7.417835286925   -3.949232548618
H      0.775543479990    8.368467143176   -2.822644232215
H      1.325447944671    6.758606679297   -3.343521010848
N      2.031629148106    1.227683268912   -0.018475198988
C      1.298132109284    0.105608545350    0.181973881457
C      1.944056084275   -1.165427393941    0.190401169228
C      3.299115160284   -1.262949455603   -0.066931259517
C      4.012452268716   -0.085564461516   -0.332994682014
C      3.353693622714    1.133004092661   -0.296403057350
H      3.791795346696   -2.235810712070   -0.076248849717
H      3.897679559978    2.062127228835   -0.477140440647
Cl     0.996537546357   -2.581357130217    0.501852715184
Cl     5.714589462730   -0.148121762998   -0.691383420483
