74

C      1.587720671011    3.308267860920    1.885140347905
H      2.254624319685    3.052772775020   -1.990341298911
C     -0.296252402049    4.969110807878    0.091254750007
H     -1.017249873337    4.941034302884   -0.726732375504
H     -0.697444548645    4.936076432479    1.106781194818
C      1.015392369481    5.325665684386   -0.122055007562
H      1.668503914260    5.570966808150    0.716867849655
C      1.608523558147    5.738182941772   -1.435061410343
O      2.792056250594    5.944766137870   -1.576505609558
O      0.700943438963    5.878773609292   -2.410631162502
Pd     0.900863072709    3.059055147147    0.017289154068
C     -2.229125165494    2.631379454213   -0.963523461252
O     -1.959518594356    2.089706076672    0.219039487608
O     -3.053446383452    3.504248679708   -1.092904110632
C     -1.418799347996    2.127519017994   -2.177015027933
H     -1.864775534171    2.670629100709   -3.023721390997
N     -0.002969254490    2.520688969161   -2.025905616814
C      0.753484322540    2.602658750986   -3.061673811732
O      2.043349759964    2.931344669407   -2.937031048730
O     -0.193920158356    0.231100240708    0.428078669427
H     -1.242214792647    1.376949497999    0.230166142143
C      0.699750979301    2.994095491473    2.919249818590
C      1.089047580328    3.092489706906    4.266668467749
C      2.402591341881    3.515013550861    4.578327836095
C      3.276677701534    3.822866563905    3.528000342217
C      2.884912571083    3.725162927521    2.186459150851
H     -0.314295158311    2.652298230193    2.691788442987
H      4.294985516453    4.149641583141    3.759164472637
H      3.601671251366    3.980771027398    1.401092070663
C      0.110770959218    2.742983236099    5.361039992827
H      0.485650768662    1.918234021618    5.990872281328
H     -0.064636428229    3.597390056263    6.036925699564
H     -0.860549932617    2.435231121789    4.948201898870
C      2.857107120569    3.630181260962    6.012663666728
H      2.236733511626    4.343487558880    6.581900672660
H      2.786966171014    2.664184617333    6.541344161340
H      3.900958092961    3.970230614542    6.075459440686
C      1.195049478718    6.324310905413   -3.691663266929
H      1.767284616653    7.253212965488   -3.541840894698
H      1.900023500934    5.568489724705   -4.073513909454
C      0.008591082390    6.528841005438   -4.609131432116
H     -0.681719703469    7.282058465700   -4.200082298418
H      0.355591005935    6.877618697518   -5.594116066869
H     -0.553712897047    5.593392390918   -4.753664729945
C      0.394264945012    2.368207985758   -4.501481818015
H      0.758728416562    1.376390331409   -4.813622121282
H     -0.685038612004    2.419880469364   -4.681092241798
H      0.909975825626    3.112191848060   -5.124443843113
C     -1.594019164968    0.603890837998   -2.417807530643
H     -0.973270377719    0.326375054435   -3.283521743417
H     -1.194335511333    0.059554610913   -1.551561834390
C     -3.029825361954    0.200640945115   -2.680549827673
C     -3.878586316773   -0.169331455581   -1.624623836659
C     -3.549155274265    0.202399316557   -3.985391114712
C     -5.208341606975   -0.524202915908   -1.867306786015
H     -3.492653954497   -0.178475524768   -0.602211847627
C     -4.877888731088   -0.152356090946   -4.231560554573
H     -2.901210021557    0.475233046774   -4.824482373782
C     -5.712680517748   -0.516122093899   -3.170778828574
H     -5.852825004902   -0.809934035658   -1.032082327105
H     -5.261335464075   -0.149004547344   -5.255263099193
H     -6.752192515680   -0.795485871241   -3.360308565045
N      1.868927859250    1.176281633391    0.102349661846
C      1.043914547834    0.077959050345    0.315703056571
C      1.670191513072   -1.220788475052    0.396045570758
C      3.027986111735   -1.364183835363    0.283731301277
C      3.813013922033   -0.205913699142    0.084343960763
C      3.197747746940    1.033387671922    0.013983852110
H      1.010073267360   -2.073010206018    0.561900876677
H      3.520125913726   -2.335381231955    0.346773371165
H      3.812662853762    1.925596555816   -0.113388355858
N      5.258810251882   -0.294640572134   -0.036940955572
O      5.884982516336    0.742731619022   -0.218960723779
O      5.763960055618   -1.405986591153    0.047886747366
