74

C      2.433171454552    3.785536495736    1.403161905338
H      0.435820642123    1.822094509960   -2.621648515414
C      0.190942094399    5.270543225645    0.039402741658
H      0.984618506967    5.984610008920    0.266831197206
H     -0.246389275220    5.269387493782   -0.961677491435
C     -0.479175088342    4.619200475292    1.055158964747
H     -1.401484408134    4.085171518618    0.810113373479
C     -0.261554311994    4.843938079660    2.521614641283
O     -0.716165954911    4.118238005917    3.374725803093
O      0.446947094396    5.952230340338    2.775088831969
Pd     0.993047243107    3.204616439111    0.151417311491
C     -1.547941393312    2.820873746616   -1.803532686098
O     -0.408583616197    2.351261579512   -1.311602909894
O     -2.155127703349    3.757463560917   -1.316039830165
C     -2.091620102979    2.091103781098   -3.055712674249
H     -3.056776534625    2.585625084592   -3.234002884395
N     -1.334524966804    2.248332320732   -4.293567752037
C     -0.090779212312    2.018760973172   -4.454280672023
O      0.828731680951    1.687805458053   -3.521506101500
O      0.168972883725    0.128190720777   -0.116660362916
H     -0.222952411803    0.968375416670   -0.496770034831
C      2.544328479438    3.193206330781    2.666778168493
C      3.607970336540    3.499029151838    3.533000907115
C      4.591364160290    4.429524826567    3.120527527763
C      4.466724000962    5.018295608010    1.855372834820
C      3.401822825850    4.709967266620    0.998402420104
H      1.791523838488    2.474674275942    3.002882269278
H      5.221219200150    5.740041217719    1.527044083026
H      3.349028471102    5.195702118077    0.019887087869
C      3.697813842646    2.832004934019    4.884146408379
H      4.628781656673    2.248580505124    4.987932656057
H      3.701191527482    3.570497846798    5.704110886311
H      2.852468021939    2.149337871633    5.051506764120
C      5.752409082074    4.778415867622    4.019499177979
H      5.414172155894    5.201465986061    4.980942526979
H      6.358495689863    3.890044567211    4.267214489133
H      6.417844113161    5.515150922586    3.546276153500
C      0.721979239967    6.246142658292    4.156738462881
H     -0.234886108753    6.327785925754    4.697311385148
H      1.272343853017    5.397177885594    4.592222606237
C      1.522225018203    7.530168979551    4.211920577447
H      0.961118133235    8.365390064853    3.764977850843
H      1.745639148058    7.787190590502    5.259154709001
H      2.474462457590    7.421134519743    3.670804092947
C      0.523810627749    2.096264381408   -5.826939697521
H     -0.244588228220    2.335876387545   -6.570680677375
H      1.317373086568    2.861198659273   -5.845894672241
H      1.000471819823    1.133940490015   -6.076110933920
C     -2.355976234334    0.596122387480   -2.769098314070
H     -2.778796828416    0.166012951723   -3.693904068377
H     -1.388855968277    0.090537826559   -2.608874828237
C     -3.291338670243    0.282126280598   -1.585602519603
H     -2.844771542655    0.710765173997   -0.668287969925
C     -3.378340831471   -1.235671167855   -1.377322530348
H     -2.381807791948   -1.671856256295   -1.201154013053
H     -4.012434357168   -1.485100000268   -0.511031527499
H     -3.812180026695   -1.732200795452   -2.262599578728
C     -4.686604031650    0.900395947337   -1.748878525478
H     -5.344138289071    0.608447485592   -0.913807248147
H     -4.649380294669    1.999949048961   -1.767528482885
H     -5.163961575121    0.558518687418   -2.683834790058
N      2.122236230377    1.371388661833   -0.183296394557
C      1.492296612769    0.178938876764   -0.169848501666
C      2.199530413676   -1.053192090927   -0.195433740469
C      3.582606216021   -0.988957280340   -0.296854576797
C      4.234830302915    0.251767601142   -0.368314453972
C      3.471312447112    1.401324269549   -0.298404897536
H      4.160639445037   -1.916561504368   -0.333519775263
H      5.319061731103    0.322296947428   -0.463544677081
H      3.931733070029    2.388750969220   -0.312868953108
C      1.429669051908   -2.342769657607   -0.141853216796
H      0.814759913554   -2.402229409719    0.770585501839
H      0.732282954789   -2.420030466274   -0.991686048265
H      2.107900764298   -3.207553327029   -0.164535798684
