50

C      1.070526566565    2.717070397099    3.033035747153
H      0.156950868942    3.314488513827    3.042138452592
Pd     1.084474747784    3.055638119878    0.603446241678
C      0.244326701036    5.688416705864    0.055952251795
O      0.515974208349    4.891407437742    1.068075975308
O      0.174778883275    6.892551591707    0.163131899752
C     -0.058252903396    4.984539553060   -1.284612191777
H      0.612947543153    5.445536856445   -2.034295621695
N      0.207118539701    3.542361302828   -1.161192472105
C     -0.160341324546    2.643952097484   -2.078268500585
O     -0.274998940180    1.417212136983   -1.847854212168
O      0.009455651348    0.070322568347    0.199375099226
H     -0.264862189789    0.745118104585   -0.555761205753
C      2.314932499113    3.345623438452    2.814808320547
C      3.531673773469    2.646850737211    2.997779095161
C      3.489975196582    1.297723443577    3.391219543162
C      2.236393673935    0.674329312636    3.583604180644
C      1.042741703447    1.361192526527    3.417404935042
H      2.335338921856    4.419632182625    2.619438603693
H      2.214514422532   -0.375568714661    3.888667382286
H      0.087624621742    0.862800744388    3.594875615781
C      4.844711614481    3.362855145239    2.806241776730
H      5.438245397435    3.374818887312    3.736258001323
H      5.472393106670    2.868930628897    2.044785928035
H      4.690092163985    4.404857610599    2.492362422372
C      4.762103613035    0.524833859026    3.631100564983
H      5.397979650413    0.500184714048    2.730691430314
H      5.367969654867    0.985097120804    4.430081853850
H      4.552516445128   -0.513678046584    3.924247074828
C     -0.417830818598    3.065152627780   -3.519300414242
H     -1.494210173147    3.003417213543   -3.740992679163
H     -0.052087451882    4.068176492127   -3.771876563400
H      0.082382055664    2.320925129452   -4.155747250100
C     -1.514923856111    5.339551123904   -1.629671136545
H     -1.809267908816    5.015930682103   -2.635721174751
H     -2.201125899443    4.880358564968   -0.900397401328
H     -1.624325115587    6.431962802189   -1.569992587266
N      1.987325318787    1.226349534280    0.110103454858
C      1.319228530761    0.051501209046    0.155906368653
C      2.036341488866   -1.166059632083    0.126782773424
C      3.407961768136   -1.147446912427   -0.045803567970
C      4.094500401539    0.077521551335   -0.189348161505
C      3.325576510463    1.230172757222   -0.084373264570
H      1.467573608833   -2.094126206428    0.195788357252
H      3.961435014231   -2.089957424164   -0.098111501761
H      3.790920476617    2.216563992811   -0.155080060112
C      5.578722810974    0.134863393588   -0.446935926974
H      5.949972871381    1.170493391501   -0.441034838806
H      6.144328664352   -0.431245535798    0.311526534545
H      5.831598345003   -0.301564383058   -1.428007319952
