56

C     -0.824997727816    3.056700522805   -1.552557295054
H     -1.719415489514    3.443472129032   -2.046817053492
H     -0.182479034543    2.372778030393   -2.111828000782
C     -0.387563845824    3.614463012723   -0.373139894439
H      0.581725848000    3.329265485206    0.047267619172
C     -1.077674829525    4.762589866531    0.314172742661
O     -0.796088685143    5.112347992659    1.436699258869
O     -1.991393999794    5.344706847504   -0.462672897865
Pd    -1.542119592160    1.708781281568    0.083658231586
C     -3.896099503491    2.446269982546    1.447080487722
O     -3.085008893307    2.862624744631    0.499972696465
O     -4.744901022302    3.154097237983    1.943417797887
C     -3.719619766299    0.985355663440    1.913290150238
H     -4.705417390325    0.519665645172    1.745948570059
N     -2.696400577140    0.316384881066    1.097126782405
C     -2.630124997600   -0.975532220043    0.961390035165
O     -1.692579874506   -1.549899968043    0.254878245482
O     -0.099297236652    0.312481433861   -0.388893072377
H     -1.003881859581   -0.873889360820   -0.075599701846
C     -2.879548772152    6.295115182190    0.162665649880
H     -3.519754238371    5.737049293474    0.864938314011
H     -2.279425493574    7.014807484857    0.740140884352
C     -3.690338624979    6.964983115220   -0.925773833679
H     -4.278989085017    6.225117465239   -1.489477121523
H     -4.389116803752    7.687810458521   -0.476753652077
H     -3.040725996622    7.505947570410   -1.631628837114
C     -3.583965388596   -1.958822334375    1.582177496605
H     -3.141083208909   -2.353036016314    2.511076707316
H     -4.561090160301   -1.523232312732    1.819642495235
H     -3.708613707411   -2.803995930596    0.891800604096
C     -3.433484333114    0.935663326826    3.438092533736
H     -4.189874635220    1.590494720434    3.899859744447
H     -3.628498454981   -0.085020017867    3.801620717994
C     -2.034740459822    1.352741465905    3.842046542805
C     -1.108079488048    0.396065957309    4.286315281774
C     -1.622075068728    2.693768163926    3.760966547448
C      0.195963527254    0.762299832737    4.633421701859
H     -1.413565175607   -0.651507230224    4.371715153850
C     -0.315799481120    3.061449757974    4.093527752702
H     -2.323242793373    3.464636470781    3.433636144332
C      0.597072493815    2.097223365208    4.532059124119
H      0.899603015277    0.001948306772    4.982605786608
H     -0.015448525300    4.106201094555    3.992721104364
H      1.617727026002    2.385955770749    4.795743216851
N      1.792772739732    1.420616116976    0.302064114884
C      1.179800140908    0.288588145927   -0.077037321831
C      1.884748644950   -0.946099835841   -0.171174278295
C      3.228912552800   -0.976330979045    0.143791068930
C      3.842713685381    0.219929729394    0.543637511706
C      3.088195765327    1.391152435004    0.605578645331
H      1.355328821047   -1.845686766201   -0.489143068271
H      3.818371325070   -1.892335119593    0.093045834077
H      3.565149994685    2.325375298855    0.913696569606
N      5.261707143856    0.240904351963    0.890549087567
O      5.747934792697    1.309592822585    1.231614823538
O      5.875632390771   -0.814327476941    0.817968240208
