77

C      2.599251805244    3.687819129445   -1.042421881839
H     -2.087066649813    1.428645751874   -0.190594652374
C     -0.375984025706    3.660617721658   -1.585853363734
H      0.116550751631    4.060915425993   -2.474098607380
H     -1.121288369200    2.873860260268   -1.723951269274
C     -0.325920713374    4.361955535520   -0.392894895088
H     -0.992689267552    4.109554180642    0.435193443051
C      0.298698218108    5.716663866779   -0.236377039297
O      0.437541328225    6.263200275174    0.831869128826
O      0.639341234036    6.264137145382   -1.411681190010
Pd     1.079407966613    2.646177632526   -0.285611883032
C     -0.777634401250    1.629968357656    1.798483107130
O     -0.630749365324    1.450068053652    0.487882102557
O      0.103328764190    2.127477893867    2.476340780221
C     -2.124524102775    1.220644612258    2.443571462618
H     -2.023291158063    1.659093536662    3.448641994035
N     -3.349507122397    1.781049442771    1.898415179414
C     -3.710381568710    1.935003745998    0.686261013371
O     -3.019328620364    1.665765193576   -0.442728722154
O      0.783176076857   -0.534747802251   -0.346383343225
H      0.178661225814    0.222537469346   -0.068423675800
C      3.278321116118    4.593812316823   -0.217676142392
C      4.414881703942    5.288499415841   -0.668455672767
C      4.878014069606    5.072665634016   -1.987962372566
C      4.182800131669    4.168971950629   -2.802938509677
C      3.053446011313    3.477468050547   -2.346540380279
H      2.925918734780    4.779781101209    0.801727940100
H      4.536297975278    3.993274325619   -3.823765068474
H      2.550075114244    2.773225010479   -3.014023580228
C      5.126919455522    6.250632713941    0.251642138259
H      6.174727742155    5.949216471223    0.422494305869
H      5.163189305313    7.269003488570   -0.171915040855
H      4.630449770428    6.311985462650    1.230659971945
C      6.097278340486    5.794750102942   -2.507815430242
H      5.968686730335    6.890414587304   -2.479252377959
H      6.993198076513    5.571281997948   -1.903435733254
H      6.317034792026    5.511456625886   -3.547491705089
C      1.261312690611    7.560804257422   -1.369256606600
H      0.573298540392    8.265809114825   -0.875040567555
H      2.166132293548    7.496007603297   -0.744776382573
C      1.580778455529    7.973360009064   -2.790493137752
H      0.666875242802    8.025331466989   -3.402336428706
H      2.053732616382    8.967825392206   -2.794095914764
H      2.273433542521    7.257729999577   -3.259099634713
C     -5.081029882400    2.475419477232    0.367443892501
H     -5.628304614111    2.690603748884    1.292100465033
H     -4.995143933499    3.390874371891   -0.240481269255
H     -5.639502689009    1.742234284693   -0.237408110583
C     -2.245397240313   -0.332751586588    2.703390762629
C     -0.945087236357   -0.844801327107    3.351033189169
H     -1.070487190312   -1.891218138339    3.673773302296
H     -0.096361583136   -0.817560037601    2.649869633973
H     -0.668489534988   -0.246440999836    4.233160909452
C     -3.412742754598   -0.547502567935    3.686805594574
H     -3.221968829212   -0.036203308848    4.644350486993
H     -4.352464874112   -0.151064915219    3.277731643179
H     -3.544956439666   -1.621623353998    3.897055757265
C     -2.519902104826   -1.129559415917    1.415875151382
H     -3.443401521462   -0.797944701659    0.918845968371
H     -1.693240882317   -1.050045300771    0.695232744495
H     -2.640948055544   -2.198308198123    1.658294154547
N      2.454495633479    0.992289825864    0.092820589423
C      2.044242346873   -0.265766317474   -0.070314204085
C      2.947076935056   -1.384119178651    0.034147034937
C      4.306571498667   -1.126936593165    0.372536745493
C      4.688455422853    0.228516243697    0.594626121478
C      3.763327546100    1.223106302616    0.443568954601
C      2.506046981288   -2.713941210248   -0.179448246108
C      3.399683465799   -3.762418866260   -0.069717952359
C      4.752886278775   -3.513314102470    0.261724033326
C      5.199769410718   -2.223969627824    0.480894739279
H      1.459119550695   -2.888022427673   -0.429826755459
H      3.062388272478   -4.788178780387   -0.235574108704
H      5.449207780966   -4.351512906151    0.347687330853
H      6.244032565907   -2.033763378735    0.740864837883
H      5.712993734247    0.477253172868    0.876405294337
H      4.032864804639    2.267728079255    0.587143226014
