74

C      2.422781536967    3.790171159144    1.410203450945
H      0.426742807712    1.876628383862   -2.610178438900
C      0.182996141171    5.270161014579    0.056435960471
H      0.981216106435    5.981142650463    0.277840534420
H     -0.257229708094    5.267423228551   -0.943454912712
C     -0.488258970075    4.628507138388    1.078479254440
H     -1.414850346269    4.098703871882    0.839837746343
C     -0.262627323581    4.859564529257    2.543385651788
O     -0.709520752779    4.134331257633    3.400859129121
O      0.443814311062    5.970358478429    2.787464962287
Pd     0.970409589427    3.202479693110    0.177934364712
C     -1.572387548465    2.823365456396   -1.777040336467
O     -0.435636997416    2.345474657469   -1.278603545460
O     -2.177605365007    3.756656664894   -1.283755418764
C     -2.100784152249    2.112984858199   -3.046165454181
H     -3.075032326544    2.593233393954   -3.213954933749
N     -1.342187290170    2.322117881666   -4.275822860082
C     -0.093496902617    2.123458519389   -4.438078470740
O      0.828856291241    1.783664880592   -3.509466251688
O      0.127527246670    0.106123687729   -0.171822224233
H     -0.251733368306    0.966610434798   -0.538208466494
C      2.538808685889    3.218474881573    2.682596278976
C      3.625887941774    3.512396124455    3.523833569684
C      4.625130109045    4.409430389888    3.076233564823
C      4.492259483319    4.979593419008    1.803480624093
C      3.404697056843    4.683915203120    0.970709906532
H      1.773251806141    2.526857108166    3.045454808364
H      5.259186422634    5.674717099726    1.448343983101
H      3.346854708568    5.152503066274   -0.015776072106
C      3.724590419594    2.866637172056    4.884433373869
H      4.640693498049    2.258810329378    4.978780836916
H      3.766596970247    3.619153776594    5.690312003967
H      2.864018473813    2.211514768385    5.081552462701
C      5.812698086080    4.741370890484    3.946078762770
H      5.504842028919    5.186243699498    4.907776228348
H      6.400506395500    3.840835387891    4.193222245984
H      6.486714843052    5.453558261244    3.448417968602
C      0.726088183375    6.272514267625    4.166637506975
H     -0.228128446062    6.352979146011    4.711882122943
H      1.282024068398    5.427516305019    4.602701627812
C      1.521609127633    7.559739960239    4.210698259836
H      0.954729111188    8.390598277640    3.763041249413
H      1.749822483115    7.822583136823    5.255397789872
H      2.471407248817    7.452175785701    3.665016250413
C      0.526218113768    2.254334670727   -5.803809055858
H     -0.243097394724    2.501322305108   -6.544111425965
H      1.304631816083    3.034788711503   -5.795344249111
H      1.022774745312    1.309446762029   -6.079207088145
C     -2.334276936861    0.605720434624   -2.802551138421
H     -2.740786692418    0.191892687634   -3.741845453034
H     -1.357970754263    0.115902733385   -2.649673794723
C     -3.272141308310    0.240449299727   -1.635781153141
H     -2.855679793942    0.674496467093   -0.706755160065
C     -3.302740902609   -1.282078838367   -1.446935052583
H     -2.293440314472   -1.679693875569   -1.253795304319
H     -3.945021588070   -1.566922943886   -0.597807319817
H     -3.697324550937   -1.784414297296   -2.347124504661
C     -4.687815706449    0.806435989468   -1.812290863370
H     -5.343460121476    0.485928224166   -0.986361682900
H     -4.693501232193    1.906774243941   -1.826327603784
H     -5.140798205035    0.451168458395   -2.754256935876
N      2.087408033952    1.339093155032   -0.130722484808
C      1.441148843230    0.150710016745   -0.152913688807
C      2.155728465895   -1.070813734838   -0.144315643325
C      3.533472721103   -1.049256234377   -0.172585252084
C      4.198204694978    0.192279913222   -0.206755778161
C      3.437628244111    1.348553884819   -0.174435038766
H      1.583042300364   -1.998390077158   -0.141127331726
H      4.102267079858   -1.981920882738   -0.184781845397
H      3.917060978883    2.326417358074   -0.165237143121
C      5.701737374571    0.248444572335   -0.232626742966
F      6.229390568032   -0.188237927106    0.927115320654
F      6.201726599840   -0.537269616575   -1.203404246411
F      6.156962288852    1.493439196476   -0.438128600055
