57

C     -0.840649291696    2.458501552801   -1.686654142530
H     -1.704744022906    2.980075736472   -2.104585642133
H     -0.393041587521    1.648312440497   -2.266262372162
C     -0.188178252561    2.981072067169   -0.592009754939
H      0.770848754184    2.586754864220   -0.248730868916
C     -0.598375735822    4.256753075940    0.094747881176
O     -0.141675426640    4.596094878730    1.159854372198
O     -1.491349407354    4.947639330999   -0.616357710877
Pd    -1.593209268872    1.362905328423    0.100446952598
C     -3.858993953442    2.433365416525    1.430167824291
O     -2.969197656580    2.728908607165    0.509957243826
O     -4.709890351811    3.204780523454    1.808644975984
C     -3.759156206796    1.006155709707    2.041394661234
H     -4.778539181775    0.593876755032    1.968951689704
N     -2.825634635847    0.194205568713    1.252836335442
C     -2.870589756425   -1.106121405985    1.256688968692
O     -2.037522236176   -1.828015391075    0.556491757496
O     -0.306171284049   -0.175625299750   -0.366606631284
H     -1.336618458976   -1.248772448250    0.098666098177
C     -2.155829963489    6.044030489981    0.044761355746
H     -2.809609806508    5.615573750388    0.821200140760
H     -1.399195787574    6.672834036800    0.538333185136
C     -2.949296337707    6.806067544465   -0.994779295432
H     -3.697220217399    6.154559538576   -1.471923095689
H     -3.480576980767    7.643579371051   -0.516435405195
H     -2.291624771896    7.216120257611   -1.777351058482
C     -3.877447197958   -1.898533395493    2.042440490480
H     -3.845321477136   -1.616792621907    3.104991833548
H     -4.896223974328   -1.695640948337    1.675787112781
H     -3.661733792873   -2.967681722679    1.932398215477
C     -3.383262037851    1.108740865256    3.517011396350
C     -4.389809962138    1.370750675008    4.459112440216
C     -4.072985925197    1.520901292201    5.810785996432
C     -2.745462632295    1.413390589222    6.237355561375
C     -1.738343667751    1.160750517505    5.302408194118
C     -2.051141060604    1.011642456149    3.947256134912
H     -5.425468591977    1.473426065825    4.126398619641
H     -4.867337052184    1.723164970854    6.533870388429
H     -2.497295372328    1.529151617777    7.295488852172
H     -0.696963793149    1.083805437492    5.625002958153
H     -1.250200883120    0.826217981111    3.227177206422
N      1.051899458034    0.499310438310    1.345906871152
C      0.838926508318   -0.282923042503    0.307489148511
C      1.798023890324   -1.271830774631   -0.134048231570
C      3.011883777285   -1.389846843609    0.610855535523
C      3.202398510420   -0.523040275025    1.726599289083
C      2.216762819874    0.382870580576    2.036930290418
C      1.578638372483   -2.103598269368   -1.260534066665
C      2.528732127706   -3.034581914211   -1.636147343847
C      3.730065874917   -3.161385825802   -0.897774737392
C      3.968514302399   -2.357393706431    0.199745773094
H      0.650436016547   -1.992354894780   -1.823239563593
H      2.356459401619   -3.674310178876   -2.505185689429
H      4.474997387608   -3.901165508278   -1.202701321970
H      4.898378968641   -2.454202873482    0.766400094902
H      4.118691127694   -0.578166653113    2.318222909258
H      2.333434812968    1.069112908254    2.882279223156
