81

C      1.352783374050    2.783915386702   -2.071794311249
H      0.039642011691    1.872162910706    2.270696942828
C      0.500321107649    5.200092937449   -0.415281702181
H      0.576296005365    5.639193401725    0.585422982785
H      1.210704852069    5.519556079477   -1.181822339203
C     -0.616708777081    4.472212312952   -0.778738588709
H     -0.786572006784    4.191645614507   -1.821368821254
C     -1.836448856134    4.281101409140    0.085125968709
O     -2.584696988496    3.334897883966   -0.028274727838
O     -2.002306803143    5.292545430785    0.931144883119
Pd     0.972191836109    3.059480411457   -0.128482376314
C      0.288148478020    4.040667179776    2.889587485751
O      0.683240210104    3.143064872644    2.023669921456
O      0.526523360379    5.234752903921    2.824813373345
C     -0.532479162587    3.455796265832    4.080333521741
H     -0.888519164564    4.350682338775    4.614988313171
N     -1.727385754065    2.709852071140    3.698894967583
C     -1.759347537937    1.695216097688    2.924923819285
O     -0.696512928214    1.143368747677    2.288410157310
O     -0.030569157678   -0.010217099274   -0.004435438496
H     -0.411002906401    0.535354245084    0.742176256034
C      2.482972612268    3.375410989623   -2.649399896812
C      2.813310598776    3.171420672670   -4.000704974973
C      1.981653731182    2.352759331686   -4.798421761042
C      0.853684801135    1.767243535892   -4.208236359999
C      0.530840300423    1.973104854289   -2.861447578476
H      3.146227188515    4.003590054998   -2.046933833062
H      0.205173039136    1.129663287794   -4.817145674521
H     -0.354897313734    1.490912219101   -2.440227092610
C      4.043856918152    3.821365772942   -4.585120860279
H      4.751276040597    3.071676121423   -4.979224492692
H      3.791904965811    4.486083230717   -5.429245707202
H      4.577152122054    4.421348170833   -3.833435374656
C      2.299653923039    2.111521698403   -6.253938109528
H      2.325396025392    3.053052769172   -6.829180999821
H      3.288806959543    1.639575783054   -6.384095656736
H      1.552369916122    1.454681291651   -6.722608227400
C     -3.131557221463    5.262434087371    1.835933991756
H     -4.048984448230    5.121973513906    1.241968348523
H     -3.017303374027    4.394813977320    2.504543198171
C     -3.125071884424    6.567653749309    2.603071897944
H     -3.257015377765    7.429172000874    1.929856646115
H     -3.944937859875    6.572472753171    3.338081285977
H     -2.170998004298    6.687348881182    3.138323992215
C     -3.052693775543    0.997298452438    2.611194309622
H     -3.834114217195    1.309891933213    3.313811939444
H     -3.360413955530    1.263988952502    1.586285678708
H     -2.918972721621   -0.094894567946    2.652895981067
C      0.400645329443    2.718952999783    5.052663538876
C      0.072765047059    1.478468122956    5.613251944785
C      0.931744052017    0.858308353393    6.527918653676
C      2.129059240970    1.471596514239    6.900831391798
C      2.460207304866    2.716639935777    6.354629115184
C      1.603192870200    3.334598424851    5.442931089302
H     -0.867126750394    0.995856662200    5.342895175193
H      0.657182245752   -0.111171053214    6.952724956311
H      2.799725900708    0.986046614810    7.614592339216
H      3.392244195907    3.211173534281    6.641580101484
H      1.865598587997    4.310880495477    5.026460129300
N      1.951906998745    1.137945919591    0.183221605438
C      1.294803819350    0.016623299078   -0.020637929790
C      1.966971754667   -1.233749123641   -0.319398343389
C      3.386111099246   -1.261926924114   -0.338729044809
C      4.102485440493   -0.040548368052   -0.002125506712
C      3.343692229619    1.132338135090    0.264318889300
C      1.218788531989   -2.401182684194   -0.591960789914
C      1.866807695443   -3.584022962303   -0.904642529068
C      3.274424387411   -3.619780091503   -0.940872027441
C      4.019541577602   -2.484258314219   -0.661245031660
C      5.511517564353    0.038195598307    0.084398756782
C      6.148811917479    1.220197358493    0.426986189308
C      5.389282130362    2.371493486196    0.703481716012
C      4.007015161712    2.326380400042    0.622809901175
H      0.130800495619   -2.344336696590   -0.555503583063
H      1.290224306009   -4.486263864806   -1.120883040608
H      3.787173928019   -4.552802251570   -1.188180177297
H      5.107886434205   -2.542809145452   -0.692312204344
H      6.113178259455   -0.849591953920   -0.114519621564
H      7.238835909026    1.253388387061    0.490833835987
H      5.885456409025    3.301314540573    0.991237094934
H      3.406118926053    3.207703789282    0.858634048023
