56

C      1.047803741955    2.719466079589    2.969397302289
H      0.155725188623    3.347716378002    2.944293740468
Pd     1.154761892495    3.121140648499    0.533868467706
C      0.332527921863    5.757472517286    0.025896780223
O      0.594207577893    4.952851021576    1.037198974850
O      0.379898858251    6.965480873890    0.119267799824
C     -0.135030118100    5.053232623763   -1.260577290349
H      0.376193457390    5.550098330998   -2.104370112565
N      0.229096950727    3.628306407018   -1.194964106799
C     -0.127113966342    2.734868822469   -2.122804177382
O     -0.171180992249    1.499134447086   -1.918994758896
O      0.123054572500    0.177957368329    0.159339578330
H     -0.146132030308    0.834566876233   -0.611220009548
C      2.322230714784    3.308867434522    2.830410131948
C      3.502935967214    2.562993358195    3.060155526691
C      3.394997440674    1.203703841918    3.404259390307
C      2.112477001143    0.622264281714    3.517474468010
C      0.953212616900    1.357532996802    3.315981174278
H      2.388541136085    4.386323189580    2.663994701257
H      2.038425059813   -0.434268336260    3.789443343460
H     -0.026266302571    0.890051011697    3.433765325791
C      4.848733660818    3.239359376523    2.984270377317
H      5.365115591402    3.213172942601    3.959185976881
H      5.519348796004    2.741407521679    2.264295651471
H      4.752218773018    4.293052543957    2.686215159685
C      4.625884119321    0.375915745727    3.674888995538
H      5.285898590568    0.334912428249    2.792187316333
H      5.225367888213    0.799158188380    4.498527414239
H      4.363512026945   -0.656640008348    3.945782504617
C     -0.449412724406    3.178494480267   -3.544010098712
H     -1.501256869139    2.950758494561   -3.773677251723
H     -0.250287718177    4.236469428614   -3.752824035401
H      0.162853897367    2.553885018957   -4.211950773802
C     -1.675793775360    5.291669897500   -1.416173579827
H     -2.006966159871    4.623486317690   -2.226200668074
C     -2.467488623688    4.905282427321   -0.159577857918
H     -3.549314872791    4.947569842939   -0.363834906913
H     -2.225839662152    3.884287516956    0.173369880688
H     -2.259625925682    5.593719632508    0.675085778024
C     -1.981548523474    6.726992893467   -1.862118613403
H     -1.639708017338    7.456077933008   -1.114065494979
H     -1.479416632763    6.967589263229   -2.814127108057
H     -3.065545913032    6.856609791332   -2.012997360682
N      2.101156985893    1.315352877333   -0.013815139485
C      1.433226534194    0.142920630129    0.113718950744
C      2.129882659466   -1.083483447439    0.161801333453
C      3.499208783290   -1.081243050355   -0.035781268038
C      4.159140378107    0.130041790919   -0.292685280659
C      3.435275136268    1.320316326332   -0.278781478068
H      1.551945722605   -1.997610566066    0.300350707388
H      4.058234479612   -2.020682031789   -0.028798222474
H      5.228084966382    0.153121661048   -0.508859700435
C      4.088783659726    2.636873062807   -0.598177777584
H      3.623970761103    3.081892776862   -1.492520063624
H      3.966056576482    3.363821122049    0.218351404434
H      5.162144336831    2.504405614876   -0.791684114622
