80

C      1.631316784076    2.987863393807    2.069915637498
H      0.637293696888    4.460359967237   -2.871948080506
C      0.345173841479    5.179432380397    0.252709251748
H      0.180148357492    5.461966588898   -0.789451969045
H      1.139376932978    5.694870448266    0.798857855220
C     -0.589054540675    4.439411127933    0.948243252446
H     -0.518247174912    4.345712549701    2.033498559281
C     -1.923775738855    3.974369771252    0.437299410744
O     -2.661381982263    3.298951695834    1.117144552409
O     -2.202295857182    4.407736885387   -0.795759027420
Pd     1.002937518900    3.065136540952    0.171099100529
C     -0.441172011543    2.403485320899   -2.425375139464
O      0.484986071071    3.149951393120   -1.946373506467
O     -0.983823522028    1.475468377681   -1.794961075049
C     -0.885435656298    2.664921035181   -3.878010861815
H     -1.713098550301    1.954896400457   -4.033889060356
N     -1.426080071509    3.994766032942   -4.141815725808
C     -0.811948609440    5.098308846802   -3.945818958607
O      0.390755589264    5.289701482625   -3.368368225432
O      0.025355830718    0.121030283805    0.050429807816
H     -0.391594162960    0.801200716253   -0.626767820500
C      1.046162624045    2.082278106084    2.964361087755
C      1.474538154207    1.985047928768    4.298349627696
C      2.522908429328    2.820626504806    4.751594997074
C      3.099411768133    3.720801927570    3.847772120354
C      2.664989694199    3.814620110289    2.518676375509
H      0.234047973574    1.430653598266    2.628600633060
H      3.913185162519    4.369242908092    4.187278670696
H      3.155105610690    4.527881212221    1.850464240503
C      0.818442714045    0.997356822604    5.232069888541
H      1.546492130313    0.270995963261    5.632431376729
H      0.367445786088    1.500543312441    6.104521499472
H      0.024136877499    0.432273737670    4.723640973663
C      3.010851123748    2.745074887423    6.177724931703
H      2.204538032528    2.965157044709    6.898417869405
H      3.386524808177    1.738128631478    6.428595965491
H      3.826151925931    3.460460362776    6.360041662169
C     -3.461784342876    3.990712571155   -1.382545426661
H     -3.276582782842    4.032334921856   -2.464463681284
H     -3.651660157221    2.950306224351   -1.084185231776
C     -4.598856279930    4.906365319059   -0.964883009007
H     -4.382406251064    5.953221073243   -1.230032718391
H     -5.521593220589    4.606866467932   -1.487403231307
H     -4.784671936611    4.843365169705    0.117629179762
C     -1.431391339571    6.400343670543   -4.379524131015
H     -0.716681474144    6.962999165982   -5.001405832902
H     -2.353974137760    6.216878584611   -4.942107459859
H     -1.650578810838    7.025089788308   -3.497830509142
C      0.241031496627    2.270672516217   -4.882516294156
H      1.060361219725    3.000981554707   -4.760454127755
C      0.799891351244    0.871815746374   -4.592091526491
H      1.552660501005    0.594660661700   -5.347421566319
H      1.286396212958    0.811565369381   -3.606429055053
H      0.001777779383    0.111051701655   -4.619948770228
C     -0.273040408104    2.361211974369   -6.324654454257
H     -1.071325500334    1.620021899632   -6.501192720498
H     -0.686472810559    3.354868741025   -6.546140693659
H      0.539393718511    2.155139292971   -7.040312518948
N      2.033892988338    1.205632420408   -0.121488837186
C      1.333536383691    0.095270958630    0.031530823490
C      1.980383553626   -1.193909582135    0.226613175354
C      3.396672566909   -1.269057352315    0.197924635147
C      4.146231565429   -0.049477112902   -0.072404451652
C      3.421196068012    1.163954049844   -0.231346975950
C      1.200636765077   -2.350856106758    0.444449702795
C      1.815702333902   -3.574283046641    0.653298740249
C      3.221162403463   -3.658724006623    0.639956426231
C      3.996604072701   -2.530936902337    0.414599367445
C      5.553841949497   -0.011250914435   -0.194514490445
C      6.225088698305    1.170630580462   -0.467263354508
C      5.499868003383    2.364035452579   -0.632004981551
C      4.119346068862    2.357856415296   -0.514412250193
H      0.114734609950   -2.252862988887    0.447193844234
H      1.214439424935   -4.469818274087    0.826113676827
H      3.708686665428   -4.622854217272    0.805781744209
H      5.082759758790   -2.627184333456    0.406749167411
H      6.128226705804   -0.931314066718   -0.078635755030
H      7.313546001458    1.171784320254   -0.559396223292
H      6.021401435751    3.297337061780   -0.857132920272
H      3.545104201923    3.277105737905   -0.650544021233
