73

C      2.431943809748    3.812446648720    1.406460322511
H      0.435444226802    1.892555414105   -2.581509741779
C      0.212504993525    5.302360004963    0.046666280455
H      1.018247687097    6.004482361635    0.269166515110
H     -0.222388692224    5.299065995890   -0.955604568759
C     -0.472139589142    4.673931825395    1.068338773909
H     -1.404091414563    4.154561553674    0.827890023575
C     -0.251184494536    4.908907787082    2.533596909199
O     -0.704894803296    4.188007304667    3.391214938311
O      0.459520700282    6.016702870169    2.776123802913
Pd     0.972716904201    3.226359059422    0.182764905374
C     -1.562514727274    2.859753966413   -1.785461150134
O     -0.443460525762    2.358672461091   -1.263341227930
O     -2.140255123759    3.820995423308   -1.316794558634
C     -2.087674227283    2.152825132586   -3.057600484208
H     -3.059447048631    2.642966178739   -3.230369636450
N     -1.301007195302    2.383752675844   -4.264690060755
C     -0.049020023378    2.188944783796   -4.409344872091
O      0.854735025872    1.818578782877   -3.474528264542
O      0.110455424209    0.127049561938   -0.178395765086
H     -0.261959507504    0.996146885091   -0.546404310985
C      2.535426882915    3.263941160681    2.689924357510
C      3.630050019238    3.551369323540    3.523885556095
C      4.648070433493    4.416798356413    3.056838388500
C      4.526242591278    4.963816766496    1.772997962483
C      3.431462930878    4.675794452352    0.947222513852
H      1.754237065578    2.598392340576    3.068027590062
H      5.308778566466    5.632547773702    1.402181534214
H      3.383134295260    5.124640611479   -0.048852829527
C      3.716304931090    2.932150814397    4.897608508831
H      4.620117715707    2.308294927906    5.004749271777
H      3.774421032653    3.700486542823    5.687378002929
H      2.842682124844    2.299043215055    5.108950931198
C      5.844883223838    4.738703840839    3.917488769518
H      5.549519164040    5.206837978264    4.872002381833
H      6.414006234555    3.830056518621    4.178051379115
H      6.532550452909    5.426830304060    3.405134843969
C      0.737182570342    6.324218550545    4.155455526561
H     -0.219129235221    6.409108342684    4.696252814720
H      1.289340690434    5.479626531993    4.597046192534
C      1.535554783790    7.609676527082    4.197153809403
H      0.972420753095    8.439962878993    3.743794470817
H      1.760103997710    7.876290187718    5.241665689592
H      2.487400056745    7.497848439539    3.655922472352
C      0.597380404790    2.359494775881   -5.758280289602
H     -0.153275887716    2.646007961727   -6.503437667566
H      1.387854914122    3.125878941341   -5.706697233618
H      1.084296599655    1.417351287638   -6.059235430311
C     -2.376560324658    0.642167372598   -2.811298019133
H     -1.405625005809    0.140630374772   -2.643219117919
C     -3.248104785285    0.447668523194   -1.562418654494
H     -3.453801789286   -0.617762747688   -1.381303069418
H     -2.775005552736    0.841063295985   -0.649299755158
H     -4.216995825245    0.961902076931   -1.678818041554
C     -3.024050499445    0.007894079517   -4.058930285602
H     -4.043097151968    0.421228920754   -4.174594987467
H     -2.464732301969    0.337369362563   -4.947196213671
C     -3.085085981707   -1.521121413824   -4.040219241946
H     -3.700938498908   -1.910570263427   -3.213652522150
H     -3.517653690032   -1.907864768492   -4.976937405813
H     -2.077813798380   -1.959606883843   -3.936920011056
N      2.077730208158    1.343942281919   -0.110372794304
C      1.418438613968    0.156615114714   -0.134854239042
C      2.119020864979   -1.075298084312   -0.102789533395
C      3.496662024248   -1.076158520218   -0.114849381388
C      4.152824113550    0.163878268552   -0.153642570055
C      3.423309079863    1.340953173886   -0.137193493639
H      1.533070038878   -1.994535988564   -0.096715401050
H      4.081394856869   -1.996409268979   -0.108310160121
H      3.938522506185    2.300475617065   -0.123995735196
N      5.618106989671    0.225088792185   -0.187607431159
O      6.137971545249    1.327136830038   -0.253458740895
O      6.218749927954   -0.836945843947   -0.147213449944
