63

C      0.300342087140    3.363272825539   -0.222730213333
H     -0.436192084390    4.043892500198   -0.655543583989
H      0.940947079914    2.762333001005   -0.873703233575
C      0.537227810621    3.396339627199    1.133709835742
H      1.370450122214    2.841179298728    1.573229521040
C     -0.125902373522    4.347522376973    2.093460092297
O     -0.062053664815    4.205739280436    3.292748728810
O     -0.768505459549    5.330602373159    1.464573572892
Pd    -0.929483770517    1.750600372681    0.735849325366
C     -3.652005573660    2.565471757329    0.802204449448
O     -2.434874756762    3.024655638791    0.633007544979
O     -4.640558907058    3.259391102882    0.724488021116
C     -3.772717851562    1.056396881887    1.146709276169
H     -4.495396711470    0.652822108448    0.418220519843
N     -2.471617849659    0.392902496025    0.989148997948
C     -2.380961745748   -0.908211878027    0.951541290726
O     -1.231541687819   -1.516334839586    0.886050790562
O      0.516821264178    0.309137341722    0.971291979845
H     -0.456285903318   -0.848194882678    0.922429319264
C     -1.628784584169    6.194629095144    2.237509340493
H     -1.970884535345    5.643666494151    3.125520118180
H     -1.022439997144    7.047353194381    2.587224122199
C     -2.779200797368    6.636416766748    1.355645686263
H     -3.379236224560    5.771370415734    1.035232772433
H     -3.428400959230    7.327748506891    1.916315854728
H     -2.411276137976    7.163144112758    0.461164921332
C     -3.570581699491   -1.826891593276    0.978582710114
H     -4.123288267429   -1.710468667434    1.922536852484
H     -4.265889555886   -1.587216188351    0.159498445201
H     -3.226566712829   -2.862676618478    0.875863610061
C     -4.372693460501    0.923441519360    2.544124555897
C     -5.766132588301    0.976240472014    2.698637472643
C     -6.341324812215    0.917169183225    3.969922088715
C     -5.530943263448    0.807897950533    5.104390389239
C     -4.141875838920    0.763391922591    4.958490092332
C     -3.564475253440    0.824027315749    3.686339646624
H     -6.402485505806    1.078638037100    1.816439643899
H     -7.428592385399    0.957119376541    4.074267143659
H     -5.981188166154    0.759834473814    6.099081151463
H     -3.499275705665    0.686697652618    5.839189346288
H     -2.477188677136    0.796863523975    3.585984655613
N      1.874434426983    0.728081252118   -0.829478144178
C      1.650293943029    0.119969210802    0.298866430554
C      2.599087256035   -0.823174788819    0.894490028533
C      3.805004678363   -1.099589623144    0.194083287425
C      4.038076007671   -0.422571285743   -1.073902460427
C      3.037731599816    0.486228903417   -1.528322640528
C      2.342631852597   -1.439693843163    2.139249608205
C      3.253898718993   -2.329589861562    2.684719068343
C      4.445665470298   -2.617959007038    1.992781708678
C      4.715895904254   -2.014203615706    0.774463536636
C      5.193015680285   -0.610356931919   -1.867349627706
C      5.362537541239    0.069522969601   -3.064068901724
C      4.372403120548    0.966093543036   -3.510186222456
C      3.230152003613    1.168797742691   -2.753707437861
H      1.416975637451   -1.197869423669    2.662155700098
H      3.051026057179   -2.802973057970    3.648337698739
H      5.166594971891   -3.320009966598    2.419668000637
H      5.648930009922   -2.250171318783    0.261169537974
H      5.970344698104   -1.301785643951   -1.537515389470
H      6.264076827878   -0.092334818296   -3.659826505924
H      4.504326116029    1.500156138517   -4.454703522151
H      2.446293477653    1.852587014332   -3.085999401223
