65

C      2.409826466304    3.551908866398    1.272086140083
H      0.249725958643    1.814908537960   -2.708985495290
C      0.066169147865    4.822069483444   -0.203738415435
H      0.841868535852    5.586361773069   -0.121091445066
H     -0.397812856210    4.681452178947   -1.184784891029
C     -0.524846351894    4.310905302812    0.936223306056
H     -1.432541730512    3.700296832874    0.859097223317
C     -0.226811799551    4.776171362826    2.331419186825
O     -0.613185194837    4.194711217325    3.317504497518
O      0.469318913481    5.921168158301    2.356881042741
Pd     0.933063141579    2.814953351232    0.159476015756
C     -1.778999592775    2.310330767344   -1.431351940409
O     -0.537448833341    1.881538882519   -1.210374615575
O     -2.580100516596    2.552636365795   -0.551876693507
C     -2.104342969900    2.486181709180   -2.920977472057
H     -3.162485834552    2.772511317809   -2.987861828267
N     -1.300106647685    3.491670108527   -3.603121315983
C     -0.077820856292    3.261880784472   -3.900668266432
O      0.651657091013    2.187044863620   -3.537086896370
O      0.039402651464   -0.230419935120    0.114387288441
H     -0.329164437804    0.609082174648   -0.315548479165
C      2.569103296775    3.135529189214    2.598564799263
C      3.661377934055    3.558894281311    3.375138677171
C      4.621670310482    4.427701205880    2.804153511286
C      4.446715413248    4.840322913567    1.476575230562
C      3.354029725067    4.416146957821    0.708799761949
H      1.833858594741    2.467280951419    3.055086907981
H      5.183399327311    5.512957462477    1.026229185856
H      3.261094253303    4.762491760902   -0.324298931100
C      3.805374070763    3.081029119952    4.799655637711
H      4.742412827978    2.516630924671    4.945518498585
H      3.835976259241    3.923809630890    5.511268541227
H      2.970292790591    2.427601881504    5.089726224581
C      5.811957120192    4.898180197522    3.603993607785
H      5.505540846528    5.447752394083    4.510549720408
H      6.432584716903    4.053050141635    3.948098562425
H      6.454825374459    5.564750006865    3.010749134437
C      0.817228873871    6.440497239100    3.653069093513
H     -0.107221655643    6.583936155927    4.235423692822
H      1.422650043978    5.686616944116    4.180859616939
C      1.573450445049    7.736547637761    3.451339851805
H      0.957231518974    8.474566345005    2.914839949050
H      1.850009532514    8.164180460645    4.427727070975
H      2.495096827415    7.566782430463    2.874116358846
C      0.701814574532    4.225145134921   -4.752000673940
H      0.049107003579    5.032717989037   -5.103303936981
H      1.546998382919    4.646376811158   -4.182801584661
H      1.132728302298    3.690444855337   -5.613999137177
H     -1.987085722485    1.489343007609   -3.394501894695
N      2.020765391592    0.944132331940    0.023536031396
C      1.353007348859   -0.209848307109    0.115267897354
C      2.036751197556   -1.474673899774    0.228101280094
C      3.460383373538   -1.483417114766    0.185669253871
C      4.127959309261   -0.232359811138    0.028654241357
C      3.394428477111    0.918397835600   -0.037987144157
C      1.320549247242   -2.689249276188    0.365883272985
C      2.005583979572   -3.885252380308    0.470374584431
C      3.419963415713   -3.900813747733    0.433108599989
C      4.135513808014   -2.726446819193    0.291584685567
H      0.230721029027   -2.657349178232    0.388517040157
H      1.455756842850   -4.822944217826    0.579146770337
H      3.950246751843   -4.853181524172    0.514641288164
H      5.227776544370   -2.741278677320    0.259513009255
H      5.216842978696   -0.188033244119   -0.028783032578
H      3.877347151961    1.889731325277   -0.132780050467
