73

C      1.619351829788    3.029723460244    2.138352656376
H      0.725902702437    4.466745442832   -2.733499005440
C      0.316373207426    5.156385237871    0.306915343111
H      0.189715912723    5.451056250486   -0.737701658267
H      1.089762089355    5.666384557732    0.887200569095
C     -0.637792942957    4.402986449908    0.959196604655
H     -0.607351121768    4.296584684017    2.045406661359
C     -1.951219345031    3.940164450987    0.391867570501
O     -2.707356059137    3.245969535574    1.030295568224
O     -2.187358374442    4.401990320891   -0.839552544296
Pd     0.995193842028    3.044804802718    0.240600750930
C     -0.401748469863    2.399402247597   -2.410839703908
O      0.535801930067    3.105344638312   -1.901719848226
O     -0.937112640835    1.439473842808   -1.812812170211
C     -0.910449523380    2.712568354400   -3.833001579613
H     -1.858682869472    2.154065007668   -3.872593093263
N     -1.251667947830    4.086841801341   -4.157062069570
C     -0.621216784200    5.165098745713   -3.896711349585
O      0.511728434462    5.327661546779   -3.185443387282
O      0.191367664273   -0.023626349616   -0.194182237319
H     -0.279333056596    0.723232298955   -0.798386560514
C      1.000302066907    2.211963948888    3.091563441631
C      1.468088811961    2.146189941864    4.414531766655
C      2.589932964571    2.923113826472    4.791883250178
C      3.197453858314    3.736484395104    3.828076766688
C      2.724025968413    3.800582200189    2.510010600849
H      0.131362501328    1.607379803135    2.814406618563
H      4.065899651653    4.339722970564    4.109514523912
H      3.235722075722    4.449639320763    1.792941979488
C      0.776859402586    1.254606751578    5.416613749075
H      1.465429841144    0.497350888482    5.828886133674
H      0.395837747650    1.830944856750    6.276877959277
H     -0.073897565592    0.725466590361    4.963986159608
C      3.121699608819    2.878000114097    6.203315015701
H      2.359199826132    3.190672518609    6.937098555906
H      3.431638143426    1.858630309703    6.490333102937
H      3.992726065608    3.538248248356    6.323985579100
C     -3.433616076205    4.015552866859   -1.474186411153
H     -3.222587893384    4.110858901529   -2.547873144217
H     -3.631123885405    2.962247186461   -1.230091651424
C     -4.580568960206    4.912524597429   -1.043502167024
H     -4.356604258571    5.969979144878   -1.254219259713
H     -5.489185436239    4.638816956215   -1.603361038326
H     -4.794671050315    4.798881784423    0.029411399787
C     -1.138089653251    6.485222974478   -4.407352736217
H     -0.343202450211    7.007923813635   -4.963122264764
H     -2.009128527726    6.331099121135   -5.054265691117
H     -1.414383070209    7.133085436419   -3.559081319793
C     -0.010528068788    2.033645477163   -4.943606806864
C      0.128424733450    0.528411192690   -4.645203979974
H      0.663658748245    0.031941817757   -5.470635776006
H      0.693994865792    0.334029269506   -3.721027820712
H     -0.854946195228    0.044223556546   -4.538457424777
C     -0.727567012076    2.202514179325   -6.297055847725
H     -1.726541895186    1.737426346464   -6.277236842599
H     -0.858164349695    3.263023257854   -6.551947072813
H     -0.144755584957    1.718476728759   -7.097704232597
C      1.390198301800    2.665950302493   -5.025648458695
H      1.343443443353    3.740079368147   -5.257705048785
H      1.949558723443    2.545061731403   -4.085435786776
H      1.972739310776    2.180319009532   -5.825552789528
N      2.120323610549    1.236963947925    0.002696260048
C      1.478472183128    0.036629730282   -0.067938424912
C      2.222890062011   -1.173395582698    0.027943570567
C      3.594618773936   -1.136506357370    0.136969804930
C      4.221988205471    0.121043332300    0.156245146538
C      3.459467257770    1.275703595688    0.102753996746
H      1.666216840113   -2.110010891137   -0.009973823783
H      4.200934698815   -2.040722862944    0.198221067811
H      3.945439496698    2.249355704399    0.163282387977
N      5.678741784396    0.225501408385    0.259826553265
O      6.168816597325    1.344370567880    0.252927420375
O      6.307354395985   -0.817701557599    0.345396458380
