59

C      2.780165975971    3.968310245687    0.804471194103
H      1.490910775620    5.186367923825    1.747011381754
Pd     1.141107993814    3.126476499526    0.014383165444
C     -1.625488451519    3.184143317252   -0.944777493877
O     -0.653589312453    2.325765691459   -0.765916150922
O     -2.794943172869    2.912811259555   -1.111695340332
C     -1.126934207487    4.653261761554   -0.977607089862
H     -1.997803166148    5.286299352507   -0.756284843821
N     -0.082584465799    4.806595878063    0.051398261063
C     -0.158963042308    5.715793950359    0.967287948542
O      0.763853313336    5.833807171517    1.905904260277
O      0.083250213791    0.121266436504    0.141958062908
H     -0.361586773954    0.979023364923   -0.195531022210
C      3.253065602916    3.596032054063    2.078307709578
C      4.417955824901    4.142954509106    2.644264306162
C      5.156121623328    5.100137268584    1.910724456509
C      4.689132047538    5.474829103623    0.642840344432
C      3.521665462913    4.931320133757    0.096013666354
H      2.704489286250    2.846294671506    2.657504564961
H      5.252024117575    6.218092033701    0.069189317004
H      3.193437185427    5.264565767590   -0.892672606014
C      4.872936540586    3.705706840787    4.015168423223
H      5.882329947809    3.260528513783    3.986080384841
H      4.927499670819    4.555655131464    4.716922300615
H      4.189702646698    2.958984579969    4.445023904808
C      6.414552039703    5.709660800236    2.477723144374
H      6.220471139204    6.240637496867    3.425567711654
H      7.175866762272    4.942560206617    2.701143861605
H      6.861404467634    6.429872734828    1.776878579140
C     -1.263437801037    6.730902076301    1.110659621824
H     -1.332506778568    7.368061808167    0.217593528653
H     -2.235859267136    6.234147158362    1.246273969529
H     -1.056712704047    7.359659586115    1.984723025436
C     -0.594424174677    5.025188491313   -2.391134063243
H      0.249601326229    4.342588453072   -2.597449594240
C     -1.667812551647    4.806889865064   -3.465477430928
H     -1.261984238863    5.047185965112   -4.460988270134
H     -2.035899346483    3.771850663939   -3.485142417882
H     -2.539313905387    5.460972981400   -3.292742384755
C     -0.061997297758    6.462470842996   -2.441691395575
H     -0.870065089595    7.193724712125   -2.265949940710
H      0.731793947744    6.639122720173   -1.700004544808
H      0.360977214109    6.679774126419   -3.435401586451
N      2.095201626017    1.245496148464   -0.108768305452
C      1.386465835915    0.115003159057    0.023474201859
C      2.034380281471   -1.178166633775    0.057578573503
C      3.446757137968   -1.245184682211   -0.105389978840
C      4.148066341595   -0.019147811771   -0.302262215801
C      3.457029135708    1.159298018632   -0.292676647005
C      1.284246369959   -2.366206025337    0.237701226120
C      1.924825136243   -3.591187325007    0.266728122640
C      3.328862589734   -3.663606634606    0.110002446657
C      4.076965312616   -2.515793851907   -0.074717439855
H      0.202462597209   -2.290187954797    0.351369307079
H      1.346714851147   -4.507504856548    0.407476952513
H      3.824543637549   -4.637694184652    0.132619115554
H      5.161297152585   -2.572713714448   -0.199574948113
H      5.228833128208   -0.014895893746   -0.454091126456
H      3.968468660508    2.110816139774   -0.424947997446
