60

C      2.259556804222    3.737757392890    2.303913635279
H      2.929546865448    2.892343001612    2.481872370226
H      1.433118669852    3.945908920813    2.987551721026
C      2.610057979524    4.708991044798    1.393444086843
H      2.046440555778    5.642718802181    1.381852186946
C      3.959594224915    4.731240152291    0.750896747077
O      4.868283320362    3.977153646699    1.006525766189
O      4.053757037497    5.750989411712   -0.121999300979
Pd     1.054928955155    3.305636934659    0.480302956433
C     -1.484513752396    3.050597888322   -0.806417443478
O     -0.447896233327    2.303205695668   -0.421744185885
O     -2.479352500739    2.587289206488   -1.306621757330
C     -1.248981160848    4.558432225688   -0.610103764631
H     -2.232337281056    5.002194751926   -0.408124062524
N     -0.339348753027    4.766078362425    0.514954051177
C     -0.627737010384    5.566925233453    1.577494579914
O      0.086660230972    5.635015384920    2.579597592131
O      0.415142745337    0.450902628672    1.276697174972
H     -0.129913709249    1.090121661591    0.737105386449
C      5.342496286150    5.980549005350   -0.722368857175
H      6.089607390621    6.087144365341    0.080573150011
H      5.626045803778    5.090390526892   -1.306199510655
C      5.248429073811    7.222747395798   -1.582885570301
H      4.969549247103    8.099861286843   -0.979046622621
H      6.222501008042    7.425203832201   -2.054649259389
H      4.498233110440    7.100230123494   -2.379274706530
C     -1.889435873911    6.430740108377    1.515569476127
H     -1.872731768354    7.084626171362    2.395789452269
H     -1.936649814363    7.043141196065    0.603702141376
H     -2.798335400385    5.808628712577    1.556367333496
C     -0.725178072636    5.149973165012   -1.952581112021
H      0.245694174322    4.678982784520   -2.180550051400
H     -1.429597352226    4.836700425291   -2.739107612590
C     -0.580685852857    6.653301517557   -1.955948706890
C     -1.646593393015    7.471990804165   -2.365812897544
C      0.605613712351    7.270815717843   -1.525348345353
C     -1.535957204977    8.865024202771   -2.341567739517
H     -2.575248444217    7.009270546365   -2.713604816246
C      0.718573971786    8.664297104491   -1.498552405671
H      1.451371936866    6.655833090527   -1.207699947194
C     -0.351559732317    9.466711296195   -1.904904362577
H     -2.376448271294    9.482699975396   -2.669096581500
H      1.649939154692    9.125090258426   -1.158691225337
H     -0.262059592587   10.555918021963   -1.885663360363
N      2.161656425118    1.482073703806    0.184717526450
C      1.647920434524    0.416437470931    0.799721217486
C      2.396480937804   -0.785900660804    0.977280964384
C      3.626896557713   -0.892386362213    0.389202420240
C      4.120326732451    0.162760697947   -0.432662838782
C      3.335067288073    1.352882459924   -0.531631326911
C      5.319502206210    0.054579229063   -1.181325315376
C      5.710344441906    1.067081621301   -2.034913817055
C      4.907870849501    2.222779597130   -2.162485416766
C      3.750932003782    2.372092302496   -1.419928507324
H      1.939683567859   -1.591203285161    1.553153260912
H      4.219562988168   -1.804084099748    0.502267701478
H      5.916377613547   -0.856300794992   -1.086815207493
H      6.626555074118    0.971495227077   -2.621586617746
H      5.201301936426    3.007597247608   -2.864007107967
H      3.129156298775    3.262085634504   -1.529477588654
