65

C      2.536443163447    3.889195154347   -0.989352263219
H     -1.899426008339   -0.684488081118    0.105112756950
C     -0.493353182976    4.416129495519   -1.031333612878
H     -0.116947499862    4.850024483312   -1.960332031393
H     -1.343364787439    3.732567492863   -1.091485001958
C     -0.107542401119    4.945631456149    0.185658820268
H     -0.596584487370    4.648087630356    1.120782709822
C      0.766651410014    6.156161318389    0.323419003765
O      1.221638979274    6.530945713332    1.378330631975
O      0.949742266770    6.796377016836   -0.841331006661
Pd     0.957913618552    3.006432926005   -0.147803277573
C     -1.379068667552    2.093952409218    1.716023335288
O     -0.784128900585    1.904771006070    0.559973672657
O     -1.111915668896    3.004665673617    2.480534457112
C     -2.477455777732    1.060305885539    2.070730618869
H     -2.949582848273    1.488465469163    2.967366545325
N     -3.512966071025    1.030154226585    1.054274843950
C     -3.581208965390    0.288273784537    0.027522545417
O     -2.714174506573   -0.664049322854   -0.414769402715
O      0.252320292003   -0.139918136367   -0.376753494266
H     -0.259299349031    0.693184245780   -0.047206475641
C      3.459634733272    4.611791780189   -0.221490070817
C      4.622504085466    5.163445286064   -0.788640188238
C      4.865247536833    4.991873685542   -2.171548001910
C      3.930865394134    4.274172026248   -2.930587971594
C      2.777232316952    3.724922989122   -2.357304234738
H      3.280384059797    4.771143607337    0.846109180068
H      4.110815653323    4.134161267035   -4.001155927414
H      2.082502262676    3.164212952075   -2.988732633092
C      5.594721826238    5.929820888673    0.075838506880
H      6.594696200821    5.462611089658    0.076519550139
H      5.736658769731    6.962573197687   -0.286315612742
H      5.247876280611    5.985430764461    1.117718478371
C      6.102987997880    5.565102736405   -2.817868499109
H      6.154478086304    6.661791390204   -2.705511770877
H      7.025231816762    5.162931092507   -2.364249945612
H      6.134067462479    5.338319774887   -3.893600060835
C      1.785096523558    7.966521011542   -0.816138776240
H      1.349508532541    8.696564233889   -0.114607378013
H      2.773705258650    7.684523022312   -0.420908643163
C      1.872197265551    8.510072121019   -2.226683913528
H      0.875406935289    8.779066497542   -2.609272376553
H      2.501677569670    9.413532183489   -2.241955662714
H      2.316507909167    7.766484221684   -2.905889495092
C     -4.755443068952    0.379387209953   -0.910928049602
H     -5.472769365313    1.119920267889   -0.540097988657
H     -4.411472504547    0.660466686187   -1.919802479184
H     -5.243089242139   -0.604886231311   -1.001569710923
C     -1.842424414583   -0.277481554212    2.510622501502
H     -1.125283486024   -0.692366245328    1.784737509691
H     -1.286251453558   -0.123541590651    3.448725635765
H     -2.624407882890   -1.029295105665    2.699136424866
N      2.115404548353    1.170292369190    0.062073131304
C      1.543157488342   -0.041346707638   -0.130939064329
C      2.309234933252   -1.227602666965   -0.090907056189
C      3.667334304208   -1.184908625877    0.188844701060
C      4.236290860963    0.085354630523    0.428485121386
C      3.440043189491    1.210343326017    0.347686492828
H      1.785765114921   -2.167344166958   -0.273677755126
H      5.296514802386    0.194560316382    0.664436558675
H      3.864213648252    2.202336455004    0.499373944307
C      4.507156086333   -2.431909339126    0.246006467228
H      4.983358821253   -2.536865245015    1.234746522109
H      3.912126338018   -3.335179193078    0.051853400273
H      5.320065570062   -2.387558223637   -0.497555636987
