72

C      1.588098222432    3.284610352653    1.882372227098
H      2.255504405822    2.974032199763   -1.984891059211
C     -0.280421651218    4.966749114618    0.071103414354
H     -0.997412068078    4.939444827733   -0.750282236759
H     -0.688027710152    4.940941725918    1.084221904835
C      1.036202159812    5.307940431291   -0.135325729341
H      1.685399801182    5.550859373193    0.707059743423
C      1.644273873000    5.706570629493   -1.444315249561
O      2.830688293183    5.905530968587   -1.577815182661
O      0.747473928451    5.847021227257   -2.430815314408
Pd     0.904318621142    3.044034261181    0.012233461035
C     -2.225517534540    2.635629317048   -0.949275918168
O     -1.942003056070    2.093763430534    0.225245817789
O     -3.051456385320    3.509995184712   -1.074403222026
C     -1.428693818200    2.132612678862   -2.173111520902
H     -1.873626404739    2.685761746921   -3.014288901338
N     -0.008133328258    2.508881583346   -2.027853490550
C      0.749458458469    2.575034289794   -3.062601968005
O      2.045944003139    2.879749019507   -2.935718163793
O     -0.224343815490    0.240475078212    0.398295306861
H     -1.217451033168    1.369306504203    0.233416522604
C      0.704067769028    2.939169544100    2.910592898461
C      1.079762287876    3.042151944887    4.261153737214
C      2.377808103305    3.501048208432    4.585599754607
C      3.250268710603    3.838438524977    3.543192638227
C      2.870819193130    3.735519446585    2.198584386095
H     -0.297019878911    2.567510470937    2.673367324946
H      4.256736443799    4.194205320737    3.784518270973
H      3.585256934094    4.015059850635    1.419182819073
C      0.103651572131    2.658103131338    5.346088142203
H      0.497309734980    1.841131986971    5.974789207222
H     -0.103047039143    3.503198862080    6.025037845460
H     -0.854459373776    2.323879118541    4.923126164485
C      2.817489296925    3.622824984923    6.024177517181
H      2.172154957975    4.314750742020    6.592244726744
H      2.772101882916    2.652865008780    6.548557601382
H      3.850383938522    3.993639926197    6.096836007169
C      1.258020825828    6.273911662081   -3.710174998239
H      1.843707584349    7.195180247826   -3.564549785111
H      1.953622786925    5.503964551711   -4.081100771505
C      0.081858008411    6.489232649605   -4.638742290971
H     -0.599449819963    7.256677303316   -4.241122696224
H      0.441228199745    6.823739106163   -5.624321622281
H     -0.494198599864    5.561558289121   -4.778737556254
C      0.385504816479    2.347823632052   -4.502539695817
H      0.723607220091    1.346507071814   -4.813804329545
H     -0.692446648523    2.427084540279   -4.681156370827
H      0.919428697308    3.078206829640   -5.126353948827
C     -1.618779711523    0.611556621417   -2.419678571377
H     -1.014082633568    0.333322949337   -3.296531872618
H     -1.209283010144    0.064385344010   -1.559530402425
C     -3.060814298971    0.218860250722   -2.661725986431
C     -3.894512814744   -0.150481706798   -1.593443517247
C     -3.601792733658    0.227970133428   -3.957752660333
C     -5.229868833401   -0.497458494935   -1.815774225624
H     -3.490847727294   -0.164639074905   -0.578017172419
C     -4.936250683625   -0.118986989560   -4.183715241855
H     -2.966063842629    0.501311376905   -4.806050340223
C     -5.755622682513   -0.482257394271   -3.110808791405
H     -5.862260630259   -0.782464863222   -0.971006026589
H     -5.336421629976   -0.109487126854   -5.201074127075
H     -6.799700677628   -0.755289436854   -3.284268570288
N      1.854365607707    1.166599383937    0.089900299451
C      1.023164910051    0.082880735348    0.279495413479
C      1.636860473596   -1.217277002539    0.330599842481
C      3.000516098402   -1.360925255157    0.218343907093
C      3.818056336554   -0.220365542715    0.049718195384
C      3.196419442640    1.010728280471    0.003986983225
H      0.970760306965   -2.068959978239    0.477012787774
H      3.451370379571   -2.356461036909    0.266588349589
H      4.903001439124   -0.292608838232   -0.032265926990
H      3.783643094284    1.927126324905   -0.099780274976
