59

H     -0.428109411061    0.906108725909    1.071691438947
C      2.054258992724    3.262745444600   -2.338114762840
H      2.883273606453    2.552393147543   -2.383919263002
H      2.280341401820    4.330791915773   -2.307699468294
C      0.777122208056    2.828402664258   -2.610667006331
H     -0.037252976253    3.541433416533   -2.761404873873
C      0.496561152754    1.397978772094   -2.975596930916
O      1.345048788995    0.548610338857   -3.109718595657
O     -0.814096833407    1.208326114381   -3.138237127265
Pd     0.972078351926    3.007250225288   -0.388624381735
C     -0.040837260556    5.508755676064    0.463360337035
O      0.156960113981    4.819152305119   -0.639076128203
O     -0.448344148124    6.650889367918    0.479594734503
C      0.322548927071    4.771973265270    1.774146157548
H     -0.431256017923    5.074834575458    2.511786879868
N      0.250244483111    3.322502978938    1.521229271192
C     -0.430582562342    2.522818093236    2.296357864721
O     -0.696157008240    1.287029827016    2.017210087942
O     -0.009700735686    0.127524718699   -0.058250593278
C     -1.254248153474   -0.146072597056   -3.368291179355
H     -0.696525809410   -0.558424867820   -4.224039637822
H     -0.992365384268   -0.736395532397   -2.476489192498
C     -2.747137023091   -0.116526194180   -3.615392427768
H     -2.992276938722    0.494726423976   -4.497781689035
H     -3.115503531475   -1.139234602237   -3.791075793670
H     -3.281568391903    0.297687307835   -2.746966546671
C     -1.011649889304    2.965700710427    3.620289334964
H     -1.265511163919    2.070704421083    4.201061600439
H     -0.318059715285    3.595128475265    4.192973156744
H     -1.937310458221    3.540123766506    3.452655393704
C      1.722327106988    5.170928743972    2.290417510088
H      1.909294868768    4.592682816390    3.214357477262
H      2.470879583023    4.818954328454    1.557906884165
C      1.958364778407    6.666776198942    2.573665106398
H      1.848403745246    7.211588395116    1.620748649326
C      3.393048813481    6.873849721121    3.077008345700
H      4.135474797638    6.475281162395    2.365923516709
H      3.611053474612    7.943847748251    3.222692785400
H      3.554009151346    6.366974743929    4.044570463125
C      0.933557267448    7.255265370106    3.552094777820
H      1.192693196475    8.295565172004    3.806599104065
H     -0.073461272861    7.270194712361    3.110186742945
H      0.902526823357    6.683362175569    4.497014657514
N      1.969966332449    1.235267371213   -0.059031277083
C      1.257939891214    0.080578123760   -0.041175290914
C      1.985926900048   -1.183441792222    0.021510729141
C      3.407184619215   -1.179378204503    0.088635161531
C      4.078722241439    0.085300588616    0.103787257533
C      3.338698370759    1.230142390648    0.028310507903
C      1.280618219298   -2.406112657589    0.029725302114
C      1.967312358666   -3.607616137577    0.088818326252
C      3.378227372925   -3.611283656477    0.146642014343
C      4.086722015874   -2.421590724849    0.149268167298
H      0.190657289114   -2.371564621799   -0.008248094874
H      1.420540081873   -4.553673781875    0.093316361390
H      3.914999043580   -4.562619704321    0.192776110236
H      5.178793322407   -2.427836638261    0.198343170444
H      5.166356299156    0.137836365232    0.174149110937
H      3.816729351456    2.212865129643    0.036196192297
