53

C     -0.969556681780    2.953462207860   -1.775292389192
H     -1.898496785488    3.402374994714   -2.134745081398
H     -0.440723759495    2.262032186815   -2.435011589669
C     -0.365042863194    3.442867703094   -0.639886419682
H      0.634044981291    3.121368653660   -0.335218956806
C     -0.922444780037    4.578321112290    0.178170977920
O     -0.513311268513    4.842512246426    1.283813712780
O     -1.884041790603    5.240431833508   -0.466100527554
Pd    -1.547497987509    1.595084367952   -0.096783538591
C     -3.814968247467    2.301422645588    1.448305437743
O     -3.025986605030    2.763927994737    0.500531176943
O     -4.713639603668    2.959678859657    1.926077930110
C     -3.504056792276    0.876223406422    1.953901682212
H     -4.468647741698    0.346410281870    1.998038458711
N     -2.601708594523    0.212955632768    1.000215890937
C     -2.615029022274   -1.069899475259    0.792827364630
O     -1.791862168925   -1.644191007919   -0.046500914376
O     -0.183504823720    0.210494727368   -0.777955686067
H     -1.128270289607   -0.977401907504   -0.433288137047
C     -2.669228200456    6.176984812616    0.301194864971
H     -3.277580924289    5.593786586147    1.011051050725
H     -1.988865468939    6.822508777032    0.877195164250
C     -3.532619832670    6.963745346601   -0.661322134659
H     -4.200781665382    6.295493886877   -1.225765009920
H     -4.156426438420    7.678126748002   -0.101880515145
H     -2.917342277488    7.530142702134   -1.377957848808
C     -3.577856981811   -2.020381819929    1.454038969678
H     -3.540393617672   -1.933780290884    2.548778440388
H     -4.609450313019   -1.800021251666    1.136613199251
H     -3.325074848079   -3.045928428598    1.160370923807
C     -2.904609655817    0.906291705706    3.396077895438
H     -2.582498148035   -0.132307362407    3.596422938939
C     -1.665674202375    1.803562329112    3.513117184059
H     -1.242229549128    1.729359008217    4.527064258689
H     -0.874024386902    1.517426166396    2.803245426639
H     -1.910478586950    2.862759786165    3.334214358806
C     -3.972618698799    1.271170234690    4.434408446451
H     -4.359998188620    2.285511288539    4.263825391093
H     -4.829297113513    0.578050858252    4.395771191386
H     -3.545937259108    1.223237896757    5.448766462773
N      1.477866848638    1.007999471861    0.595149990154
C      1.049033599165    0.113453018912   -0.301527083077
C      1.882493745619   -0.942058095025   -0.759153890185
C      3.162789663810   -1.045803392515   -0.247398777205
C      3.604934133504   -0.106142484030    0.702640835427
C      2.718466487587    0.901202357280    1.080656606103
H      1.502583065648   -1.643604322755   -1.503452467683
H      3.827666160055   -1.845913718089   -0.582252733440
H      3.023574763283    1.659436515465    1.808356725774
C      4.979778391553   -0.215824897428    1.295095365304
F      5.085849113154   -1.275883653515    2.122947755851
F      5.917651726256   -0.384394702119    0.341249960220
F      5.315281040460    0.874922085497    2.003904628432
