59

C      2.603799210720    3.602730336739    1.814811240464
H      3.351119456497    2.807255893011    1.825934885693
H      1.941539840345    3.745770422900    2.672062898459
C      2.655564610439    4.610084540124    0.877519039341
H      2.041385223620    5.495752381298    1.032825279003
C      3.731084402368    4.749081426547   -0.154369840231
O      4.677653256438    4.005376141380   -0.299074280023
O      3.524913525462    5.839227406999   -0.900688598551
Pd     1.088839017887    3.106209488284    0.234972459906
C     -1.443589059073    3.160600533970   -1.140055869388
O     -0.427269470942    2.342702104007   -0.861449543903
O     -2.453022758841    2.784286722252   -1.685338641691
C     -1.167134286766    4.613514287179   -0.736915936410
H     -2.135683986818    5.033732325233   -0.438245975864
N     -0.242845206058    4.616499780109    0.398012816969
C     -0.457508336821    5.312483017813    1.545048503417
O      0.280481500745    5.238096085290    2.529683466488
O      0.089378600854    0.062158581653    0.046196000138
H     -0.295066052714    0.921458611697   -0.326694430109
C      4.489961537542    6.121250805859   -1.934274632746
H      5.483930734149    6.218924301720   -1.468808095227
H      4.535652767123    5.257311043070   -2.616831561572
C      4.062085251020    7.388563471242   -2.642517268411
H      4.017400537172    8.236305420183   -1.941919174994
H      4.784947463033    7.633726862683   -3.435890507988
H      3.070234151558    7.268397299123   -3.104361811767
C     -1.668284314521    6.249053488729    1.602092706628
H     -1.585608875958    6.825709218642    2.531251253093
H     -1.714010251582    6.939326002832    0.746356850919
H     -2.610214043974    5.677633580773    1.625087147960
C     -0.614404397252    5.437496381653   -1.925239198190
H     -0.461561792549    6.467396981414   -1.554018922999
H      0.391988812246    5.052583723697   -2.166456018186
C     -1.465656505646    5.479959754967   -3.207977647691
H     -1.534409208194    4.452038263002   -3.604920081810
C     -0.764378064721    6.343773895520   -4.264917393098
H      0.257754761500    5.983915817177   -4.469489235824
H     -1.318141135646    6.336230260933   -5.217518078251
H     -0.687828908132    7.394116654055   -3.933261100665
C     -2.898915178041    5.966246051376   -2.954822635791
H     -3.448750707421    6.070781871808   -3.904179543971
H     -3.458402504282    5.252838586406   -2.331988599009
H     -2.906583279026    6.952929495509   -2.458198737918
N      2.107400408742    1.198499943746   -0.046718434438
C      1.400792320044    0.060140726611    0.005014735481
C      2.045377409458   -1.232343030545    0.032707729604
C      3.464611501647   -1.293681703258   -0.052145571168
C      4.169096791041   -0.060772831297   -0.175331702845
C      3.477042184569    1.117921548521   -0.168776123371
C      1.287551140860   -2.425642410444    0.131365006751
C      1.929078493695   -3.649766244019    0.159095039482
C      3.340286189814   -3.716478652491    0.081214161432
C      4.095728086902   -2.563701366622   -0.025083887406
H      0.200830281953   -2.355175632654    0.185063361858
H      1.346423492568   -4.570511041465    0.237898692226
H      3.835554517187   -4.690719833674    0.102122353078
H      5.185380159407   -2.616024228290   -0.090003300325
H      5.256056289357   -0.047153861387   -0.272661650729
H      4.006138446034    2.066241407290   -0.256874081267
