47

C      2.768139027834    3.951244681097    0.848442740553
H      1.567041839367    5.299950616682    1.649598078954
Pd     1.123700967073    3.097812138918    0.078626442240
C     -1.615729715233    3.099354824195   -0.974470976786
O     -0.641875411167    2.268539861864   -0.703147293509
O     -2.737863274448    2.797899611862   -1.313606439345
C     -1.199141669059    4.589631192437   -0.896847805685
H     -2.097054915865    5.128114524386   -0.563568227039
N     -0.096599382855    4.775819783707    0.067720245631
C     -0.084878822375    5.802202770877    0.855045144976
O      0.875114215013    5.997994767510    1.738694365607
O      0.083144263581    0.063317798520    0.186416864493
H     -0.360234119358    0.917296214008   -0.167295485945
C      3.204830452778    3.646895639947    2.152853997733
C      4.386819123152    4.177332574988    2.698931304121
C      5.177938711416    5.047414287398    1.913551131136
C      4.744970376948    5.356487483892    0.616213548958
C      3.561398063149    4.829654158305    0.087965467712
H      2.612680697664    2.967083975456    2.774154678454
H      5.348652033949    6.033089106883    0.003180504412
H      3.260977818735    5.110157023160   -0.925763590610
C      4.803881703256    3.814409503166    4.102936896689
H      5.790611981042    3.320699767221    4.118621580501
H      4.891752328504    4.707411813702    4.745149562677
H      4.080337050132    3.132752808589    4.572964237390
C      6.456858925916    5.634608501123    2.457136831402
H      6.276969820113    6.234496756370    3.365753240520
H      7.178336765021    4.849017545811    2.740011551259
H      6.944542625262    6.285923123044    1.717351416046
C     -1.135320189664    6.882217722116    0.891710752776
H     -1.306286964643    7.310822059643   -0.105771845593
H     -2.093777185776    6.476705109574    1.251952533408
H     -0.807737512402    7.674677116409    1.574850180384
C     -0.809769322743    5.086820288809   -2.295991828896
H     -0.580775276333    6.164400099130   -2.287545295122
H      0.076795500747    4.549257554161   -2.666478480950
H     -1.643533092936    4.909389473887   -2.991005725539
N      2.102655061560    1.209255979791   -0.024466235843
C      1.382745554518    0.064870662340    0.091679738795
C      2.066726953666   -1.188861414808    0.130153357534
C      3.440333146297   -1.246467442517   -0.009935216046
C      4.141951407741   -0.044767318002   -0.185880387672
C      3.446813901577    1.151678553845   -0.180851846127
H      3.958333907285   -2.205932512406    0.004220269309
H      3.972098420608    2.098348010390   -0.290553337715
Cl     1.137732939279   -2.638120123971    0.332684737144
Cl     5.871784023698   -0.050287804609   -0.394610855345
