76

C      2.441581028824    3.777156869333    1.433023371281
H      0.457674207203    1.900362368659   -2.638829970347
C      0.286039749546    5.320000362338   -0.019562489673
H      1.105580497583    6.009436218399    0.191804580765
H     -0.139386064042    5.305401177266   -1.025698624766
C     -0.419628694718    4.731699878594    1.010715846295
H     -1.360237476370    4.225957856876    0.774190718551
C     -0.205985210063    5.001581244264    2.470166510973
O     -0.702045119931    4.330912325182    3.344727341441
O      0.550352423285    6.085484786364    2.689903545195
Pd     1.002664565020    3.230486111360    0.165572691855
C     -1.533773450149    2.902341376675   -1.807200935302
O     -0.401262158749    2.412896779849   -1.318652693616
O     -2.152436224769    3.816622360370   -1.295393904665
C     -2.037842290097    2.224937703942   -3.103965221470
H     -3.031198402225    2.672545489614   -3.259153391948
N     -1.263561958401    2.515161345419   -4.302509783899
C     -0.019431163190    2.281155591698   -4.456161144803
O      0.861872027767    1.820314920239   -3.540631799730
O      0.047495048484    0.195287610732   -0.059244790967
H     -0.300578880785    1.043998555048   -0.459687934023
C      2.502230184216    3.208234907125    2.710590046637
C      3.560633693248    3.488134404445    3.591830442616
C      4.590361577392    4.367472358490    3.180207089794
C      4.515657039999    4.933373594420    1.900748572936
C      3.455780006234    4.651290027400    1.028674094260
H      1.713177484939    2.529293841439    3.045779997931
H      5.306341569244    5.615578379472    1.572999320354
H      3.442795304980    5.116972144950    0.039167498275
C      3.595500652996    2.847553383228    4.958231333364
H      4.498396381483    2.227481450820    5.093157810901
H      3.614519156061    3.602936639474    5.762429801284
H      2.718468864561    2.205361365544    5.122586535435
C      5.747184815955    4.687051808475    4.095388417772
H      5.408303358656    5.144649444461    5.040652239337
H      6.310322778109    3.779773229640    4.374036465635
H      6.452285549324    5.384905715183    3.620645178729
C      0.825101100980    6.418470437083    4.062628069882
H     -0.132184347568    6.560840290818    4.589686354663
H      1.334497651059    5.563521247220    4.534755619935
C      1.679286085637    7.668400236111    4.079380103673
H      1.158620358144    8.509729817894    3.596395844150
H      1.904142768958    7.954148384407    5.118838367083
H      2.630788619466    7.498967516954    3.552742260428
C      0.637343254240    2.504479147973   -5.792079189555
H     -0.105062077031    2.841958246698   -6.524019720309
H      1.443750239565    3.250441773310   -5.700215916215
H      1.105023381251    1.568077034212   -6.137853470011
C     -2.243066407114    0.700324007617   -2.878293647275
H     -1.269831010794    0.224004121715   -2.688249804324
H     -2.843185297549    0.575663144626   -1.960824477285
C     -2.935469556676    0.004635119532   -4.028424859007
C     -4.327635213086    0.097006546238   -4.189485857709
C     -2.206835830255   -0.739331034169   -4.968929547384
C     -4.971563919719   -0.528822475738   -5.259560719343
H     -4.916295149064    0.666352199086   -3.463617138237
C     -2.846444743030   -1.368514449748   -6.040932865633
H     -1.122559193885   -0.827094622734   -4.856384869030
C     -4.232007672586   -1.264447645295   -6.191163161133
H     -6.056655783269   -0.445010795099   -5.364707921828
H     -2.259024117588   -1.943398665640   -6.762129152735
H     -4.734339586037   -1.756621798669   -7.028105790467
N      2.060122992647    1.346281409807   -0.113975162764
C      1.366881572893    0.198240666158   -0.102177614375
C      2.033438092513   -1.068738661380   -0.127665032026
C      3.418283498542   -1.086344136652   -0.218838790740
C      4.118293784514    0.133003233591   -0.276380538781
C      3.415641346847    1.317031971091   -0.214431101597
H      3.962454815527   -2.030223194515   -0.259841526807
H      5.205826330481    0.148885802101   -0.359523762459
H      3.920121389693    2.281849373229   -0.224949729779
O      1.223699946303   -2.141997099090   -0.077856987003
C      1.796761339498   -3.431493013111   -0.117159141525
H      2.471443845508   -3.604593568466    0.740680968646
H      0.962998734840   -4.143376317303   -0.066268474810
H      2.357399040454   -3.599955810421   -1.054288450345
