62

C      2.791565142606    3.934138119628    0.823224967938
H      1.573180572164    5.271174333042    1.632899843377
Pd     1.159993225667    3.099839087340    0.008416822087
C     -1.588062976822    3.126750293514   -1.014202819199
O     -0.607273577051    2.288506708260   -0.807632809976
O     -2.736554683179    2.828510448661   -1.269600783521
C     -1.150789531650    4.610472061507   -0.967767264512
H     -2.038039259650    5.177641585941   -0.659734054383
N     -0.063740472556    4.782230181807    0.017478087283
C     -0.065744992693    5.792060640792    0.824787488567
O      0.882179857463    5.969180115227    1.726877125840
O      0.121881543811    0.078147987058    0.091742327076
H     -0.319593494255    0.933903343225   -0.251663231407
C      3.213886534918    3.592594202183    2.123127095708
C      4.380708990674    4.118996747216    2.704110393963
C      5.172597285154    5.023989131096    1.960222359105
C      4.755113559843    5.369818304265    0.667115867030
C      3.585986094233    4.846294841286    0.104458022330
H      2.622127697639    2.884134502854    2.711641630860
H      5.359035698777    6.073813407342    0.085742326442
H      3.296946193588    5.156286829578   -0.903978798427
C      4.780840557815    3.715493984812    4.102205335911
H      5.774105593371    3.234815902872    4.118387165560
H      4.845784690454    4.587554593386    4.775346924056
H      4.059525214171    3.008671700748    4.537252501852
C      6.434904585008    5.610020075854    2.543099570570
H      6.232549188591    6.180506747170    3.465953350269
H      7.162053948857    4.825743862883    2.815321817609
H      6.926545922980    6.289371401702    1.831511804217
C     -1.117077290586    6.871042372070    0.870258001998
H     -1.281972798409    7.314330174155   -0.121738206075
H     -2.077495489474    6.459570837887    1.218318834593
H     -0.794666296510    7.653222621775    1.567661353193
C     -0.685787858404    5.100524713260   -2.357393433566
H     -0.410066860227    6.167616816600   -2.260744986214
H      0.245870036934    4.565834213316   -2.609726052287
C     -1.691910160353    4.945054905288   -3.513593049053
H     -1.888365631003    3.867204133706   -3.647012258964
C     -1.067641025204    5.473314683559   -4.812010247477
H     -0.111408383595    4.972700859286   -5.036087213114
H     -1.739897288203    5.310811983866   -5.669639960660
H     -0.868722112248    6.557474881354   -4.746666193638
C     -3.039374045975    5.620582666819   -3.226507319381
H     -3.695129667814    5.571464775947   -4.110802529309
H     -3.566201699029    5.119502396720   -2.401339951784
H     -2.908504050652    6.688358996978   -2.973519091729
N      2.129239239851    1.221326975676   -0.107233955719
C      1.427651571198    0.084111899405    0.004025788445
C      2.084704869538   -1.204183080329    0.047776389904
C      3.500649273146   -1.259879006745   -0.084224559239
C      4.195825534939   -0.027526409142   -0.261481840421
C      3.495437371410    1.145386392062   -0.262264562089
C      1.339945043547   -2.398633317268    0.206752549231
C      1.989191973277   -3.618772942137    0.245396594218
C      3.396861386823   -3.679879098269    0.119452062129
C      4.139948666370   -2.525667224758   -0.044436224916
H      0.255360041763   -2.331445151310    0.296652524626
H      1.415198044865   -4.540020345355    0.369892057592
H      3.899401793538   -4.650249674675    0.149325183513
H      5.227161834841   -2.573739627782   -0.145639581154
H      5.279505634150   -0.013778686696   -0.390218682950
H      4.003056258649    2.100615426143   -0.380437891094
