75

C      2.483931409104    3.690914566846    1.456407947134
H      0.518116613921    1.941490447843   -2.454427801825
C      0.178380702308    5.019403470010    0.006866116357
H      0.960721208690    5.771006758520    0.129768730935
H     -0.276033660703    4.915169117838   -0.981494637481
C     -0.445234281989    4.467706029495    1.108634298435
H     -1.357146083630    3.878503385937    0.958753823119
C     -0.175851058372    4.859768342798    2.530758645091
O     -0.581576539494    4.228891834923    3.478163215012
O      0.519421969469    6.001619082024    2.629159876453
Pd     1.022209046283    2.994346279550    0.295034080175
C     -1.609581366318    2.440946918305   -1.482234733529
O     -0.392473708360    2.049671415624   -1.126393030676
O     -2.361843573445    3.038998466708   -0.732727068825
C     -2.077799210205    2.104730770715   -2.922728455904
H     -3.011844020192    2.684757424350   -2.986990134217
N     -1.268391466224    2.549282679098   -4.043819067809
C     -0.003827930132    2.529222161613   -4.198589639741
O      0.949084116397    2.134155122531   -3.329854461813
O      0.171214132737   -0.053297938868    0.284264558456
H     -0.215405181552    0.763420733708   -0.148695655812
C      2.623822313940    3.225211456030    2.768745155877
C      3.705632395199    3.616643689705    3.576079430062
C      4.675892516975    4.503627688317    3.051835743257
C      4.521116150761    4.965232046191    1.738091817670
C      3.438789287488    4.572421194017    0.939496417004
H      1.880542415399    2.542891558792    3.190261073482
H      5.265455036369    5.652371480949    1.323627094529
H      3.361843241716    4.957594355763   -0.081188379884
C      3.827989496505    3.086204762532    4.984007191574
H      4.762547535781    2.516007971861    5.123295025771
H      3.848238177294    3.902040051044    5.726765960904
H      2.988244597637    2.423430887396    5.237217941985
C      5.855148988725    4.941484473144    3.885883096166
H      5.536503906457    5.458074999313    4.807503558264
H      6.469285301205    4.082881401218    4.207661457986
H      6.507826956974    5.627968987250    3.327050063639
C      0.840594965340    6.453824669388    3.956830261741
H     -0.095870125005    6.572967386039    4.525388320871
H      1.431140808153    5.671610297712    4.459617009125
C      1.606435545630    7.754345441125    3.836450741799
H      1.005192042476    8.521346394048    3.324178975443
H      1.863514185601    8.131493760191    4.838629943032
H      2.539567338516    7.608453715896    3.271270438306
C      0.604072727787    2.984962153080   -5.501341121775
H     -0.182549492716    3.293635064712   -6.199144974869
H      1.297814273227    3.823076232404   -5.323601600895
H      1.197898870194    2.167633241975   -5.942506243610
C     -2.538619980630    0.601640083090   -3.082363864995
C     -3.481055397286    0.228935660407   -1.922356889820
H     -3.913099878714   -0.770459011818   -2.093852063894
H     -2.958590063055    0.197856179846   -0.953438616940
H     -4.310630354418    0.947307295238   -1.829086043580
C     -3.315888156883    0.494040058405   -4.409249510284
H     -4.200149805767    1.152019436775   -4.404088170208
H     -2.687245925355    0.786453626425   -5.261753596297
H     -3.664673882858   -0.540021952313   -4.566181277603
C     -1.354348984217   -0.381068037022   -3.112738849077
H     -0.649354455764   -0.144192151650   -3.923557198983
H     -0.799695812223   -0.391933376822   -2.163880400140
H     -1.725663335739   -1.404684815595   -3.286367939390
N      2.144553052716    1.146164736883    0.089272238626
C      1.486782473242   -0.018728888529    0.181759548715
C      2.188366548434   -1.266277937940    0.178001635124
C      3.568813963356   -1.248435373109    0.032516465147
C      4.229648634433   -0.013481409913   -0.102819415128
C      3.495022418109    1.152246358771   -0.063856394342
H      4.139009089055   -2.177425924983    0.008296636614
H      5.312274529156    0.029117484305   -0.229297668255
H      3.968279267053    2.130090697068   -0.137772688607
O      1.413212543761   -2.358963509545    0.301661845192
C      2.022580609246   -3.632246292699    0.291083579325
H      2.733645096326   -3.751278697158    1.128483518846
H      1.212917891056   -4.364793792338    0.402261088297
H      2.552549411087   -3.822693240138   -0.659573823061
