62

C      1.001901940638    2.749706067250    2.975860626638
H      0.105581737336    3.370559177722    2.923760537639
Pd     1.190831570272    3.148799697140    0.545194780314
C      0.537877619172    5.805757301142   -0.018074926758
O      0.665092889184    5.002954866794    1.019833594876
O      0.712508309397    7.004454464396    0.044330061256
C      0.048155209903    5.118349817752   -1.302652660888
H      0.576302856049    5.587368556675   -2.149276506775
N      0.356850608721    3.677717134169   -1.227666983472
C     -0.030196117196    2.803181587416   -2.155682356808
O     -0.138251799454    1.567406069356   -1.953745200690
O      0.066326566217    0.243163292894    0.088892095892
H     -0.147845852658    0.933254674303   -0.702221101322
C      2.275111418569    3.348531263575    2.867580927610
C      3.455628273431    2.615174536415    3.132941431158
C      3.349342939088    1.257455039423    3.483707447083
C      2.068902409983    0.666167991439    3.567486757526
C      0.908672292576    1.389615916940    3.330047759453
H      2.338006865879    4.424924887934    2.695564535399
H      1.996737056725   -0.388968516163    3.845974548123
H     -0.069818559764    0.914906120896    3.426476385649
C      4.795557049416    3.303297345842    3.083473492524
H      5.294642107170    3.278270210891    4.067351646983
H      5.476969301992    2.814496185420    2.368613844138
H      4.692389761604    4.356156038348    2.785126501600
C      4.580405761152    0.442252110169    3.789638309667
H      5.267781432517    0.411685595383    2.927833017249
H      5.149590700619    0.871755088587    4.631439916930
H      4.321459772367   -0.593334531532    4.052727607783
C     -0.318267670862    3.254264835618   -3.580027878864
H     -1.378626593833    3.077572791532   -3.815428326667
H     -0.065535023655    4.299999919955   -3.790675357759
H      0.267675443950    2.597579632659   -4.240504111163
C     -1.479311149312    5.371159211591   -1.422782283712
H     -1.849905650551    4.843241932378   -2.316099129790
H     -1.957816553306    4.880230546553   -0.557791306906
C     -1.954714418855    6.835603962205   -1.504850563532
H     -1.671239958277    7.340949487549   -0.567538816237
C     -3.485143576453    6.867594831422   -1.616960409366
H     -3.964461646234    6.332120209035   -0.780932025398
H     -3.861205495863    7.903406908111   -1.610443371517
H     -3.828671923480    6.395566515399   -2.554405662957
C     -1.298248870978    7.610726251308   -2.654580626194
H     -1.732807782759    8.619930363997   -2.741791528834
H     -0.218766692712    7.735127304414   -2.484631547777
H     -1.449065965556    7.102486171548   -3.624065749926
N      2.083167825381    1.304463172040    0.040538220378
C      1.367432303051    0.175763815954    0.119310858135
C      2.007410284634   -1.104163514217    0.203500075916
C      3.364762092815   -1.188563808847    0.077790643456
C      4.135941184339   -0.008747421297   -0.146355632907
C      3.448183512071    1.244740640939   -0.160199622430
C      5.536729674191   -0.038963031700   -0.363682723294
C      6.242514476955    1.124972928763   -0.602873106514
C      5.558732958022    2.361372988368   -0.628526695572
C      4.194242023142    2.424572035081   -0.406877028572
H      1.366192375343   -1.978352031719    0.321251922773
H      3.869990824361   -2.157821389450    0.113611646456
H      6.047046608399   -1.005945059751   -0.350516497007
H      7.319906668009    1.091842148324   -0.779663818638
H      6.111767018036    3.281997401101   -0.830878569411
H      3.669226137717    3.381434133398   -0.433162115629
