62

C      1.405347100707    2.931775480088   -2.178313231528
H      0.074952729097    1.820610909378    2.179948717603
C      0.502145957395    5.268607540087   -0.432556335272
H      0.568561041737    5.672030282963    0.583702758204
H      1.202255636877    5.634433385042   -1.186951276970
C     -0.599084534515    4.529787539871   -0.820451411081
H     -0.766934438983    4.280438697927   -1.871559695545
C     -1.811499659323    4.291377714626    0.043467133148
O     -2.539953045253    3.332208460756   -0.085174073759
O     -1.993926083824    5.283798784862    0.908366235934
Pd     1.020180048382    3.128493468995   -0.223320427319
C      0.326399371230    3.979582737663    2.831373485970
O      0.721912272116    3.113947697888    1.923568254666
O      0.525597521398    5.179814596477    2.794638576733
C     -0.440872081761    3.304108942754    3.991203795677
H     -0.658864975728    4.079352371027    4.737899043577
N     -1.690453887097    2.653914437408    3.609685336727
C     -1.723121378677    1.636917592291    2.840067598370
O     -0.641359578771    1.079007440135    2.232561220674
O      0.011643658809    0.131919809390   -0.189049694110
H     -0.391579209238    0.553447911058    0.618746100214
C      2.404861285001    3.696607202632   -2.795678922456
C      2.720493046790    3.545779669166   -4.157920390384
C      2.004353792733    2.604383293474   -4.930955918053
C      1.003165152722    1.849141873641   -4.305207625563
C      0.698009271293    2.000462276142   -2.947574940440
H      2.971437211123    4.436039980139   -2.220787584746
H      0.442429187941    1.117594818329   -4.895441354748
H     -0.084356901994    1.384736852912   -2.497836928732
C      3.808984127004    4.385977529147   -4.780762103356
H      4.614380533523    3.761164542046   -5.203697139430
H      3.423525515063    5.000953446730   -5.612048106146
H      4.263946498171    5.065739434077   -4.045401183517
C      2.306803217288    2.415702616739   -6.397464159335
H      2.161101559295    3.348469683047   -6.969124365571
H      3.353780802155    2.108566065329   -6.563719924352
H      1.658817812871    1.647016042512   -6.843219850041
C     -3.112385366466    5.212533629234    1.824244720059
H     -4.034200021134    5.072465879530    1.236853198187
H     -2.974784617149    4.331999932486    2.471048494746
C     -3.116583378394    6.497715707022    2.624421587849
H     -3.263308089335    7.375194029431    1.975207785099
H     -3.931194575565    6.473226045266    3.364923441933
H     -2.160193488855    6.613107303218    3.156496690511
C     -3.012196287565    0.949410568656    2.496412984372
H     -3.805443363390    1.265071657083    3.184539586137
H     -3.298934071594    1.218402896603    1.466059115029
H     -2.886066094413   -0.143631714829    2.540898660095
H      0.252616577853    2.574351208900    4.455753229813
N      2.037383998423    1.229408242788    0.068108622025
C      1.342244974898    0.083997749307   -0.089946717848
C      1.993263637757   -1.156365430796   -0.188256277473
C      3.373949148998   -1.197986135098   -0.060460205966
C      4.077252730424   -0.012593428696    0.177606069095
C      3.383396344929    1.196496989158    0.236885716958
H      1.385195252127   -2.049155775635   -0.334957524048
H      3.904634399667   -2.151386463562   -0.122738331259
H      5.159829724207   -0.017956867706    0.311273123899
C      4.088426760387    2.500610740887    0.478537448723
H      4.068792358549    3.122233777460   -0.430975875868
H      3.585763936004    3.065306502737    1.279042915942
H      5.137871201496    2.337447441009    0.759341823929
