46

C      1.038749675620    2.564296794743    2.967056870444
H      0.067100703066    3.063081586228    2.988780802866
Pd     1.068940813521    2.902011912528    0.601378797594
C      0.165942771506    5.503495642206   -0.012446385945
O      0.262986704059    4.684191015051    1.013041600998
O     -0.128828802661    6.672468085110    0.069622441164
C      0.495470853658    4.853128477851   -1.373404939453
H      1.529191653301    5.139293114923   -1.638218052912
N      0.381255207351    3.397785501471   -1.268885735474
C     -0.318884953716    2.698488637000   -2.116105483149
O     -0.631029400378    1.449956074366   -1.949007492375
O      0.018638239309    0.067477454202    0.030445285324
H     -0.386003167780    1.002219071313   -1.047260508772
C      2.215466036870    3.326832873307    2.782845498098
C      3.498830032484    2.760865006132    2.972896641707
C      3.594652327467    1.411250549895    3.356765684420
C      2.410565025418    0.654635825150    3.528255124296
C      1.153398952863    1.206826895261    3.342678682964
H      2.124817394320    4.400902927114    2.608716371694
H      2.498704917048   -0.393560199195    3.826626170602
H      0.254550223098    0.607302396341    3.500157098914
C      4.732778107827    3.607153603629    2.788638128405
H      5.330130156655    3.655909749214    3.714559169935
H      5.395956636374    3.189540581291    2.012071114349
H      4.473474946394    4.635766045539    2.500440871616
C      4.940462600666    0.778146041759    3.598918315847
H      5.591017355071    0.865134432045    2.713560414082
H      5.471308779251    1.278261247619    4.426957669651
H      4.846167269293   -0.286623383413    3.854553196245
C     -0.858683497450    3.275591374352   -3.403666220599
H     -1.742626426688    3.901505021021   -3.199138456078
H     -0.114990405518    3.894251117279   -3.923827606461
H     -1.168073924033    2.445870819562   -4.050498086040
H     -0.171336737211    5.288622432475   -2.128879494076
N      2.031915586934    1.131480166074    0.149305657877
C      1.268501917449   -0.026831496115    0.043480023952
C      1.970105984477   -1.280794615970   -0.069789358055
C      3.338508637680   -1.323123260161   -0.145320192492
C      4.055100431423   -0.107054825558   -0.076164322435
C      3.366640690644    1.087894579083    0.075824643624
H      1.357903507441   -2.181841910160   -0.123308877400
H      3.887786109282   -2.258620370302   -0.258758991391
H      3.916981747984    2.026864925084    0.137298692444
N      5.504258909774   -0.093111904988   -0.129937768286
O      6.080309035169    0.969902805089    0.095931132865
O      6.072638593830   -1.143784576765   -0.388194971971
