45

C     -0.467437199223    2.951183063904   -1.174478408374
H     -1.300826054517    3.422110220935   -1.700570180659
H      0.250345157299    2.344364055553   -1.730003557043
C     -0.160889878269    3.325001223101    0.115269885953
H      0.773056392133    2.973082044339    0.561072606856
C     -0.901762473339    4.376788431605    0.895342088570
O     -0.828363478137    4.465075226121    2.098502882117
O     -1.608723528813    5.187674760804    0.105839662809
Pd    -1.420119237206    1.462125744720    0.189567960961
C     -4.077809288714    2.205881091076    0.860736689981
O     -2.984779204732    2.663521525606    0.289816213699
O     -5.045012930911    2.895798336637    1.090050393947
C     -4.069689355412    0.713921222355    1.215171918377
H     -4.894674550974    0.245909930039    0.649894111378
N     -2.785433891630    0.080605766896    0.925330986260
C     -2.617859378128   -1.194369038569    1.140893277950
O     -1.497603742213   -1.808827192482    0.915694477744
O      0.038083765784    0.024044025665    0.123202714892
H     -0.759707947021   -1.175763160168    0.580011618271
C     -2.560968146291    6.064437025717    0.741200107334
H     -3.384219604729    5.437476036746    1.120635987450
H     -2.076776988602    6.556454685974    1.598446949804
C     -3.046999659845    7.057072419437   -0.293326020842
H     -3.521584098593    6.539331319231   -1.140892060065
H     -3.792860783420    7.729977079424    0.157799552136
H     -2.217114513792    7.669854197414   -0.679146787498
C     -3.717145592525   -2.074134399884    1.674894997374
H     -4.054080417927   -1.719086101579    2.661251122849
H     -4.591726642747   -2.056813977484    1.006319590675
H     -3.346163339429   -3.101731046992    1.764798892183
H     -4.331872160329    0.632676248808    2.284161424836
N      1.978951829463    1.168627294264   -0.390490125205
C      1.346852026249    0.047892993447   -0.077453142270
C      2.059862705569   -1.193227660879    0.046717244119
C      3.431094464023   -1.196699572062   -0.167412026117
C      4.077048926235    0.010500950548   -0.498403116917
C      3.308755803382    1.158280312725   -0.596367524057
H      4.006770997939   -2.119358546796   -0.081089376550
H      5.154485519404    0.038901735322   -0.671453108345
H      3.766824162499    2.120763985312   -0.849265012234
O      1.301680264219   -2.269835018295    0.369643290379
C      1.920182311022   -3.525556736287    0.528486630721
H      2.674155990795   -3.511269660737    1.336631058001
H      1.124078314081   -4.233647293951    0.793737696265
H      2.407068898794   -3.863347208106   -0.404614756055
