81

C      1.617183332726    2.961672911138    2.132822037415
H      0.719686303659    4.415332037157   -2.857116157236
C      0.367003517394    5.165983046625    0.311997300000
H      0.223746195629    5.455492860405   -0.731495602124
H      1.155561489996    5.670639773547    0.875948206069
C     -0.587093950626    4.429245135089    0.983585828346
H     -0.538059509893    4.325954129639    2.069235759050
C     -1.916880267438    3.985041530905    0.442129889606
O     -2.676158091839    3.311669414203    1.099590609963
O     -2.165118354565    4.435815182108   -0.791298817629
Pd     1.008863204832    3.047738070600    0.228454495369
C     -0.415604126362    2.386930977512   -2.377710144940
O      0.497760492802    3.143325428329   -1.890548065238
O     -0.948403951575    1.448657001281   -1.756728353255
C     -0.884333622876    2.656461846570   -3.822738460478
H     -1.767021987973    2.008659638327   -3.923052425576
N     -1.347351633468    4.010374173129   -4.138008747681
C     -0.671736362560    5.084713880465   -3.981601529666
O      0.525067957589    5.234815584963   -3.389147656656
O      0.062873181685    0.093653174742    0.094564846316
H     -0.356204944663    0.770739988795   -0.579424080057
C      1.014056254009    2.057817531240    3.017012328093
C      1.425680300800    1.953020535691    4.355746312135
C      2.475314408077    2.778652525717    4.824044110578
C      3.070164246127    3.676607695264    3.929959360291
C      2.652632353161    3.778049237838    2.596032061679
H      0.201568326263    1.413023956858    2.669176625910
H      3.885308058985    4.317049948807    4.281104411246
H      3.157101046922    4.488677821389    1.935813403567
C      0.750743051252    0.967710455465    5.278448295854
H      1.468426831239    0.234913111005    5.685688947672
H      0.292843087140    1.471923632308    6.146698503920
H     -0.041413594912    0.409912033256    4.758752141868
C      2.945448901114    2.694769514625    6.255659627895
H      2.132458886213    2.919873005424    6.967229987426
H      3.309182446008    1.683827063468    6.507974908820
H      3.764720958854    3.402430759203    6.449851493726
C     -3.420647016837    4.049083367530   -1.405785480244
H     -3.216044110938    4.105460121334   -2.483688644184
H     -3.633344748947    3.007547226244   -1.126643547468
C     -4.549889571348    4.977061253409   -0.994101030833
H     -4.311028054460    6.023910846439   -1.239063375017
H     -5.467902265687    4.701204237103   -1.537505517490
H     -4.756073179663    4.900451140660    0.083798379893
C     -1.207800647258    6.393786909057   -4.496358380644
H     -0.458654419515    6.864645325657   -5.153219014353
H     -2.140255110815    6.233956294497   -5.049557344044
H     -1.382617947485    7.088175625656   -3.658158913762
C      0.123790368371    2.170243251157   -4.872111374657
C     -0.374407533611    1.841349355614   -6.144664987605
C      0.481430312170    1.426932767213   -7.165617767453
C      1.857546425324    1.329255986425   -6.931161459423
C      2.363274078562    1.650931093844   -5.670447581652
C      1.504607096883    2.071914292810   -4.648048450445
H     -1.448616771975    1.919733315499   -6.331583254228
H      0.072940089678    1.174433378952   -8.147835864606
H      2.530149755956    1.000728969550   -7.727810175201
H      3.436217813492    1.575359225421   -5.474463316240
H      1.918552589575    2.318815091319   -3.669545153608
N      2.059437711409    1.200786214300   -0.069333895821
C      1.371958091920    0.081703497439    0.076177199659
C      2.032316636870   -1.201228800813    0.263312611859
C      3.449414078915   -1.260342499204    0.235258547416
C      4.185433792827   -0.030805643698   -0.027060341478
C      3.447132991155    1.175445621662   -0.178989807011
C      1.265264495098   -2.368253579207    0.472248595657
C      1.893899148424   -3.585999629981    0.673486256711
C      3.300217832988   -3.654550863271    0.661203955406
C      4.063274336700   -2.516724459015    0.444160106358
C      5.592509277593    0.023901023178   -0.148615014875
C      6.250713515194    1.214648949508   -0.414821680348
C      5.512475620606    2.400850218014   -0.573205645906
C      4.132020108188    2.378593572138   -0.455524152861
H      0.178321763383   -2.282814643329    0.473786182696
H      1.302575985071   -4.489467507058    0.839044215048
H      3.798307810869   -4.614300615028    0.820841522571
H      5.150425717504   -2.600890731743    0.436438771257
H      6.177047400794   -0.890384314263   -0.038039449292
H      7.339090483338    1.228288561941   -0.506809778754
H      6.023598856523    3.341113388868   -0.793190412729
H      3.547559944962    3.292252225167   -0.586139283570
