58

C      1.163243484845    2.607410918285    3.023363340031
H      0.220669966223    3.154955349189    3.090118371546
Pd     1.059445103412    3.014368054690    0.657426271320
C      0.220426355973    5.679524943626    0.244851648384
O      0.465684583535    4.821136249752    1.209269446886
O      0.221466034494    6.879987592568    0.412219021770
C     -0.162193418930    5.060507860394   -1.110647687157
H      0.420895173453    5.593999958666   -1.879744515094
N      0.174498655605    3.618772801461   -1.126743688715
C     -0.002073571513    2.904751808306   -2.203938790042
O     -0.023242465511    1.604506401687   -2.200608865771
O     -0.129141333189    0.236476495565   -0.092800737122
H     -0.151131707282    1.162726003589   -1.275751871244
C      2.370597850744    3.310359678284    2.803468526938
C      3.628205920142    2.678085919211    2.950067106655
C      3.667017111740    1.323521701159    3.326248908110
C      2.451588376194    0.625473238196    3.526359893784
C      1.219384376558    1.241909703308    3.381982243969
H      2.328906071806    4.388678456425    2.639115968504
H      2.495504662906   -0.427922421436    3.816104899313
H      0.296361208274    0.687809505664    3.565185548762
C      4.897373724740    3.461991556682    2.732231565371
H      5.525375383165    3.472152584853    3.638897679845
H      5.511886983519    3.016719926965    1.931513580528
H      4.681608333639    4.504682851077    2.459409714300
C      4.985085219064    0.624456512822    3.537189572948
H      5.632935418881    0.708047822963    2.650151018890
H      5.542734983496    1.077716524721    4.374843094911
H      4.845719347039   -0.441714482482    3.765007190175
C     -0.168793629025    3.466703696504   -3.593322174797
H     -1.186433875660    3.263073379942   -3.959557519884
H      0.038767921840    4.539079200391   -3.665683065395
H      0.520692634000    2.912310576302   -4.248030957597
C     -1.684041483949    5.314874363347   -1.373364753140
H     -1.957180727488    4.676874028248   -2.231045321487
C     -2.554627020984    4.876170414928   -0.187112703694
H     -3.620223255667    4.883728259239   -0.459710299090
H     -2.304038643647    3.854835680140    0.137708230956
H     -2.424000422606    5.549191856526    0.675258107944
C     -1.934584369440    6.772335957581   -1.808396887618
H     -1.640850478153    7.446715603142   -0.989692945346
H     -1.251074591162    7.006441468111   -2.644988159863
C     -3.371046322772    7.061058971265   -2.249384423197
H     -4.088512050923    6.960305558005   -1.420089823603
H     -3.460068657523    8.090440353329   -2.631046257508
H     -3.696599780805    6.380277379038   -3.055131746739
N      1.921533069714    1.196778530108    0.137942380268
C      1.109111919244    0.072336658762    0.014591768531
C      1.751260059326   -1.216175603049   -0.040324660636
C      3.116959662567   -1.321834641382   -0.099826027542
C      3.887049400585   -0.137643580032   -0.057452968730
C      3.253320210060    1.090224439594    0.076178980961
H      1.098633265278   -2.088854811683   -0.086254133094
H      3.624558398934   -2.283327472528   -0.186625653213
H      3.846514678770    2.003172131589    0.130247468523
N      5.334168860527   -0.191370075592   -0.116340770011
O      5.959895127438    0.852850176577    0.061748665876
O      5.854079959129   -1.276783888343   -0.330832001303
