72

C      1.632267440441    3.008241118179    2.076740064174
H      0.643873089705    4.358423246503   -2.854857296877
C      0.356078898061    5.153049402558    0.216482507841
H      0.197810323305    5.411594186410   -0.832896091335
H      1.165324249725    5.660857737752    0.747509474782
C     -0.594463690186    4.455728233778    0.932985215176
H     -0.524232933483    4.388828697303    2.020381189508
C     -1.940534747953    4.008970542986    0.434808357263
O     -2.695646001529    3.374996768875    1.134808137690
O     -2.205684616697    4.409804200523   -0.811817051526
Pd     0.959481109388    3.019065077389    0.194372466984
C     -0.494378070492    2.335098811808   -2.411864770841
O      0.449259491338    3.058954386385   -1.925631513925
O     -1.066819590002    1.425942042333   -1.785861265663
C     -0.914364119872    2.605073106164   -3.871240898559
H     -1.757969448796    1.915746070395   -4.034346730104
N     -1.418502031451    3.947327652754   -4.144507044073
C     -0.776937949598    5.034247439882   -3.944546087577
O      0.425682945677    5.193339528094   -3.356832208886
O     -0.033383526827    0.036558550646    0.050058942837
H     -0.460225487363    0.707785753640   -0.611074404871
C      1.046070547789    2.177990383875    3.040705717954
C      1.528655799449    2.127665930640    4.358656950291
C      2.635386365854    2.931677696147    4.722690833934
C      3.214086956504    3.754798216782    3.749431418148
C      2.724316122037    3.803363469042    2.436885336235
H      0.191974713504    1.548980283357    2.772417808975
H      4.071097033242    4.379342143482    4.020670050146
H      3.213251506700    4.460948769768    1.711735051508
C      0.868520642853    1.222794122683    5.370219083102
H      1.578601191821    0.483719791734    5.779519895152
H      0.479768587803    1.792127885187    6.231898937354
H      0.027577720675    0.671528238846    4.925729138802
C      3.181400881685    2.905042283851    6.129447683020
H      2.419270671556    3.203189984594    6.869834901513
H      3.517980826996    1.894620235817    6.418888448025
H      4.037819829593    3.586389681517    6.239219923874
C     -3.471511498278    4.001614637202   -1.391120576360
H     -3.283804781592    4.017483414540   -2.473260291323
H     -3.678762050843    2.970937449002   -1.071207487010
C     -4.594116163260    4.944835759883   -0.996173060263
H     -4.359852618145    5.981898529628   -1.283802080178
H     -5.520491053658    4.649138319994   -1.514421970581
H     -4.783206783892    4.908450890174    0.086931914890
C     -1.357400708820    6.352003173076   -4.384719108084
H     -0.621578749857    6.896323116496   -4.998249827204
H     -2.278186448086    6.192404595644   -4.957476420247
H     -1.570692530464    6.981890971042   -3.505201997948
C      0.211885924270    2.179640578894   -4.862872351509
H      1.049545892073    2.887447289995   -4.732823571100
C      0.728839281077    0.766189239383   -4.565478031194
H      1.482395331249    0.467822115963   -5.312092580233
H      1.201084818602    0.692991975886   -3.573779123354
H     -0.089635824948    0.027800305682   -4.601789648911
C     -0.283335318576    2.281945108474   -6.310875991582
H     -1.099755617857    1.562780684315   -6.495271240682
H     -0.666958738988    3.286189840440   -6.538044561798
H      0.530866249263    2.052665996529   -7.017497730881
N      1.983718784245    1.164809939591   -0.044707665289
C      1.276302386673    0.025337603757    0.009083691687
C      1.956626263637   -1.238126368231    0.060819613314
C      3.343911349937   -1.255489362300    0.004375341084
C      4.047621753474   -0.039582485968   -0.091474862496
C      3.339586093745    1.142822338970   -0.105274987872
H      3.890754042187   -2.198574735946    0.024232375361
H      5.137252225352   -0.026788377170   -0.141720989076
H      3.839760826982    2.111243945823   -0.146653866252
O      1.154596570950   -2.315122796032    0.146151957752
C      1.737849563498   -3.598490710732    0.195471138404
H      2.392229532536   -3.717002481699    1.078158277076
H      0.908765936162   -4.314329776560    0.266285221745
H      2.324143737025   -3.816517074879   -0.715705715029
