77

C      2.493608754352    3.877682367441    1.501993757663
H      0.683087562554    1.816396645578   -2.445444904759
C      0.218845759913    5.283299937700    0.070838806123
H      0.973511759277    6.037564136971    0.300195496831
H     -0.207048113699    5.256783838573   -0.935236573234
C     -0.432918239143    4.609580432936    1.083981371340
H     -1.325036312886    4.030584600864    0.828183105224
C     -0.241083150852    4.847419552346    2.552059725607
O     -0.672206621063    4.103013346482    3.400975765257
O      0.412538016380    5.987615990827    2.810795906829
Pd     1.109519396699    3.256231462761    0.199197935840
C     -1.393860793219    2.716059054691   -1.748890441086
O     -0.268795389958    2.256386094640   -1.221256419342
O     -2.067134739121    3.587372880075   -1.223870975604
C     -1.867051758001    2.106818345508   -3.097089406232
H     -2.702508839012    2.778115625582   -3.351350213114
N     -0.980550488081    2.139665506610   -4.245421463705
C      0.280181779596    1.969117972839   -4.313076043500
O      1.159999673209    1.751973624046   -3.315670600496
O      0.269451254372    0.328232107387    0.498648182879
H     -0.126198296089    1.064356659872   -0.050393885731
C      2.620730311152    3.189340562967    2.714630783968
C      3.613773743445    3.521509213321    3.652227468760
C      4.507964368664    4.579666667912    3.366348981931
C      4.365782575861    5.265279670293    2.152898467528
C      3.371678948540    4.929643519619    1.225809333198
H      1.934190683394    2.373341158739    2.957431309244
H      5.052423032281    6.085554228797    1.921184931499
H      3.305801149476    5.496488762099    0.293513683261
C      3.721831851706    2.748908157375    4.944488563679
H      4.704311333514    2.255713762999    5.041594784651
H      3.615873414654    3.407238390563    5.823703173847
H      2.946808042617    1.972198406548    5.013551262154
C      5.593998348730    4.960919221749    4.342484868103
H      5.180680110588    5.256425568147    5.322128180750
H      6.281763669605    4.119900364003    4.536382984857
H      6.193883374729    5.802157606436    3.965546997541
C      0.662426495599    6.292656400709    4.195202867262
H     -0.298279900291    6.296920561115    4.734789700440
H      1.276146887795    5.484979105775    4.624737609042
C      1.361930789218    7.633733413813    4.260892681694
H      0.738517690279    8.426914348268    3.819895739103
H      1.564481313649    7.898899953513    5.310344473566
H      2.320148154810    7.602119149246    3.720469251252
C      0.973355835345    1.991864874439   -5.652219150076
H      0.246106303694    2.166725309948   -6.453159391787
H      1.743186297602    2.780776069568   -5.665791042484
H      1.494340221207    1.034896948703   -5.819893993397
C     -2.541461464982    0.688202570212   -2.924236793489
C     -3.513398048292    0.720600097425   -1.730012917143
H     -4.089372657648   -0.218079868137   -1.685463706770
H     -2.988694661063    0.828820650123   -0.767473007596
H     -4.227243698537    1.555021230409   -1.813307985136
C     -3.341166968727    0.395734181264   -4.209265274057
H     -4.136794054899    1.143889278988   -4.358039962448
H     -2.688720572598    0.420578764191   -5.093073001676
H     -3.817499735506   -0.596739756741   -4.148436957678
C     -1.505313145826   -0.429415938748   -2.714186330529
H     -0.802237688553   -0.491212398083   -3.558298323317
H     -0.924052203524   -0.288284722889   -1.792286288898
H     -2.015839100457   -1.403544743869   -2.636111666631
N      2.227539211616    1.402835917742   -0.065760946938
C      1.581681386451    0.305394184640    0.322417922221
C      2.256579449109   -0.925948312460    0.578454632502
C      3.602388864453   -1.002848299094    0.348746740217
C      4.304793599008    0.121195115688   -0.174937727337
C      3.568076638320    1.326887068780   -0.388970889237
C      5.683022807981    0.076751115504   -0.506615184774
C      6.311147805249    1.178194778504   -1.053160042058
C      5.571706973538    2.358794689470   -1.291763725354
C      4.230299283689    2.435311069446   -0.966012707773
H      1.663394645164   -1.768902767760    0.933565097718
H      4.145318248323   -1.933442477116    0.534838933274
H      6.234667984035   -0.850794839225   -0.332176079808
H      7.371255603969    1.136651529572   -1.313013317453
H      6.063908898042    3.222318547681   -1.745614944851
H      3.658574931045    3.340809022658   -1.166727984572
