62

C      1.667884251609    3.381070905080    1.879528805154
H      2.891222259208    4.025479971895   -2.584690747143
C      0.005180506154    5.116578384130    0.229108088945
H     -0.870678759124    5.045479574341   -0.419657416396
H     -0.165961426811    5.097465276889    1.305942979363
C      1.226980104142    5.486876040044   -0.284849153714
H      2.060558277064    5.765305131207    0.364139379218
C      1.421978902525    5.845379957674   -1.723071790217
O      2.479763716670    5.682891992354   -2.314354070971
O      0.339353505395    6.359677599573   -2.276797416684
Pd     1.272479300267    3.256589886079   -0.085632312701
C     -1.591000079421    3.007126829177   -1.836292465334
O     -1.861403321280    2.636562524065   -0.601357600396
O     -2.133851311126    3.951853030831   -2.369486441283
C     -0.496723291098    2.210250236244   -2.560716393466
H     -0.752956191034    2.239777281345   -3.630030908771
N      0.814612061315    2.823100350097   -2.311122565785
C      1.761341244175    2.571600593815   -3.152427900369
O      2.944204929758    3.169840323258   -3.079991132443
O     -0.355336241739    0.772688085157    0.220679425461
H     -1.256027729343    1.882839681753   -0.275907627927
C      0.824785229614    2.705374120081    2.771846288607
C      1.025373365219    2.764834650716    4.160454373699
C      2.108225526454    3.517106741809    4.674943942094
C      2.948010788612    4.180279031753    3.773297674526
C      2.738982950901    4.122537142895    2.388123425408
H     -0.003563594039    2.106028944501    2.384676066869
H      3.792451489837    4.760551622923    4.158349313726
H      3.431237027047    4.654843696310    1.730207937328
C      0.093492950742    2.023551502417    5.087816509065
H      0.635377649282    1.283197577165    5.701059679830
H     -0.406866292515    2.707995935588    5.794384824942
H     -0.686494927708    1.489130048752    4.527073609147
C      2.356841216313    3.600112625172    6.161078266440
H      1.493396066270    4.030344354705    6.697082277837
H      2.532061904182    2.603779943026    6.602183793371
H      3.234423837038    4.223872194756    6.386000931796
C      0.338485638082    6.622071571937   -3.700042349988
H      0.944876732888    7.524767439783   -3.880265496910
H      0.838179481954    5.782816024032   -4.206751843674
C     -1.102028077215    6.784661491375   -4.134906002049
H     -1.571467213158    7.643131130533   -3.630615134408
H     -1.143062100257    6.959087602990   -5.221580431408
H     -1.675276908070    5.878316642711   -3.889328612389
C      1.676069455433    1.587971612016   -4.288203086932
H      1.248530639817    0.631885576968   -3.953153988787
H      1.027290498275    1.981049262029   -5.088284846381
H      2.677271823618    1.423721044465   -4.704568075539
H     -0.505339145763    1.162695528722   -2.217516377590
N      1.891553893858    1.228364463702    0.049993059910
C      0.836246526882    0.349110940046    0.199117608634
C      1.142050680019   -1.047149042214    0.330788818115
C      2.447947924383   -1.478167086740    0.314972082942
C      3.494461780340   -0.545848057043    0.166479732116
C      3.184504752599    0.802161331523    0.042544526454
H      0.297715788588   -1.727926781695    0.447948507016
H      2.676837629509   -2.542959505181    0.418989703561
H      4.537407628247   -0.864047542442    0.151671886758
C      4.270793669760    1.831757102535   -0.108386640382
H      4.146673148219    2.400619077871   -1.042532413993
H      4.245363302349    2.546296719943    0.728351139380
H      5.260221775008    1.354527934856   -0.125186985047
