62

C      2.548745275822    3.968499763602   -1.071282411241
H     -1.658260488312   -0.843124320477    0.103371027083
C     -0.424378310714    4.639226558017   -1.213854855024
H      0.027649457484    5.099460226822   -2.095151607279
H     -1.294023686175    3.994162793064   -1.360496699038
C     -0.103739048492    5.096411884927    0.050724984468
H     -0.674839658251    4.773013811076    0.931339076531
C      0.807205964178    6.259632152442    0.307273978367
O      1.232535009028    6.542256613811    1.402602176333
O      1.062553185124    6.968988659148   -0.802199238870
Pd     0.909996313929    3.137594135567   -0.301525687469
C     -1.544239270096    2.213640276798    1.482763021271
O     -0.905125952474    2.110451012453    0.329795069620
O     -1.531959896289    3.210009910457    2.177451963301
C     -2.320143531330    0.945516264097    1.881222000506
H     -2.678172446555    1.114016365381    2.907429190393
N     -3.463949959978    0.716990798818    1.026884307712
C     -3.514066024369   -0.222148860080    0.169442479929
O     -2.552933301336   -1.124289241910   -0.155241465538
O      0.057993510897   -0.000840653302   -0.354395264195
H     -0.431639107602    0.919767297649   -0.110704069364
C      3.465899039368    4.659121317914   -0.268129150026
C      4.666323045637    5.171354616171   -0.792402108139
C      4.952545884863    4.993348690192   -2.166236550293
C      4.022469470196    4.308883105636   -2.960177546666
C      2.830979458919    3.798161352352   -2.430325267367
H      3.255133259417    4.820455453158    0.793150669450
H      4.235499038864    4.164584982861   -4.023999827782
H      2.140702989168    3.262410645660   -3.087713188526
C      5.632801452130    5.902388663597    0.108261607113
H      6.615669328064    5.401502745767    0.142057093347
H      5.822131759537    6.930446219866   -0.245438347702
H      5.252120989884    5.966806333634    1.137745803750
C      6.231220799690    5.525175136930   -2.766393433864
H      6.315661838190    6.619237306785   -2.648850245322
H      7.122305125632    5.090835286014   -2.281365448360
H      6.292918308848    5.299382894423   -3.840958430875
C      1.935036362007    8.103967425238   -0.663083324601
H      1.500933640993    8.794209328746    0.078345710962
H      2.900245671394    7.758350403728   -0.260466384662
C      2.086413242219    8.748018440862   -2.024974226801
H      1.112140007006    9.079860190370   -2.415937190120
H      2.745408285596    9.627281124620   -1.952399331308
H      2.528068016984    8.042653216271   -2.745447636949
C     -4.766928942302   -0.473614163708   -0.622609845227
H     -5.550885359625    0.227475052413   -0.314530250928
H     -4.563356867155   -0.363800551002   -1.700223011067
H     -5.107235674365   -1.510011480648   -0.464227070185
H     -1.591786192198    0.106319115380    1.912400818754
N      1.985958470791    1.239946237869   -0.022579909300
C      1.353884596306    0.046071385008   -0.128449941609
C      2.053850166357   -1.190972487863   -0.020067094118
C      3.414279271210   -1.139594109989    0.242779119843
C      4.060695941808    0.097367080537    0.392052933529
C      3.315280582335    1.250942372248    0.244968832775
H      3.978660758126   -2.071503229790    0.338685950534
H      5.127825609570    0.163097317756    0.607856057950
H      3.779693173407    2.232520461889    0.325415190985
C      1.290278277717   -2.476117304805   -0.179455463316
H      0.518905195195   -2.582421186713    0.601574196708
H      0.759273582656   -2.507309429157   -1.144317202166
H      1.962494039782   -3.343852736127   -0.119337941450
