68

C      2.720669639345    4.019916308821    0.869217031004
H      1.270062237660    5.033952136679    1.843521067494
Pd     1.193772895031    3.181818834420   -0.130384483963
C     -1.526318418355    3.173655708557   -1.201692693362
O     -0.526451446229    2.340697820919   -1.049192875883
O     -2.681977837403    2.869485986455   -1.405404486721
C     -1.088339323282    4.662593347018   -1.129611216884
H     -1.997535948065    5.246532569463   -0.930031433065
N     -0.123279354881    4.785380792048   -0.021422979518
C     -0.339078729339    5.564880083937    0.987345336642
O      0.491603743770    5.615320468363    2.014072555447
O      0.176618657964    0.317614228817    0.283055294019
H     -0.254506578789    1.088660190515   -0.233355076369
C      3.228588737441    3.424051897763    2.039372255595
C      4.301787759645    3.969515730220    2.763830670716
C      4.906618657827    5.162947714526    2.306474096398
C      4.401322349313    5.764027701911    1.145562244665
C      3.326229000205    5.214632225399    0.439397633452
H      2.784415791552    2.493423351100    2.406069578232
H      4.859106992547    6.691051082043    0.785723758793
H      2.963302409217    5.727418162542   -0.456099647431
C      4.802372643483    3.282463181224    4.010902687693
H      5.863064704314    2.992610120948    3.916990071858
H      4.735752166957    3.940403551520    4.894449306152
H      4.224367516624    2.372069645707    4.226188863121
C      6.065614442455    5.779567625967    3.050116993937
H      5.796084492772    6.035121973262    4.089424377799
H      6.924681621379    5.089474318531    3.112085332856
H      6.411806733377    6.700648238873    2.558735574954
C     -1.519622357501    6.486819274099    1.149098240801
H     -1.587755648438    7.193666611091    0.310015636932
H     -2.458488964253    5.913481672692    1.183817606394
H     -1.408067642598    7.047182366972    2.084865302040
C     -0.483847254012    5.142057366015   -2.479758586309
H      0.422333055920    4.532410712849   -2.652982304162
C     -1.465187037786    4.891365987578   -3.632726104521
H     -1.021509569628    5.184519653495   -4.595636858291
H     -1.754570906755    3.833982108977   -3.706236234682
H     -2.391584070369    5.474992719409   -3.496882448634
C     -0.048729304489    6.618591448144   -2.402329387437
H     -0.949291378518    7.251075239430   -2.287459350058
H      0.552254825301    6.765801830387   -1.489804092827
C      0.768608813336    7.110233726625   -3.599890558636
H      0.194282297074    7.081384535043   -4.538779119519
H      1.097995860836    8.150911251210   -3.450471393421
H      1.672006494703    6.494152604469   -3.744707376948
N      2.176496793865    1.303282870291   -0.293675296550
C      1.473203052346    0.251771025492    0.101147168577
C      2.097575901308   -1.029480559372    0.397896903025
C      3.488300376945   -1.186414710280    0.176701080629
C      4.215004887992   -0.076750993597   -0.423907490764
C      3.516558648929    1.140798840365   -0.659938884701
C      1.325241389266   -2.091142130803    0.918873073705
C      1.928761314991   -3.294622248126    1.244609516327
C      3.313544406899   -3.455604696240    1.046955925491
C      4.078024694371   -2.424720382510    0.521162998811
C      5.570869406543   -0.165712224257   -0.814116719770
C      6.216506858480    0.892828176978   -1.432686288805
C      5.511030333003    2.080852556945   -1.691211481911
C      4.184419767681    2.200534609499   -1.310178611805
H      0.255441438518   -1.937819073908    1.061708907118
H      1.334029452664   -4.115069081246    1.652697747666
H      3.792627848096   -4.403157226161    1.306592635570
H      5.147610243741   -2.578510359588    0.375106648457
H      6.119019216423   -1.092735879284   -0.640954634043
H      7.263522480338    0.797120355731   -1.729484689248
H      6.004663841396    2.914295931649   -2.196722948230
H      3.628897916933    3.114882091422   -1.512127541614
