73

C      1.360532291585    2.932781963833   -2.086936076363
H      0.062705357991    1.879345729138    2.211933780751
C      0.475125898806    5.276962482089   -0.347560593477
H      0.539032103005    5.669925162735    0.673525070732
H      1.189279856537    5.634336029277   -1.093751165112
C     -0.630411789231    4.553463187720   -0.752998608252
H     -0.787652645684    4.317728752874   -1.808922150619
C     -1.852208116131    4.300582890404    0.094337891870
O     -2.553851043916    3.321675413334   -0.038344734024
O     -2.070142290683    5.293772254461    0.947170949853
Pd     0.962460801158    3.129937853680   -0.138145595601
C      0.258281324913    3.998633977556    2.901893631920
O      0.707074147702    3.127916385248    2.020282427519
O      0.420690510709    5.203009151344    2.829784786934
C     -0.521224363081    3.359961842458    4.080454746734
H     -0.872290950907    4.222799321639    4.667775592816
N     -1.721017983352    2.626377311006    3.665766307067
C     -1.736434053380    1.629215305886    2.871940933168
O     -0.651366521371    1.116446971890    2.225409080447
O      0.027574463076   -0.056566683055    0.011635058364
H     -0.368063379327    0.493048529868    0.759915298810
C      2.497522127079    3.551711018305   -2.621121192189
C      2.866259507090    3.380251299362   -3.967555758560
C      2.065035480935    2.568424896328   -4.803153690772
C      0.928432305087    1.957989999031   -4.255712371906
C      0.567905301616    2.130331029961   -2.913602372801
H      3.133174429039    4.182326404326   -1.990791775393
H      0.303041786014    1.327837817378   -4.895588768313
H     -0.325082963571    1.632188690460   -2.526872843634
C      4.101566830326    4.059051642000   -4.506513201000
H      4.827784103203    3.327770384467   -4.900530123197
H      3.859813982960    4.738967100361   -5.341263138499
H      4.609081237429    4.648824721790   -3.729511260934
C      2.423050099381    2.362786045673   -6.254648256171
H      2.449330463333    3.317071732429   -6.808136151966
H      3.422176957477    1.908481244131   -6.368910357244
H      1.697751192891    1.705828376060   -6.756241561203
C     -3.196589576218    5.197308837866    1.852481158028
H     -4.107230570234    5.026384281867    1.256165029289
H     -3.041287316990    4.323599343270    2.504714009840
C     -3.247334971707    6.487046087510    2.643133084002
H     -3.414680985950    7.354508141200    1.985683395176
H     -4.068569283678    6.442846657843    3.375256179444
H     -2.300798200255    6.636441888235    3.184117181200
C     -3.010700571812    0.910832870117    2.531677962930
H     -3.806903864615    1.198607436952    3.228261980522
H     -3.311657547667    1.182607070200    1.506092112718
H     -2.856548378086   -0.179184704916    2.563646001196
C      0.404599435699    2.525032434401    5.015440492186
H      0.684486111084    1.604145285779    4.472981561185
C      1.689004238197    3.294807355634    5.350527874630
H      2.315170240948    2.732395614729    6.059639150023
H      2.299957240799    3.484320167472    4.454987092665
H      1.456672802243    4.271253186311    5.807501230997
C     -0.367611233747    2.109723871325    6.284770739911
H     -0.536085401332    3.010513952084    6.903671102536
H     -1.367395236353    1.757411873321    5.986791061234
C      0.314316135781    1.026950551362    7.124038677635
H      1.295381460985    1.347842001031    7.509536294676
H     -0.303946699559    0.756172841890    7.995038026572
H      0.475263592986    0.107775855513    6.535341768794
N      1.971819635229    1.207111169507    0.091849669063
C      1.337982154539    0.018088481013   -0.056586987751
C      2.068430734564   -1.165897512587   -0.320473280665
C      3.447129923204   -1.126293154543   -0.365292804672
C      4.075063559161    0.107344478977   -0.142782022891
C      3.314793315630    1.246000631036    0.073013414403
H      1.507729311099   -2.091094535911   -0.454923735339
H      4.052558103439   -2.014364956275   -0.548908507957
H      3.805585214748    2.209532588349    0.213048069427
N      5.539019376556    0.210728263626   -0.160803858919
O      6.029128955238    1.310504992334    0.038206944898
O      6.165538495482   -0.813914202567   -0.375662562171
