62

C      1.020246749689    2.878316193714    2.759955776483
H      0.139482693247    3.512300257555    2.644141559441
Pd     1.274396091280    3.223926001648    0.306575344102
C      0.506414080848    5.884157685587   -0.265362145445
O      0.887199046521    5.114771615992    0.737053319396
O      0.616345912216    7.091017048569   -0.237565391407
C     -0.166603204778    5.128566496850   -1.420909216304
H      0.099327286253    5.656623905458   -2.350616035078
N      0.340163938594    3.748691507485   -1.436949613159
C      0.228545297569    2.931130392399   -2.486621638465
O      0.234227112685    1.677843731208   -2.382418516740
O      0.010157427007    0.379645632558   -0.321000711079
H     -0.030796834709    1.054100104861   -1.157782492973
C      2.308319125620    3.450718301242    2.697525070201
C      3.458416876742    2.706299931339    3.047410297070
C      3.309211716511    1.361174678501    3.431441231400
C      2.015894082559    0.794554641172    3.464139104748
C      0.883129839612    1.531590465662    3.146680810392
H      2.400513820038    4.518831204822    2.491279445090
H      1.909315412028   -0.250457367382    3.768548033620
H     -0.108471200408    1.078252369168    3.208851220208
C      4.810754081332    3.371546051523    3.054670958730
H      5.242998800725    3.385021024500    4.070046549175
H      5.528988080092    2.839809611914    2.410458484285
H      4.745703347528    4.411044733972    2.703358009547
C      4.507362172165    0.535628067938    3.827158498627
H      5.236061928947    0.462908208157    3.002737871810
H      5.041511309793    0.983947537730    4.681962818113
H      4.215575131826   -0.485498338587    4.111573872535
C      0.171100513147    3.459423285522   -3.911072494138
H     -0.717821112296    3.060752768831   -4.419079003678
H      0.192282920789    4.550530691093   -4.003609312029
H      1.049824493056    3.039865442935   -4.425973011274
C     -1.745354118360    5.242930554488   -1.253967609122
C     -2.192550744610    4.760451049904    0.139521411454
H     -3.291665305445    4.791752873661    0.211782651422
H     -1.872688324366    3.723089409706    0.324798661574
H     -1.787320975422    5.391870463384    0.944106699590
C     -2.158049273001    6.715701503110   -1.451071147405
H     -1.672919023348    7.381164405919   -0.725733518682
H     -1.888164483191    7.071612842083   -2.459435912155
H     -3.250729770588    6.813712364505   -1.344955102956
C     -2.480696529660    4.402665463973   -2.314494825562
H     -2.229222307713    4.720223460682   -3.337448439442
H     -2.277998262211    3.325620882142   -2.219277773432
H     -3.567435547031    4.536945040873   -2.191479256402
N      2.077175109487    1.313896821454   -0.117311245304
C      1.289105170194    0.231606394202   -0.115430952213
C      1.833047729003   -1.082438017985    0.062289902959
C      3.188288348218   -1.251693085945    0.088617389094
C      4.051136013645   -0.126673677386   -0.074865621766
C      3.448651801010    1.165826911414   -0.178567836769
C      5.461444566692   -0.247654869382   -0.156269685152
C      6.258491598790    0.864428497168   -0.351860659237
C      5.659511499146    2.139090997206   -0.469216552016
C      4.287163152638    2.291227678223   -0.377963638146
H      1.129333613152   -1.913572184054    0.120027024992
H      3.625020657120   -2.248635836130    0.195369156860
H      5.906281749146   -1.243318255526   -0.076062935618
H      7.343319454656    0.760861519517   -0.426560618846
H      6.285840980134    3.018031673302   -0.641097940439
H      3.828749445806    3.277416863068   -0.477923228271
