44

H     -0.353672394911    0.668072598277    0.728327383271
C      2.043243696384    3.170311557355   -2.380069770334
H      2.856471824554    2.441129086860   -2.411623197425
H      2.291953521693    4.233394877236   -2.371692154777
C      0.756083390771    2.758913314093   -2.629198778591
H     -0.043643829636    3.485199219634   -2.792765540185
C      0.443488926745    1.326146510858   -2.946754525591
O      1.270372354584    0.447640765175   -3.034748197693
O     -0.869390261064    1.159881002215   -3.120591577276
Pd     0.960377081782    3.002765092444   -0.395080143574
C      0.092554932103    5.579405716386    0.371305769065
O      0.244766173020    4.831122449787   -0.708742676757
O     -0.171259592497    6.758026857626    0.332827391540
C      0.306296328467    4.835335953900    1.701822286590
H     -0.485980919582    5.163844881573    2.389264793239
N      0.315047619131    3.393530244379    1.487543248753
C     -0.360397225362    2.541143631553    2.259710068387
O     -0.598299244460    1.349035162730    1.950016716145
O     -0.033381622189   -0.003018223793   -0.025729940665
C     -1.339185891838   -0.188456657582   -3.325780605060
H     -0.770987709982   -0.638393953110   -4.155322343972
H     -1.116742467501   -0.762768395796   -2.412746510872
C     -2.824078673889   -0.127162703962   -3.612777467158
H     -3.029560377242    0.463748185857   -4.518753073303
H     -3.215522890143   -1.144596926594   -3.767859119695
H     -3.369302520260    0.327083919670   -2.771501307566
C     -0.894258013428    3.014523094383    3.604855833234
H     -1.161517711174    2.126778194138    4.190814890727
H     -0.165872472220    3.623575242761    4.159406807853
H     -1.804532123670    3.620565125335    3.464087950566
H      1.263868915254    5.194625250616    2.125290369844
N      1.927554862067    1.185676255463   -0.002399213580
C      1.277255610168   -0.000881960162   -0.015698702413
C      2.004131663178   -1.211859986539   -0.016647904314
C      3.389736256746   -1.210359034851    0.048354522876
C      4.036828380245    0.044937282308    0.129440147775
C      3.277722206548    1.196845306114    0.096366594200
H      1.429138317023   -2.138366797022   -0.048531290786
H      5.123402742434    0.116482702170    0.206347428533
H      3.748611244150    2.182062574997    0.136805567595
C      4.187172938500   -2.486420389235    0.045937587237
H      4.859482399666   -2.533264335916    0.918091264217
H      3.537851110490   -3.372806127215    0.060870268318
H      4.822747313541   -2.542734328566   -0.853642176811
