68

C      1.624658371833    3.028847541201    2.083792187680
H      0.647248342147    4.353045177662   -2.848322531569
C      0.342163946874    5.149506026620    0.215157511081
H      0.187413095130    5.403147859093   -0.836060386330
H      1.148155546758    5.661821852642    0.746965418568
C     -0.609829713448    4.453667266561    0.932120416748
H     -0.543482667549    4.393675560438    2.020245743736
C     -1.952429945159    3.997579193905    0.431141579495
O     -2.702861347671    3.357293062349    1.130168697371
O     -2.217058602518    4.396047255592   -0.815781747518
Pd     0.946407954447    3.017546707158    0.204482214447
C     -0.493469074500    2.321773893717   -2.420695015036
O      0.444309102603    3.039326015933   -1.920204407046
O     -1.066064015932    1.399320600199   -1.808487454578
C     -0.913279004364    2.605578819879   -3.875996176053
H     -1.756394152853    1.917469459727   -4.046042141905
N     -1.417656956406    3.949883086329   -4.135874765801
C     -0.777822823576    5.035980245989   -3.927698264460
O      0.425399557924    5.191557935911   -3.338503378161
O     -0.072255952690    0.045338467960    0.024369163918
H     -0.488389759186    0.719848720803   -0.669039659579
C      1.026046624698    2.231308140441    3.066920193428
C      1.525917649297    2.186506754535    4.378815727551
C      2.660516876318    2.963817457801    4.714773767311
C      3.248428845220    3.756279737669    3.721802978086
C      2.742451425460    3.799684000166    2.415080059352
H      0.148765079931    1.625455622467    2.820823234885
H      4.126130616109    4.360293716553    3.971874469797
H      3.238523102966    4.433544636331    1.673778630067
C      0.855051162626    1.316146829455    5.412990574203
H      1.549526185369    0.562083856227    5.821331687096
H      0.497818525807    1.909178107036    6.272177681338
H     -0.008902680914    0.783964237232    4.990059718960
C      3.225994704276    2.941467320030    6.113697234194
H      2.482914723285    3.270855876456    6.860015919268
H      3.538242376975    1.925957269575    6.411914475909
H      4.102509859504    3.599809355506    6.201675803210
C     -3.482788421819    3.985840847908   -1.396296503421
H     -3.293901337827    4.003276721644   -2.478165557474
H     -3.688209368649    2.954597247779   -1.076966662083
C     -4.606849755257    4.926835039647   -1.000936927428
H     -4.374606057374    5.964414276194   -1.288107055212
H     -5.532339610928    4.629412628321   -1.519666118810
H     -4.796555967277    4.889485818347    0.082003746145
C     -1.359214365205    6.356708417960   -4.356297557036
H     -0.622662526713    6.908436877334   -4.962135120723
H     -2.278064400879    6.201104930273   -4.933160166430
H     -1.576451257004    6.977259531202   -3.471154540131
C      0.214112869637    2.189180609845   -4.870897338215
H      1.051334894654    2.896365151226   -4.734451565171
C      0.731534345541    0.773260949684   -4.586426460547
H      1.485298643832    0.482281049984   -5.335461816348
H      1.204679187987    0.690699693795   -3.595726657976
H     -0.086090083021    0.034443073989   -4.629530787313
C     -0.281383538030    2.304497759839   -6.317791295610
H     -1.097552648598    1.586873229176   -6.508686548874
H     -0.664745166210    3.310716850827   -6.536320034469
H      0.533138143819    2.081546864822   -7.025861801787
N      1.961555950211    1.141880356601   -0.010257580997
C      1.229445878845    0.006399868118    0.029266318432
C      1.912014663952   -1.244088186254    0.117455426019
C      3.295520203296   -1.290043150291    0.114535297717
C      4.010019026818   -0.085056239479    0.027035037509
C      3.310053133858    1.109305816294   -0.023022799554
H      3.815879262087   -2.246887340318    0.169457164618
H      3.835265257886    2.064543556944   -0.052032219716
Cl     0.978672862463   -2.699972477707    0.209616819827
Cl     5.750237008154   -0.083329714654    0.005232602952
