78

C      1.627838151967    3.028052983259    2.076810585545
H      0.637773385408    4.398716612199   -2.867167037570
C      0.346485583166    5.175040262380    0.230502659076
H      0.190382804512    5.438228821356   -0.818042509045
H      1.156667060927    5.678452141911    0.764495575215
C     -0.605510031347    4.474645106452    0.942149437400
H     -0.535851393654    4.402465830060    2.029266990105
C     -1.950499997528    4.027650554692    0.440631758372
O     -2.699748886856    3.379603021492    1.134117220124
O     -2.219823589133    4.442982978282   -0.799925621936
Pd     0.948327766696    3.041406055530    0.197387661800
C     -0.517031009388    2.373300259450   -2.406741513874
O      0.427113392085    3.092653139945   -1.921447018958
O     -1.073247837474    1.443971710530   -1.792406617796
C     -0.952782686932    2.662358133546   -3.856931982911
H     -1.794542680668    1.975127197347   -4.028222165328
N     -1.445507600094    4.004331155055   -4.126623459945
C     -0.787879501824    5.083982270261   -3.945389284555
O      0.428082870986    5.227579495388   -3.378571604139
O     -0.011808764901    0.012353287297   -0.040911891528
H     -0.444892523717    0.724611152134   -0.669328551710
C      1.008225389974    2.247102383285    3.060422703406
C      1.505371111359    2.190486132725    4.372916309881
C      2.659288707058    2.938325993057    4.709243724230
C      3.268876933418    3.713619728162    3.715742083190
C      2.765831304994    3.768371572916    2.408456594883
H      0.115224634492    1.664439355728    2.814759941419
H      4.162870488619    4.293477907895    3.965040976159
H      3.281397854242    4.385367848716    1.666389820272
C      0.810849442535    1.339181362092    5.407511078176
H      1.484850731066    0.567772904995    5.817932516531
H      0.467843825626    1.942196923475    6.265607125908
H     -0.066236301104    0.829105783663    4.984148317323
C      3.222612674733    2.903007564746    6.108865486164
H      2.488218375726    3.253844876045    6.854108835181
H      3.507118569544    1.879992916857    6.409431642744
H      4.116572074044    3.537564206741    6.196335726286
C     -3.489941759963    4.045577313751   -1.379284756170
H     -3.306276529748    4.074083523993   -2.461872820720
H     -3.699354748214    3.011996905499   -1.070187295800
C     -4.607301269958    4.987920181533   -0.968369438476
H     -4.370564606729    6.027351036868   -1.244949922011
H     -5.536607540756    4.701443774565   -1.486411083447
H     -4.792398130678    4.939533576458    0.114966949507
C     -1.357417451952    6.405985608348   -4.384039363267
H     -0.619753453409    6.942469577680   -5.001898600477
H     -2.281445841228    6.252676081906   -4.952977847706
H     -1.560689956872    7.039028501892   -3.504402852329
C      0.193346095089    2.229630092867   -4.819134805205
H      1.070951697588    2.870648229215   -4.646421149775
H      0.484203492371    1.202402260132   -4.541772046506
C     -0.192948512353    2.267389865047   -6.280357566279
C     -0.958014036571    1.234406424387   -6.846213474582
C      0.191427596792    3.337177237391   -7.102952106753
C     -1.332886056230    1.271252903103   -8.191363844579
H     -1.261953620858    0.386881607345   -6.224088963427
C     -0.179959371219    3.377818682134   -8.450069073068
H      0.793099781785    4.147158372941   -6.681119248294
C     -0.945166088277    2.345238289313   -8.999031673272
H     -1.926878195427    0.455595976210   -8.612437196267
H      0.131475495946    4.220108406160   -9.073760396849
H     -1.235255713610    2.374546656160  -10.052556224879
N      1.982108537288    1.186485792680   -0.045952479837
C      1.292471022238    0.016061749001   -0.017745755988
C      1.989546500362   -1.215221580337    0.070555146375
C      3.369043920815   -1.226640231130    0.074359687749
C      4.071374734990   -0.005215112807   -0.006634107446
C      3.326712620775    1.168359144911   -0.051254045107
H      1.396136605005   -2.129054072277    0.111713701366
H      3.922128906621   -2.165577347691    0.128111174793
H      3.844354876327    2.128950294402   -0.073473791887
C      5.554826907559    0.103880954841   -0.025694951466
O      6.163952423610    1.146276290811   -0.098988442897
O      6.151424395323   -1.100466649282    0.047757845615
C      7.579440348033   -1.099677548684    0.034093529226
H      7.977385264709   -0.532112212979    0.888769978790
H      7.886143365200   -2.150776090463    0.097955789812
H      7.960548791871   -0.645235694442   -0.892823976297
