54

C      2.025382662072    3.811956848705    2.092222200418
H      2.631389203175    2.945606392414    2.371781396822
H      1.157314826198    4.091696767529    2.692801211339
C      2.515910826939    4.729418323864    1.186370800297
H      2.009998498543    5.692114359186    1.100304163158
C      3.925039398919    4.653303995698    0.695530709914
O      4.706122153617    3.758222762516    0.927194637835
O      4.234951589306    5.751475767162   -0.013319622283
Pd     1.002133555931    3.337228240473    0.184881621229
C     -1.523523299092    2.837055372136   -1.050481906384
O     -0.401084220682    2.208766065706   -0.719168722725
O     -2.490202452501    2.267428107392   -1.495580941999
C     -1.463604360441    4.367434207309   -0.852031323984
H     -2.480414516960    4.645957858657   -0.539185172515
N     -0.499546119787    4.691172001376    0.198002829193
C     -0.726985451937    5.682179548823    1.102455680951
O      0.026208321554    5.922776270127    2.047523156365
O      0.644970100058    0.484429982813    1.079234684835
H      0.034735397617    1.031419990111    0.518320199480
C      5.595644511720    5.885213952306   -0.462122886974
H      6.268168816619    5.736590448021    0.397723115995
H      5.812900002138    5.080327958879   -1.183568900723
C      5.753070687385    7.257111913690   -1.083219836438
H      5.535202398161    8.048266498968   -0.349712596459
H      6.786326500770    7.390433443906   -1.439346198198
H      5.073509805595    7.384310322286   -1.939839112145
C     -1.981362829633    6.541741396992    0.924136975114
H     -1.904697859649    7.375450543642    1.632481383799
H     -2.084115960846    6.933205463528   -0.098780571045
H     -2.891549937630    5.966128468543    1.158876134528
C     -1.192985111362    5.047799384514   -2.203746871903
C     -0.086532949135    5.884537823964   -2.399348157532
C      0.132546713531    6.497193726445   -3.639237100623
C     -0.751818414484    6.281052870542   -4.697693193595
C     -1.859768477595    5.446834377207   -4.508999353129
C     -2.079727345674    4.835708879623   -3.273562460868
H      0.602779370227    6.062779317665   -1.572147665954
H      0.999124751283    7.150465831135   -3.773089335676
H     -0.582274092139    6.761073455564   -5.665022079304
H     -2.558981663255    5.270822852751   -5.330783800066
H     -2.936058682293    4.172201683542   -3.132892498404
N      2.259707047553    1.630532574375   -0.112517863363
C      1.864327303341    0.520684585151    0.553112898627
C      2.715600294896   -0.585520065805    0.700097477773
C      3.943419153162   -0.560019848240    0.054943451655
C      4.276546532980    0.529970812513   -0.756279290007
C      3.402690634602    1.612909827385   -0.844125748216
H      2.367470687062   -1.438893155605    1.282313727306
H      4.627234403582   -1.407688323285    0.145397683455
H      5.204011403041    0.541353122247   -1.330142912084
C      3.641071729800    2.718410335409   -1.833237686129
H      3.144688436460    3.654708504201   -1.548963841661
H      4.714589902281    2.902443939502   -1.971942618782
H      3.216756543302    2.419430536714   -2.807492793188
