74

C      2.550489246536    3.900718323418   -0.922520285972
H     -1.908064353018   -0.439335632948    0.232055799102
C     -0.488374461976    4.348452343657   -1.043170630264
H     -0.108744779132    4.716203842673   -1.999025161246
H     -1.322197130247    3.642909481153   -1.060253282270
C     -0.131821530671    4.980177714046    0.133082507066
H     -0.628255086920    4.743655119786    1.081816675624
C      0.713550601709    6.217423200201    0.186869133577
O      1.147385074563    6.681587474136    1.214837104536
O      0.896000639707    6.771483766338   -1.021300941681
Pd     0.981691706507    3.044676897579   -0.036479314356
C     -1.382026504353    2.224262418779    1.848029347010
O     -0.739824412726    1.943487879040    0.736402880325
O     -1.167028249184    3.214094903186    2.525804369468
C     -2.480705419873    1.210265955773    2.256747368894
H     -2.926691399332    1.666821252646    3.154561082574
N     -3.533778015518    1.198691887690    1.254357107700
C     -3.586472622589    0.527515053554    0.178967936722
O     -2.703019701819   -0.383694087127   -0.315674835607
O      0.356992776011   -0.099648111935   -0.142787671602
H     -0.174587834944    0.723586354182    0.174820812195
C      3.446012013706    4.698285899884   -0.197752399176
C      4.604198885342    5.233945201128   -0.789220487921
C      4.870095815786    4.967779298558   -2.152729778958
C      3.962758552232    4.175287845763   -2.868964411785
C      2.813601251016    3.642585556168   -2.271573290603
H      3.248089224608    4.930962098805    0.852952563474
H      4.161014145067    3.961788312007   -3.924038479124
H      2.140511399029    3.021264226400   -2.868757041336
C      5.546998484178    6.083258501827    0.029039098220
H      6.556432157786    5.639500183894    0.077429339233
H      5.672409867713    7.089453967870   -0.406506698658
H      5.183632543486    6.207665443520    1.059271473404
C      6.103997821712    5.520662525422   -2.823631260668
H      6.129858143716    6.623502366997   -2.791037301550
H      7.028214609741    5.173647916150   -2.330261527338
H      6.155330104407    5.216953353484   -3.879429558852
C      1.704366926228    7.959517075714   -1.076737628792
H      1.243695584749    8.730325597479   -0.437623592942
H      2.694123288575    7.731692312897   -0.650704412994
C      1.796531733715    8.396100023970   -2.523631636132
H      0.798725362464    8.611560783123   -2.936236860335
H      2.405400829157    9.310426962265   -2.601097040533
H      2.266137174362    7.613768234860   -3.139295667342
C     -4.757194597794    0.662566458685   -0.758409084435
H     -5.482478204352    1.374231830395   -0.348687625665
H     -4.411001712350    1.005483554670   -1.747207365571
H     -5.236154064809   -0.318449558884   -0.909811514041
C     -1.874754932099   -0.147894836768    2.729376048411
H     -1.290452246962   -0.601429415952    1.906553582932
C     -0.889202176732    0.093581588975    3.882749319745
H     -0.446425933902   -0.849714751056    4.236145322238
H     -0.061394480556    0.755276157256    3.585865768300
H     -1.397815779331    0.569636980943    4.737523164476
C     -2.989204808966   -1.138011815564    3.120984463863
H     -3.508823145058   -0.741984364163    4.012556341653
H     -3.746526173743   -1.160830729959    2.322076575267
C     -2.514694748462   -2.568175802575    3.388781815138
H     -1.819262634022   -2.629516399188    4.240791606222
H     -3.366878321662   -3.228390496542    3.616116735631
H     -1.999880129293   -2.988820716780    2.507884492621
N      2.182197057283    1.253570603554    0.303244355074
C      1.642403771510    0.026860839594    0.129275168432
C      2.422467740942   -1.160699604697    0.211477792658
C      3.765155973488   -1.022828716999    0.533157568090
C      4.313605388487    0.248584085218    0.762917129247
C      3.493403471149    1.352599189593    0.628418989246
H      4.391818955919   -1.915440508081    0.614688505692
H      5.363620436022    0.379052934379    1.027673219139
H      3.880258421121    2.362141524719    0.761232230780
C      1.760272495570   -2.487917249845   -0.031995444742
H      0.951905850828   -2.667367825092    0.695686637806
H      1.292169083503   -2.522013289048   -1.028928417243
H      2.486028120395   -3.310190170654    0.043440468573
