60

C      1.111816322492    2.784013527172    2.949331372244
H      0.230942848487    3.428614610023    2.943464787351
Pd     1.188745396139    3.130476416532    0.520819135635
C      0.548195445619    5.795011579983   -0.051398239342
O      0.709040340706    4.996293692739    0.984952707574
O      0.709398086188    6.995894833068    0.006772395228
C      0.039337980981    5.100568783067   -1.323265824168
H      0.553437800900    5.569176572632   -2.178569463254
N      0.349850758629    3.660394413943   -1.252354828035
C     -0.025446172803    2.795349252487   -2.197026658229
O     -0.128660807474    1.558453475783   -2.015485467418
O      0.018019367667    0.197632085110    0.028198139568
H     -0.191553336499    0.881088728787   -0.748886982423
C      2.391710868703    3.346097563036    2.755562070458
C      3.565838966178    2.582451229541    2.957670572235
C      3.445163461502    1.236794006407    3.346601182969
C      2.156673959239    0.681342640365    3.515468861285
C      1.004405430543    1.430854103819    3.328884886414
H      2.472925868873    4.417853807788    2.563350769885
H      2.072854378845   -0.366161938804    3.818319033104
H      0.021073341524    0.983589123363    3.487679450745
C      4.918498638854    3.225698297407    2.786739888278
H      5.498379322745    3.204257797638    3.725152221372
H      5.527970530792    2.697835253731    2.033340766836
H      4.825866646069    4.274829104833    2.472165895635
C      4.669715379257    0.394991148549    3.600103798133
H      5.295402567300    0.312381305208    2.695673038700
H      5.306573667737    0.834506114104    4.386264455042
H      4.399434067369   -0.622866948031    3.915521578593
C     -0.306742567862    3.269034432325   -3.616886466396
H     -1.365269233879    3.091417930747   -3.859895166111
H     -0.058230884830    4.318779116965   -3.812085144403
H      0.284601994297    2.624282999965   -4.284194905895
C     -1.490489587382    5.348552921124   -1.423545255615
H     -1.870262503071    4.812709020460   -2.308569488467
H     -1.955732900894    4.860632463500   -0.549580713044
C     -1.973093753079    6.810360022427   -1.507967576732
H     -1.677635331253    7.322646573527   -0.578186758234
C     -3.505096694345    6.835877332770   -1.597864882936
H     -3.969985237099    6.304453565898   -0.751189441315
H     -3.885246588567    7.870248241228   -1.593170194679
H     -3.860452950504    6.355732995914   -2.526721160909
C     -1.336714284642    7.580892089471   -2.671936573636
H     -1.776041686862    8.588080719322   -2.758567184141
H     -0.255261811019    7.709921004730   -2.518871044350
H     -1.500112539831    7.066375857145   -3.636035845660
N      2.038399884142    1.274458934063    0.037175298761
C      1.322530907105    0.137128262565    0.047502933809
C      1.990025342573   -1.132977674506    0.033118585548
C      3.372362426917   -1.161722931837   -0.095845193795
C      4.081476761559    0.051931054697   -0.191988040876
C      3.387951245960    1.240951462570   -0.107967453854
H      3.908593534774   -2.109598436696   -0.151822405491
H      5.164328225771    0.057021768235   -0.324981135688
H      3.892408487292    2.207143331303   -0.156082880666
O      1.178556123473   -2.204428809735    0.113311212674
C      1.745460524343   -3.494380478894    0.058379482113
H      2.447717919735   -3.670153359811    0.893856711284
H      0.912292149651   -4.204782425224    0.136885526389
H      2.276329937100   -3.667274324967   -0.895407493339
