71

C      1.536153790212    3.263926996103    1.792791026314
H      2.278881911050    3.312468740852   -1.966873618703
C     -0.419151053999    4.895413088504    0.008912062454
H     -1.099490737378    4.878470934205   -0.844174899352
H     -0.860968655923    4.763057521320    0.999120032072
C      0.873536414439    5.344195425307   -0.117887444132
H      1.475048194032    5.564088657396    0.765229191541
C      1.487143044675    5.902622869311   -1.365141044805
O      2.653571315277    6.216022605713   -1.431459026668
O      0.611799327623    6.051941211926   -2.369009540022
Pd     0.883488642721    3.049219632226   -0.093512247552
C     -2.196894871617    2.609705528203   -1.411165765599
O     -2.075739949817    2.168807488154   -0.166320390743
O     -3.006329351413    3.456728865095   -1.711201931007
C     -1.239313024199    2.025525448066   -2.473060015616
H     -1.624142470632    2.438160801554   -3.417812869697
N      0.115045751350    2.548832372788   -2.219204692176
C      0.901628608448    2.854334447470   -3.188766544831
O      2.140899624996    3.294934547041   -2.936310564052
O     -0.311622121184    0.395829071265    0.495066835902
H     -1.356865528201    1.478970024930    0.003817621834
C      0.663179845173    2.893258365561    2.820618886056
C      1.047819110027    2.981919257625    4.170070275300
C      2.343495406967    3.448934519191    4.491612924468
C      3.206080699880    3.808037469311    3.447870404088
C      2.818105365656    3.720789892408    2.104823884754
H     -0.331308135102    2.504546063115    2.584840302595
H      4.211485935738    4.168115049115    3.686539880041
H      3.523983325619    4.017505967966    1.323983659243
C      0.084227658769    2.571503629733    5.256490485220
H      0.492469867068    1.751326351382    5.871480865273
H     -0.127611464101    3.404950767276    5.948092742269
H     -0.872888963776    2.231051698239    4.836170191137
C      2.792706317973    3.554530782154    5.928437990151
H      2.144465784715    4.231478464812    6.510983763910
H      2.761187330822    2.576549092716    6.438658224781
H      3.822260616902    3.934687694894    5.998802142270
C      1.116948418379    6.644323375430   -3.583276831739
H      1.629461132109    7.584872211273   -3.327643092811
H      1.876796590398    5.968625974132   -4.008280406938
C     -0.051533666292    6.869044686267   -4.519242858506
H     -0.792790497300    7.546265926131   -4.068597180933
H      0.304310475945    7.321828983244   -5.457720727901
H     -0.559239374229    5.923051551333   -4.762601808721
C      0.654018861540    2.805709718945   -4.669512786755
H      1.258129752693    1.999040955495   -5.111965965967
H     -0.396853647279    2.642166847564   -4.924843706183
H      0.999210400249    3.750124126428   -5.114211889481
C     -1.344471759227    0.473960701597   -2.542906180157
H     -1.084260792435    0.081114372469   -1.549821864316
C     -2.795740251005    0.073012955524   -2.846820838011
H     -2.889853762603   -1.023661636657   -2.875572683216
H     -3.498665119136    0.442888932364   -2.084848222750
H     -3.125329996295    0.462627157298   -3.825283507405
C     -0.384841124357   -0.161443317685   -3.554351915923
H     -0.615731968074    0.140208199898   -4.589677888336
H      0.667020375497    0.083830129185   -3.343844310850
H     -0.472857763484   -1.258343436884   -3.509574215061
N      1.793248394698    1.157279199708    0.021916757728
C      0.911298880605    0.145021095890    0.349473420338
C      1.459687051866   -1.178768422956    0.505561136490
C      2.801726573178   -1.410321210905    0.342355040698
C      3.667743171975   -0.334921924183    0.018346336305
C      3.111056420388    0.923797339477   -0.116514471535
H      0.761197114088   -1.974627492555    0.767414985122
H      3.207744403387   -2.417783875146    0.466574055414
H      3.745879005737    1.784186268572   -0.337467187037
C      5.134909675160   -0.567663909679   -0.168366847694
F      5.696507514919   -1.133067722517    0.919204510505
F      5.382860130889   -1.406245590903   -1.197387400424
F      5.803492072365    0.573602676990   -0.417644917183
