81

C      1.948260785713    3.121271795132   -1.939192637747
H     -3.214979455338    0.728726902293    2.340246924572
C      0.259321142811    5.156739987276   -0.336105521317
H     -0.123089951448    5.369713443092    0.664529989096
H      1.162315296445    5.677085523214   -0.663899951866
C     -0.528677087598    4.495181124902   -1.256385032917
H     -0.236695768122    4.453603729655   -2.307871864663
C     -1.957375100356    4.077747898884   -1.054093170024
O     -2.551861805183    3.406159934903   -1.864434825132
O     -2.498221665823    4.568586165832    0.067440303357
Pd     0.839752523638    3.031623760652   -0.272031677769
C     -1.151929468869    2.090574120065    1.784407822040
O     -1.431739678639    1.120463525129    1.034419140446
O     -0.271119877266    2.966785100434    1.574882362966
C     -1.939200395429    2.220632744481    3.097063976755
H     -2.152269431572    3.285240409344    3.257479437228
N     -3.209472870527    1.525275106246    2.969303855658
C     -4.336672051184    1.944287212339    3.609912399632
O     -4.362416528480    2.944900601791    4.313307316925
O      0.065096858077    0.039801326862   -0.649995513152
H     -0.552793459085    0.613015956526   -0.029797574161
C      3.080231159953    3.941991638242   -2.019020653292
C      3.875285127539    3.996145720532   -3.177429040477
C      3.522523345843    3.204719528696   -4.293968311003
C      2.388063761077    2.386984946072   -4.203011812170
C      1.602765052244    2.336923439473   -3.045368660568
H      3.380976860254    4.554313518070   -1.163384226590
H      2.107502900663    1.768941866369   -5.061607758483
H      0.727385025253    1.682375406806   -3.017277166689
C      5.091636532265    4.889011534575   -3.219901657307
H      6.013841789001    4.311595038567   -3.404401959743
H      5.023156058719    5.634126424916   -4.031145776845
H      5.223238978413    5.434631287000   -2.274020070601
C      4.348194880910    3.235517802137   -5.557053487896
H      4.394576211322    4.248839986384   -5.992057870875
H      5.391828569368    2.927725362272   -5.371831125846
H      3.933037084238    2.563126633773   -6.321979984296
C     -3.887955472296    4.257615056994    0.313338763637
H     -4.443165132959    4.387151207355   -0.628276052253
H     -3.956846327352    3.193979595285    0.592972250806
C     -4.399195283493    5.167442805435    1.410415403606
H     -4.270744184054    6.225355513709    1.133247040362
H     -5.472702717559    4.981371295682    1.569715268179
H     -3.890754464021    4.982310295534    2.367760513748
C     -5.567936964554    1.076333139471    3.401373286076
H     -5.817504481871    0.587662531117    4.356416000267
H     -6.416919281822    1.723582515395    3.137524297833
H     -5.439968417277    0.303426157966    2.629514425663
C     -1.116932150926    1.721125963335    4.286093370454
C     -1.103707713123    2.450767609145    5.482631916634
C     -0.391427876153    1.982513961102    6.590883707462
C      0.312996491236    0.777638165357    6.515975082740
C      0.298912257324    0.040426870295    5.327295592937
C     -0.413816354083    0.507974450652    4.220581085604
H     -1.672387489160    3.381367744932    5.545687668776
H     -0.390116381111    2.561284423275    7.518385273948
H      0.871019543075    0.412255180447    7.382110125400
H      0.847184719200   -0.903152463787    5.261001827682
H     -0.422644653033   -0.072458837273    3.294032202707
N      1.866168559495    1.193035110132    0.160173342402
C      1.322150586548    0.074603819080   -0.284790294463
C      2.097082842109   -1.149158575252   -0.423512980503
C      3.456458854354   -1.156357783474   -0.017756833776
C      4.006494465611    0.057741352105    0.570036911803
C      3.170710499999    1.206193752014    0.646048368806
C      1.498536028203   -2.309301259177   -0.961819125594
C      2.242922213612   -3.466918895102   -1.118196182809
C      3.596643739314   -3.482127788708   -0.730890502770
C      4.191476815384   -2.352009894814   -0.189629088579
C      5.322061210019    0.150143024961    1.078634993774
C      5.797476862641    1.321696944342    1.647076061802
C      4.959918347080    2.448312600041    1.729983179459
C      3.667021807939    2.389122920887    1.235484390648
H      0.448386829918   -2.265353633204   -1.251805175502
H      1.783234883783   -4.364074651215   -1.539151744623
H      4.186523660643   -4.393944336143   -0.854876081997
H      5.240863091857   -2.394099431787    0.103821024021
H      5.978608063362   -0.719722533339    1.031717390364
H      6.817250389516    1.365171840781    2.036267907496
H      5.323357773593    3.370207713226    2.190213750441
H      3.001769895425    3.252407837352    1.308823563745
