74

C      2.486496582345    3.874065144628   -1.145515451526
H     -0.435243056472    0.792891809329   -0.177679195033
C     -0.173588124875    4.963737880309   -0.220208849645
H     -0.975599146468    4.839044638438    0.508900147469
H      0.601847879826    5.699816241831    0.003365765678
C     -0.322218396936    4.476813444385   -1.507519209565
H      0.352544088863    4.796225041843   -2.304915798891
C     -1.543062015904    3.772847269892   -2.034570638333
O     -1.527483567753    3.143968899472   -3.068567675199
O     -2.616286617126    3.961289384091   -1.265664556207
Pd     0.870417258338    3.043096812469   -0.322696869061
C     -0.769601195680    2.307210109870    1.938798959401
O     -0.860909984961    2.097710011543    0.654379504819
O      0.194968260891    2.837180590245    2.478562919880
C     -1.993106640697    1.891262286898    2.788672371879
H     -1.972094040425    2.571608236219    3.649161676779
N     -3.214975656147    2.126929565163    2.034863037870
C     -4.221486219409    3.022773506959    2.277800916848
O     -5.076713616566    3.253061643829    1.432394091977
O     -0.007572866500   -0.016459731479   -0.587271118417
H     -3.187644001250    1.806692336416    1.070258738038
C      3.288191211676    4.704983317873   -0.350807792368
C      4.481144467177    5.267100352402   -0.840104756560
C      4.876710276461    4.994395085141   -2.170153871324
C      4.061924629157    4.167848896892   -2.956146040438
C      2.876727810288    3.609774527916   -2.462155837588
H      2.998236778659    4.922187854920    0.682694421974
H      4.360665129482    3.952641974105   -3.986855359028
H      2.271588751018    2.969142176431   -3.109077438027
C      5.319901665318    6.154446667444    0.047301431840
H      6.341240294337    5.756164809419    0.173724686081
H      5.431447384984    7.166329677291   -0.378725620850
H      4.874693598022    6.259130918127    1.047363111404
C      6.146254853976    5.582887868916   -2.735692912300
H      6.128670601665    6.686233763585   -2.718550643846
H      7.033955544316    5.276583601150   -2.155873293116
H      6.303119734350    5.268192173518   -3.777712358632
C     -3.867149348259    3.359029997726   -1.684540479375
H     -3.646684294631    2.377577999701   -2.129761119012
H     -4.435320395500    3.233034352648   -0.752587954215
C     -4.602984794659    4.251458374803   -2.669199761641
H     -4.038592915799    4.365320089894   -3.606982261944
H     -5.580637305572    3.803998361224   -2.909946651216
H     -4.783722684742    5.247360151274   -2.235554622166
C     -4.246656896966    3.718654763072    3.629795768416
H     -5.173385209098    4.302289015845    3.685200439822
H     -4.209416910951    3.006590977660    4.467063639207
H     -3.389648681352    4.403866188342    3.735199293325
C     -1.897658168052    0.431414651341    3.371219797047
C     -3.012395106693    0.262005426764    4.420579246911
H     -3.001899372528   -0.760968373560    4.829930723350
H     -2.878693573837    0.958515614016    5.264793217672
H     -4.006956346990    0.435482524365    3.981955463064
C     -2.085412712782   -0.626911286151    2.270161169829
H     -3.067357688834   -0.529347987226    1.781231811718
H     -1.310154002199   -0.564306153885    1.493628140279
H     -2.036378554032   -1.637411209460    2.707329230892
C     -0.533919604691    0.230313120065    4.057038108380
H      0.298160695012    0.248769718461    3.337987262517
H     -0.335979385105    1.015072442873    4.804055494941
H     -0.513177038771   -0.744203051240    4.571541943664
N      1.950143472034    1.157195533720   -0.177016653461
C      1.302566957170   -0.003758112506   -0.408483535153
C      1.995566418411   -1.231061911587   -0.477646493050
C      3.365820363972   -1.277556237431   -0.260231696629
C      4.016592326082   -0.058432370777    0.031702371465
C      3.283855694822    1.112131178244    0.054080254603
H      1.411555351411   -2.128105453113   -0.688715706438
H      5.090080564444   -0.024401995083    0.227089606338
H      3.766016812454    2.070263123537    0.248737892793
C      4.135430792937   -2.569242531015   -0.319157170613
H      4.652226330646   -2.760337716320    0.635684349055
H      3.481307336857   -3.425503533839   -0.535050405679
H      4.912356896885   -2.523430714274   -1.100185051146
