71

C      1.401980384229    2.937465181727   -2.154990342098
H      0.043800575924    1.830247235442    2.147858508524
C      0.474196984908    5.262420616697   -0.412413028546
H      0.534487453470    5.664456164361    0.604894498127
H      1.175015283558    5.632049301467   -1.164410706750
C     -0.620343728192    4.516588311785   -0.805459673016
H     -0.781530942975    4.266300903477   -1.857397915048
C     -1.835096122880    4.266890034422    0.051979052630
O     -2.551746975565    3.299058610809   -0.078754235662
O     -2.034630061251    5.258462196896    0.914131292597
Pd     1.006076336355    3.124252489856   -0.201067596602
C      0.298569790101    3.972223710552    2.846046497541
O      0.483174048644    5.175454761149    2.784802098258
O      0.719984114479    3.101105679812    1.956164646367
C     -0.474643293346    3.338248232757    4.032871231725
H     -0.801639070762    4.202138327996    4.633114020778
N     -1.690947032966    2.622311966378    3.640519214329
C     -1.737396882995    1.626639403027    2.844440633932
O     -0.683729120721    1.095495783740    2.167930180649
O     -0.022941800982    0.124344864917   -0.230750907302
H     -0.435508882300    0.563970635622    0.563038512897
C      2.417998603961    3.697118292553   -2.751319288559
C      2.749215409883    3.556296105193   -4.110902293005
C      2.032058297672    2.631156845587   -4.902459133238
C      1.014188819198    1.881544646331   -4.297253827982
C      0.693269994768    2.022569638051   -2.942080708382
H      2.985176172735    4.424254778383   -2.161536059014
H      0.452686297493    1.162525432858   -4.901963545015
H     -0.101109929773    1.410954208939   -2.508316689676
C      3.855252093875    4.389878350711   -4.711271066316
H      4.658886581465    3.759871578315   -5.129817066893
H      3.487752491346    5.017288872700   -5.541389399482
H      4.308305547027    5.057142772018   -3.963406141879
C      2.351063265402    2.453607790322   -6.366846455458
H      2.223824700836    3.393757116812   -6.930761330352
H      3.396369295472    2.135596121833   -6.522832449502
H      1.699794277818    1.697259075835   -6.828624813496
C     -3.156366420039    5.172701921837    1.824211555851
H     -4.071228167257    5.002881927219    1.233941783516
H     -3.002757678198    4.303243527431    2.482521910394
C     -3.196835786498    6.467578289167    2.607588042990
H     -3.363002715175    7.332135394448    1.945868104976
H     -4.014150484603    6.432170055697    3.344650603250
H     -2.246459857522    6.615207574385    3.142398020813
C     -3.032303716717    0.929974866521    2.535475557960
H     -3.805959580017    1.228138152579    3.252878629681
H     -3.353291997895    1.209110338285    1.517977194662
H     -2.894188097072   -0.162357304629    2.559489174271
C      0.457540328997    2.485564029832    4.943070123153
H      0.760706039131    1.593185639961    4.367917034154
C      1.725226451454    3.258297880903    5.328631241049
H      2.350109966575    2.659041330684    6.010579189089
H      2.339154332918    3.514923129779    4.451747581768
H      1.474445663427    4.200281194895    5.844690609240
C     -0.294049624824    2.013849478045    6.194472810535
H     -0.586481777186    2.873846338483    6.821166410443
H     -1.210204963259    1.464638639920    5.935163665808
H      0.342643928534    1.354957733281    6.807282650382
N      2.001476883905    1.211831619272    0.080040719170
C      1.304744770688    0.072463336441   -0.113290744217
C      1.953855601040   -1.168025692568   -0.228090699560
C      3.331769013018   -1.217326768175   -0.078627444221
C      4.035313061361   -0.039961042181    0.197274691766
C      3.344576436679    1.169754169801    0.270904770662
H      1.345277311173   -2.055275858178   -0.403479743730
H      3.860156887069   -2.171164209861   -0.152791186104
H      5.115405758361   -0.052335841210    0.349173643875
C      4.049101948372    2.466006267736    0.553187810753
H      4.046100658066    3.108640010068   -0.341932081083
H      3.534190965958    3.013226854687    1.357986366331
H      5.093491665616    2.293612436652    0.847007974365
