75

C      1.364170836671    2.881706523073    2.108257722998
H     -1.821485406870    0.374671699054   -2.813757473506
C     -0.813892330353    4.500825208335    0.725412400978
H     -1.542659585250    4.441088759015   -0.085330816416
H     -1.140888951092    4.209069993166    1.725965418969
C      0.364480390517    5.197964096247    0.551986710418
H      0.996669737881    5.440120543806    1.409130779744
C      0.765821867509    5.926853192426   -0.697901356353
O      1.909202462959    6.252509654217   -0.918721659617
O     -0.270895132364    6.196484340599   -1.495997062544
Pd     0.760306475778    3.044010929214    0.204907983702
C     -0.686186517034    2.400066071433   -2.359562072043
O     -1.211876193214    1.437335855184   -1.721898192742
O      0.144210227503    3.208104106324   -1.864469025106
C     -1.108364455550    2.622319160298   -3.825094459338
H     -0.534564176788    3.504087059135   -4.150035711795
N     -0.743316439523    1.535414848607   -4.727086699352
C     -1.147282769190    0.327692502096   -4.607385345228
O     -1.871931987386   -0.214965271354   -3.613794603606
O     -0.109157995260    0.013169372128    0.084165023378
H     -0.567360101097    0.686231631576   -0.533369613606
C      0.640140756174    2.069433971163    2.990962223686
C      1.035264606634    1.897516832034    4.328641925864
C      2.196082103131    2.556369963758    4.796965630308
C      2.916667510527    3.359018553846    3.903515068128
C      2.514356686962    3.528649805431    2.572423134502
H     -0.246981377384    1.534129723524    2.638922796572
H      3.818382355683    3.870084764482    4.255399337255
H      3.110630015722    4.166040894123    1.912706037870
C      0.227770584413    1.013374221015    5.247633827265
H      0.833979679055    0.184127650250    5.651045875497
H     -0.153906984872    1.572565039885    6.119253902481
H     -0.634900561771    0.574456864698    4.725893432037
C      2.652819101182    2.397341713193    6.226685049982
H      1.884111241098    2.736194487750    6.942451534308
H      2.865006693573    1.342821659846    6.473859895782
H      3.567716597761    2.976074360473    6.420903977085
C      0.024592925622    6.814948684919   -2.763653632829
H      0.744668313403    7.631230239169   -2.600540224152
H      0.515103279267    6.062337445967   -3.402143059556
C     -1.275104451602    7.308207821118   -3.362649015306
H     -1.750937793077    8.058067889104   -2.711805336794
H     -1.081656670363    7.774027063566   -4.341416872658
H     -1.983394353733    6.479260320280   -3.511985748985
C     -0.840712612187   -0.679709807544   -5.684138576827
H     -0.237255770529   -0.221305791759   -6.475905535701
H     -0.310158428230   -1.544864146952   -5.254749204631
H     -1.783664131438   -1.062331677159   -6.108830781168
C     -2.613094642570    3.003963379666   -3.868081465814
H     -3.224214071095    2.095222173011   -3.734942687311
H     -2.820548540803    3.642244329739   -2.990679044649
C     -3.076748688308    3.774177863691   -5.120592776254
H     -2.415964994884    4.657201267973   -5.220170584131
C     -4.508910058760    4.289148109234   -4.915953259861
H     -4.590924357270    4.927453509970   -4.020482993428
H     -4.848372467405    4.880002957013   -5.782255435386
H     -5.214441207082    3.449690518288   -4.790480220970
C     -2.971013463234    2.969439586104   -6.422452569823
H     -3.305887847850    3.574989963329   -7.281237062369
H     -1.941363191417    2.633612554865   -6.607157623116
H     -3.610884819421    2.070692452260   -6.379905725930
N      1.834524105949    1.234872463713   -0.155737169818
C      1.199605794761    0.060491437915   -0.045682668801
C      1.942319766094   -1.164436568381   -0.042661278458
C      3.320723710158   -1.106758010525   -0.208388030616
C      3.947531342693    0.143450633757   -0.366891785824
C      3.179053280428    1.287947733695   -0.329614524386
H      3.917466251655   -2.019027415274   -0.229774798164
H      5.026869956788    0.212988938729   -0.508801043393
H      3.618250273146    2.281840300527   -0.426368957076
O      1.207548373628   -2.281392186172    0.108420868639
C      1.858761353158   -3.533057289483    0.101604647533
H      2.588319563123   -3.619139932320    0.927221622763
H      1.076294727317   -4.291160300835    0.235028924292
H      2.378484258911   -3.717657687832   -0.855990558239
