74

C      1.897456010297    3.149563067931   -1.844386800138
H     -3.028757265784    0.571567107835    2.718079850470
C      0.302067338270    5.133006128702   -0.128129632316
H     -0.015863401336    5.328140060294    0.898406598747
H      1.201556928680    5.633195113153   -0.493992836978
C     -0.560485231462    4.520347762892   -1.014137635262
H     -0.334093625893    4.493250486166   -2.082451870712
C     -1.990177713950    4.157075801010   -0.727213376325
O     -2.654741910921    3.505117756271   -1.499155790048
O     -2.437314569719    4.671768996463    0.423038519503
Pd     0.824271128042    2.990134099457   -0.161252340464
C     -1.046182543575    1.969411357259    2.024663574043
O     -1.292752077161    0.940237981784    1.349536568698
O     -0.237268027697    2.888521260874    1.710023236562
C     -1.792514172001    2.132410032301    3.361736971571
H     -2.021510309770    3.198744075341    3.492823446071
N     -3.060247058570    1.427973536062    3.263070366357
C     -4.265172878343    2.026767581770    3.488253535569
O     -4.377878378847    3.167170787080    3.918560615318
O      0.139002665720   -0.084355749499   -0.430296973605
H     -0.469570731557    0.449760904912    0.223351369446
C      3.045489027168    3.950538748710   -1.902335963863
C      3.827414077404    4.044171687559   -3.067476255452
C      3.444533544695    3.312584448460   -4.214478711485
C      2.295511650506    2.512762753887   -4.145516258308
C      1.524624297233    2.422833865595   -2.980675208235
H      3.365324094288    4.522676993657   -1.024759134214
H      1.992566120552    1.940494347246   -5.027919087799
H      0.639509122162    1.780825068430   -2.969168787472
C      5.058074943798    4.918133418053   -3.086744398339
H      5.967670814244    4.336721295905   -3.316145110931
H      4.988574868263    5.703523672421   -3.858936405164
H      5.214232475840    5.415161919831   -2.117951026874
C      4.252773413146    3.388280885999   -5.486978169832
H      4.309355497263    4.419662579640   -5.875896418667
H      5.293889518811    3.056078393477   -5.332135154713
H      3.815703668929    2.758523701420   -6.275584243341
C     -3.819756062451    4.430263499560    0.775976216118
H     -4.092022078288    3.419139266468    0.439992677356
H     -3.846531930691    4.462897094913    1.873005689672
C     -4.735465805390    5.475133083750    0.162061240580
H     -4.732255452695    5.412261341190   -0.936547082075
H     -5.767149944091    5.311359079065    0.512093993376
H     -4.431530852035    6.490144904961    0.462265939231
C     -5.482398772267    1.176845001154    3.156075603542
H     -6.204670347179    1.261730203225    3.980525494066
H     -5.966950879703    1.585831312480    2.254973427766
H     -5.245815523136    0.117109821972    2.982074935398
C     -0.939653096596    1.678966976473    4.604764610058
C      0.333825190789    2.537223937418    4.713877611478
H      0.886270174920    2.271377374516    5.630006314707
H      1.004752698377    2.393959476044    3.855368962151
H      0.088341078917    3.610049486460    4.768162482251
C     -1.787283446124    1.891550931056    5.873617183257
H     -2.115129977780    2.938254516310    5.966951675188
H     -2.688022126480    1.260172120850    5.867115438765
H     -1.200063449672    1.631601038826    6.769508027242
C     -0.555751440844    0.192418310696    4.491432508323
H     -1.449664324455   -0.447686191160    4.422662756604
H      0.068217557941   -0.006523593938    3.606443771209
H      0.010247713948   -0.125020400091    5.382356877044
N      1.939471059921    1.207738626008    0.212554391868
C      1.407872883141    0.005498293469   -0.105960750169
C      2.219360584783   -1.152099485177   -0.118150124812
C      3.560594390249   -1.084714059481    0.234403733394
C      4.073982849874    0.178701755847    0.605766981958
C      3.241225510445    1.280057084477    0.570009795661
H      1.742142158394   -2.092999580254   -0.396552570322
H      5.117425061855    0.299437642886    0.903034951207
H      3.617220023596    2.274548453407    0.818832518152
C      4.442915431100   -2.304198007068    0.235465001684
H      4.882398171482   -2.469559537944    1.232923746627
H      3.888514585219   -3.208699151170   -0.051230561674
H      5.282652199653   -2.177630708240   -0.467892181897
