65

C      2.473893246855    3.593899701232   -0.804547361622
H     -0.031823850449    0.475131436097    1.804693690512
C     -0.020927169802    4.301667780436    0.875572554944
H      0.740607717147    5.019160746213    1.190282098653
H     -0.600877562076    3.801230706139    1.656393349175
C     -0.453388684438    4.304779324553   -0.435161563779
H     -1.358343106744    3.753562878202   -0.716943069425
C      0.054092216614    5.323671754495   -1.415107749385
O      0.668025412520    6.320098705954   -1.119869585972
O     -0.308213165021    4.999827398725   -2.664747501780
Pd     0.904006769211    2.558397439088   -0.134473072172
C     -1.969511464283    1.529916367740    0.763336645029
O     -0.727250431868    1.185092203710    0.450237077354
O     -2.673200500603    2.242129799003    0.073039912782
C     -2.432922409855    0.953844660357    2.118732254499
H     -2.204308365617   -0.131432444083    2.070126260979
N     -1.697175897896    1.564593498973    3.229702086699
C     -0.485098863574    1.251535445438    3.484140367613
O      0.317280189913    0.461331766076    2.737114757225
O      0.077956159996    0.254273316365   -1.897794676774
H     -0.397347497358    0.673385765578   -1.121817400021
C      3.244650484158    4.431965999030    0.010535085050
C      4.351592484870    5.136225110408   -0.490962874785
C      4.696747249299    5.000953329271   -1.855484070583
C      3.918919855981    4.160099576020   -2.661584724236
C      2.818853211552    3.457897358103   -2.152898431663
H      2.995531925214    4.556879821920    1.067852248043
H      4.179887628752    4.044773267909   -3.718307013020
H      2.241069244163    2.813901148839   -2.820921107796
C      5.150881549339    6.036037715820    0.419249124473
H      6.212996763960    5.739354341661    0.458187698895
H      5.130219578248    7.082657827276    0.070546038054
H      4.759112220221    6.019727727222    1.446625549082
C      5.872578672964    5.748791866564   -2.434130913306
H      5.753027662476    6.840707110656   -2.328421006051
H      6.815738292603    5.487363068081   -1.924192876062
H      5.999483062938    5.528674701369   -3.504198376087
C      0.098541942719    5.900457051871   -3.711025709343
H     -0.267647573229    6.911257889485   -3.469203487507
H      1.199668692161    5.947448353384   -3.722543418637
C     -0.466104237258    5.386679051060   -5.018558377027
H     -1.565162329662    5.337856279590   -4.981368110172
H     -0.176975382431    6.059382535308   -5.841036488076
H     -0.084788906866    4.379265893035   -5.245638482968
C      0.198889010461    1.756226587328    4.724695864433
H      1.050781149905    2.404561188706    4.460033548974
H     -0.511374258274    2.312702286623    5.347120347410
H      0.608031161949    0.905824393513    5.294004640294
C     -3.928671581593    1.150214946658    2.334717891664
H     -4.511801895712    0.665098811605    1.537527651655
H     -4.222677419654    0.725425373262    3.305981983233
H     -4.171420525916    2.222342719174    2.333736808556
N      1.917945474078    0.681517766264   -0.568620944436
C      1.315238791510   -0.049627112938   -1.532319690185
C      1.972963982504   -1.123465127224   -2.160316350048
C      3.234554150355   -1.475438605848   -1.710827089176
C      3.803830901768   -0.784442763816   -0.632815620230
C      3.120696815039    0.290843526595   -0.067371934041
H      1.452910640492   -1.660185671379   -2.954020615624
H      3.768020130534   -2.310659473457   -2.171773977748
H      4.770365400199   -1.080612686717   -0.223681567093
C      3.652736933878    1.015730401382    1.133795138019
H      3.880392300737    2.064680261507    0.894621211785
H      2.894343403661    1.005652165475    1.933755551422
H      4.566981960793    0.534397803494    1.506362987079
