38

Pd     1.102528772679    3.046472707988   -0.107092329542
C     -1.713140826284    3.357352899058    0.028619920732
O     -0.802760236318    2.396459944040   -0.126021144866
O     -2.885382961706    3.122036544448    0.196720804591
C     -1.184250731480    4.829571556259   -0.030834447561
H     -1.500486466208    5.299373105171    0.917947693111
N      0.260785418488    4.777070016472   -0.114694222036
C      1.328084051700    5.519327652721    0.105324449061
O      2.421635324578    4.848047558864    0.078849861080
O      0.083337764689   -0.041913810082    0.025561465207
H     -0.376325937046    0.845757075867   -0.012491922293
C      1.330747373237    6.999488665601    0.349949392542
H      1.654003405048    7.521338414721   -0.565405722386
H      0.337137350350    7.372550776290    0.635309117342
H      2.059437902101    7.233290489364    1.139590293486
C     -1.790359793698    5.614731795428   -1.217917283781
H     -1.306717942443    6.608795396725   -1.223748448126
H     -1.469823807743    5.116170597001   -2.148908530714
C     -3.318289149450    5.811723428877   -1.239247584297
H     -3.784645905047    4.816238517552   -1.307423527658
C     -3.710417076299    6.611933170678   -2.488701286051
H     -3.354611097338    6.124114679543   -3.411032444159
H     -4.804775735836    6.713968406677   -2.565701432247
H     -3.282627171425    7.629788955719   -2.464092839606
C     -3.850168385753    6.479279749845    0.035139103877
H     -4.929210138482    6.683762865885   -0.054499303170
H     -3.717054491547    5.832640133605    0.915436873479
H     -3.347025098671    7.443885602318    0.228288535665
N      2.064795087291    1.180728691715   -0.046409671993
C      1.397222613363    0.005979759123    0.010865251898
C      2.105389263200   -1.218773429981    0.058070072830
C      3.487498493036   -1.208570792403    0.045826614248
C      4.171870655789    0.018944538946   -0.012474454696
C      3.419507161403    1.178114785307   -0.056138145009
H      1.524409711354   -2.140484082499    0.103254684226
H      4.041191700963   -2.150195849082    0.081790795056
H      5.261076485918    0.071265998310   -0.022979456676
H      3.890744005653    2.163872652230   -0.100081088674
