65

C      2.554540809765    3.937396566787   -0.856832787077
H     -0.872887210360   -0.832230619946    1.402750554368
C      0.130096494075    5.113381806425    0.596928808811
H      0.939837069817    5.836916766735    0.720987198237
H     -0.440518196811    4.775639089382    1.470034080346
C     -0.339533029588    4.857455091209   -0.675668751055
H     -1.272874588360    4.307555260615   -0.826498394364
C      0.166642536077    5.622721766936   -1.863961944645
O      0.855708845856    6.611039471144   -1.807573686758
O     -0.285060558279    5.080165461196   -3.007030356426
Pd     0.921317447599    3.140070840163   -0.046143857324
C     -1.640049737373    2.290371337567    1.723336702645
O     -0.869238939919    2.126963712202    0.664286514680
O     -1.729521756089    3.327163070986    2.348676763191
C     -2.444594112734    1.035520167922    2.121971800686
H     -2.501569956289    0.344389596986    1.256831550229
N     -1.919323795791    0.441957181879    3.334687270226
C     -1.188684361564   -0.599936274045    3.319972735171
O     -0.747166785814   -1.303535002827    2.244793027803
O     -0.048719241673    0.029666763837   -0.218146155379
H     -0.494952305438    0.943631310693    0.123004756883
C      3.433054133188    4.740625549555   -0.119471497826
C      4.612941614569    5.254067739884   -0.684729338433
C      4.919733398441    4.956474369159   -2.032667265775
C      4.032856725862    4.151270165248   -2.759376841244
C      2.860560759484    3.640939352628   -2.188660562713
H      3.213625606790    4.984839873849    0.924240671796
H      4.265602723477    3.910648142608   -3.801534667559
H      2.200103675193    3.011562971678   -2.791164008223
C      5.530659639268    6.123304972160    0.139565171068
H      6.547748942714    5.699953184936    0.202089453923
H      5.637225983906    7.129293999525   -0.301143308837
H      5.154099497809    6.246537611420    1.165347591806
C      6.171588816610    5.497274045044   -2.678747803085
H      6.188040953811    6.600695232174   -2.674736861418
H      7.081900327486    5.169666589975   -2.147760805815
H      6.257346598263    5.166143507330   -3.724026717829
C      0.110729224450    5.729472262863   -4.229091016084
H     -0.191639263662    6.788099440096   -4.181271209296
H      1.210599899739    5.710035464284   -4.295911610702
C     -0.545572633055    5.000939775641   -5.382865001643
H     -1.642541372465    5.026970481572   -5.293589482447
H     -0.265292929263    5.477965076574   -6.334888193592
H     -0.228044139702    3.947373843586   -5.418601674873
C     -0.715695302429   -1.230729230125    4.599223067461
H      0.385811182844   -1.249154598936    4.629379000350
H     -1.105423141638   -0.669341441540    5.455825618767
H     -1.056863629859   -2.277661165393    4.649385824648
H     -3.469493202508    1.381838612494    2.332229397179
N      1.924341910926    1.198782368639    0.057633851994
C      1.260421085679    0.047265442309   -0.110153272423
C      1.950336735358   -1.220555167099   -0.183957501909
C      3.363259694737   -1.241490028512   -0.011022259107
C      4.019194702756    0.002353954187    0.224144003651
C      3.288797232895    1.156292085900    0.239305339819
C      1.248976344113   -2.428887423988   -0.418381074916
C      1.935247380833   -3.626877734534   -0.481861627029
C      3.338946591104   -3.653145642557   -0.308527762692
C      4.041473906710   -2.485621625949   -0.076682633697
H      0.167276139104   -2.395893180305   -0.548423886243
H      1.393480090636   -4.558006565760   -0.663010939231
H      3.870518274474   -4.607021280670   -0.357851480734
H      5.125849767444   -2.505835300769    0.057712463758
H      5.098750664082    0.040251875377    0.379629314364
H      3.770392692350    2.120444258940    0.390469400143
