83

C      1.380236668888    2.796504293572   -2.107226123444
H      0.089364567160    1.807040443759    2.176847092883
C      0.506398788187    5.160398750102   -0.387257207471
H      0.589673185044    5.575863511383    0.623078164551
H      1.202568633935    5.509171495154   -1.154169052380
C     -0.602308027212    4.422850657954   -0.757280493063
H     -0.777556377115    4.165314636275   -1.804926125935
C     -1.811978882535    4.186720783006    0.109469793470
O     -2.551034604708    3.237646952318   -0.033215095983
O     -1.983786205082    5.164444758478    0.994651127663
Pd     1.013953949387    3.021502751491   -0.154415767963
C      0.361288087279    3.948786014393    2.881794654965
O      0.638187812286    5.135525860573    2.818910727510
O      0.753727681174    3.051471826579    2.007858453044
C     -0.510534585467    3.413797000579    4.053262587379
H     -0.968828014808    4.332996934894    4.450189378189
N     -1.632641693101    2.546436340596    3.702572578056
C     -1.667180051966    1.546554608577    2.914546739719
O     -0.632565083878    1.057959190752    2.181445005061
O      0.015151038878   -0.054485526305   -0.118528908100
H     -0.368219507687    0.473625046950    0.641801085368
C      2.502979237297    3.411729992080   -2.674584206667
C      2.828848321040    3.244381154815   -4.032006188263
C      2.000173422710    2.439139247526   -4.846335766113
C      0.879588180366    1.829889282924   -4.266164266634
C      0.561048092505    1.999278074969   -2.913266617839
H      3.163451132011    4.030466401332   -2.059351161072
H      0.233488785675    1.202521986742   -4.888122135930
H     -0.318658058747    1.499482724785   -2.500137149675
C      4.051335907401    3.918975164175   -4.605344040812
H      4.763045701975    3.185315309084   -5.021326756686
H      3.790044013166    4.602581782900   -5.431356145872
H      4.583165306480    4.504335159425   -3.841187291998
C      2.313509089428    2.237062935117   -6.308818474838
H      2.328808183687    3.192872808748   -6.860413259409
H      3.305945351826    1.776855434261   -6.455092578609
H      1.569548126993    1.585899000330   -6.790528659904
C     -3.115484117844    5.091369797904    1.893267154497
H     -4.025357249609    4.926279401774    1.294364310860
H     -2.978243662266    4.221041389369    2.554267142961
C     -3.155698375123    6.390305554596    2.670282351069
H     -3.319425045054    7.251086882199    2.003157087565
H     -3.974634133173    6.360328294280    3.405735099668
H     -2.206630715811    6.543117314867    3.206098745762
C     -2.942465086496    0.783225153038    2.681995304701
H     -3.693009387714    1.056722989037    3.432844039899
H     -3.327194057909    1.029961335668    1.678048349266
H     -2.752591630668   -0.301184412511    2.712645601943
C      0.348848248641    2.860584743820    5.255327345209
C      1.325675789957    3.958847241510    5.718425993961
H      1.875697422410    3.619369841657    6.611373804814
H      2.063637972306    4.212575470355    4.943027962160
H      0.793143048578    4.886804017526    5.980553791703
C     -0.607965813166    2.528517496231    6.416880115650
H     -1.186549893925    3.416164095628    6.720631311754
H     -1.324782710944    1.743772184743    6.137144783136
H     -0.036306148815    2.181584446743    7.293523181917
C      1.150558294741    1.600746159036    4.880639928614
H      0.496755293163    0.776190131273    4.560548314496
H      1.866193804726    1.802205251958    4.069242456651
H      1.723710750688    1.249443750470    5.754582835171
N      1.995373370026    1.092185938718    0.101084614930
C      1.339160681167   -0.023978602032   -0.134793156294
C      2.014443286601   -1.264181982899   -0.469462688067
C      3.433569084998   -1.289760541441   -0.488835714293
C      4.148036609205   -0.077302443237   -0.117222331141
C      3.387013083815    1.086251840594    0.181965228316
C      1.268284550051   -2.424357439374   -0.776077847996
C      1.918231367109   -3.596838997541   -1.122263050346
C      3.325872499686   -3.629546091103   -1.158503788744
C      4.069086490534   -2.501362205218   -0.845853444020
C      5.556877455576    0.001394602338   -0.027942533936
C      6.192219453942    1.174368397729    0.348047642956
C      5.430670692782    2.316189885138    0.656401585844
C      4.048374559233    2.271056815344    0.574019864169
H      0.180187275422   -2.369955694345   -0.738841000253
H      1.343063945159   -4.493251323932   -1.364923312107
H      3.840186293883   -4.554275907912   -1.432282503811
H      5.157550988518   -2.557320984350   -0.878047642952
H      6.160121177039   -0.879351117558   -0.251894606277
H      7.282188294829    1.207630835739    0.412836972485
H      5.925152428731    3.238672845649    0.969633896851
H      3.445908879729    3.144481324804    0.834273439127
