71

C      1.395730427144    2.885472819157    2.141534730999
H     -1.924069378648    0.398307700939   -2.764622186536
C     -0.789724297390    4.465958932306    0.715648063950
H     -1.497139414472    4.404588992499   -0.114344900689
H     -1.138585492752    4.168521664067    1.707285173681
C      0.386404132430    5.174263523514    0.575283254513
H      0.994054197177    5.419684766970    1.449369569034
C      0.815464414386    5.908771588475   -0.664456010405
O      1.965928610403    6.224488458297   -0.860565328857
O     -0.204756446990    6.188977989885   -1.475665090920
Pd     0.814360268233    3.024414061863    0.231151192719
C     -0.623802542282    2.361320291306   -2.335023370414
O     -1.100234242193    1.364348344556   -1.705558163974
O      0.209064756028    3.166433868138   -1.845374231317
C     -1.088335375350    2.628527992425   -3.778976620941
H     -0.409462990384    3.420118917547   -4.128128516640
N     -0.944658651067    1.533193566698   -4.736074018568
C     -1.472869187425    0.374173200528   -4.620073755715
O     -2.129648521123   -0.141779087417   -3.569998367064
O      0.067143808596   -0.086931815372   -0.022260241071
H     -0.408372647664    0.625687318538   -0.604570662808
C      0.644289417754    2.110458938907    3.033902950101
C      1.038455769559    1.938546827260    4.372222500682
C      2.223706739077    2.561607435339    4.828726975029
C      2.967371877839    3.331426915339    3.925204569073
C      2.567108931973    3.501278148026    2.593386573886
H     -0.266917859113    1.608219764373    2.693951073542
H      3.886352437350    3.816243070980    4.268532058217
H      3.179976079198    4.115457673801    1.926848601862
C      0.203871803650    1.094538580307    5.304174592566
H      0.781607120004    0.247993759987    5.712968909277
H     -0.151113577731    1.676886483080    6.171641722055
H     -0.678026356045    0.682543009786    4.792653504878
C      2.680817156617    2.401193435718    6.257921519001
H      1.926960533905    2.773704850946    6.972527926460
H      2.857274894931    1.342436528140    6.514105490482
H      3.615916168005    2.949529754069    6.442545674482
C      0.111204552098    6.833999516416   -2.727439533483
H      0.806249141003    7.664259339296   -2.529110759376
H      0.640826421626    6.103707149146   -3.360551854097
C     -1.182637381544    7.302202803851   -3.357497339946
H     -1.698663750028    8.025071351483   -2.706700006419
H     -0.968567156399    7.796682257510   -4.317937077688
H     -1.861142976207    6.457556388010   -3.549097041246
C     -1.408841811843   -0.595536471263   -5.769700568019
H     -0.878176539634   -0.146632967629   -6.616869742125
H     -0.907771355235   -1.525481076722   -5.455939261277
H     -2.432584587536   -0.869810534114   -6.073277789462
C     -2.504381454319    3.218495442819   -3.835172872548
C     -2.835281451039    4.001550587344   -4.954916615101
C     -4.115760659328    4.536689580873   -5.104337639249
C     -5.092924321279    4.300548121189   -4.130885640177
C     -4.776014286736    3.523491610996   -3.015219397024
C     -3.493358419958    2.981658547676   -2.868886311368
H     -2.076794167389    4.179681464748   -5.721788594980
H     -4.352473539127    5.141764750309   -5.983636647948
H     -6.095763192639    4.720451930451   -4.243670011238
H     -5.532326054175    3.330321884271   -2.249734368841
H     -3.267133735229    2.369948941824   -1.994381814462
N      1.957965013371    1.232430830639   -0.098985323286
C      1.367598396474    0.011787772025   -0.031467895000
C      2.154435944684   -1.165530491823    0.054772878835
C      3.529441527235   -1.074694520803    0.016502437100
C      4.104299891305    0.200247829426   -0.106423081647
C      3.297249430868    1.325616176129   -0.151386708515
H      1.634534802105   -2.121061766821    0.126335440280
H      4.174656109323   -1.952323470750    0.065184012476
H      3.744840765398    2.317838977808   -0.214702798714
N      5.561343088460    0.355691874384   -0.164102862841
O      6.004706493301    1.487245101653   -0.275860781318
O      6.231914871047   -0.661869044656   -0.095015432287
