71

C      1.373914988056    2.926358435644   -2.139232338394
H      0.009565505927    1.811516013465    2.169210244334
C      0.479829274963    5.256547421435   -0.382034404507
H      0.551064537151    5.645513595823    0.639803737298
H      1.190549755025    5.614011061393   -1.131039511883
C     -0.629525876404    4.537563329410   -0.781646099117
H     -0.794516085610    4.300100417867   -1.836003347482
C     -1.847396431673    4.296020174736    0.073764119457
O     -2.574187680136    3.336912528818   -0.065124897893
O     -2.035624960992    5.281984244040    0.944497694642
Pd     0.966182961661    3.103294738814   -0.190143078356
C      0.274829556659    3.945474286605    2.862319615898
O      0.476227989436    5.146144220760    2.806519312043
O      0.675586285314    3.073349808959    1.963951196968
C     -0.499724093789    3.316400263308    4.050814427419
H     -0.819795907852    4.182454774793    4.651614604107
N     -1.721679299638    2.609317610996    3.658796530188
C     -1.770117379430    1.609210562306    2.868319013895
O     -0.713842918724    1.068917270255    2.203473063264
O     -0.009288699968    0.011171677772   -0.131784204904
H     -0.428141327715    0.479096295106    0.643369701500
C      2.468964316130    3.606698083768   -2.687534954470
C      2.823589146241    3.468478132050   -4.041339258081
C      2.052131647485    2.625277052945   -4.873016036163
C      0.959653101327    1.949480787733   -4.312470139160
C      0.614345627767    2.088600385061   -2.962931430011
H      3.082007811656    4.262933202693   -2.060933454238
H      0.358679408765    1.291708901380   -4.948152671307
H     -0.238437692518    1.533924824298   -2.563579935533
C      4.012269058364    4.217298373332   -4.593547330768
H      4.769540958148    3.530571421830   -5.009413245634
H      3.721540888082    4.893736555984   -5.415591561487
H      4.501097228831    4.824986423664   -3.817966450113
C      2.394547930950    2.454360502447   -6.333007658376
H      2.359603844545    3.414059808148   -6.876976297086
H      3.414159021370    2.054941487338   -6.471056352207
H      1.696094433619    1.764655801879   -6.828969723873
C     -3.154993025421    5.197076434462    1.857602268350
H     -4.073928088060    5.045705179231    1.268597404562
H     -3.009428341887    4.317066839371    2.503711230564
C     -3.177536808355    6.481836755693    2.658146264726
H     -3.336098452251    7.356918231829    2.008478289734
H     -3.992461279932    6.446138595851    3.397841110353
H     -2.223426605967    6.611322385302    3.190993574960
C     -3.067753414980    0.920064824173    2.554170205537
H     -3.844150042092    1.227240816844    3.264795212261
H     -3.380404504077    1.196408122191    1.533234520029
H     -2.937803489019   -0.173143377870    2.584247483247
C      0.428541955024    2.458051702886    4.959914810904
H      0.722533340709    1.561806124495    4.386278314000
C      1.703894556846    3.221179673775    5.339310467461
H      2.324580982034    2.619153838658    6.022739494203
H      2.318002500155    3.467967892610    4.459807986717
H      1.462658838654    4.167624214919    5.851790705973
C     -0.323717516233    1.995751758063    6.214450216729
H     -0.606545520326    2.859617328482    6.840251709144
H     -1.245588466289    1.454293717544    5.958937528944
H      0.308629026466    1.332320775886    6.826897712242
N      1.971356467614    1.211471165846    0.051939973336
C      1.320221445488    0.039537860887   -0.068149937322
C      2.041557567978   -1.165533926651   -0.173398843889
C      3.424406840630   -1.141218841607   -0.109709350598
C      4.107546898219    0.078339519297    0.067901959980
C      3.319512296592    1.222328584837    0.136796782705
H      1.477676185561   -2.092219086855   -0.285095326462
H      3.987999329646   -2.075911321440   -0.183678768331
H      3.782624884828    2.205594923878    0.249948197840
C      5.609275522819    0.145506627718    0.167565292092
H      5.960087152097    1.182091212356    0.275961238698
H      5.977625209275   -0.425825851271    1.035737192894
H      6.088643163979   -0.280623896125   -0.729043432197
