84

C      1.928115087672    3.345105099559   -1.846969963855
H     -3.394682559496    2.076122865732    3.886139721310
C     -0.142930899899    4.997055054978    0.044182561483
H     -0.661644684545    4.915634745811    1.003328393314
H      0.609577508872    5.784160121741   -0.054217871879
C     -0.601044720440    4.357017746692   -1.087108470305
H     -0.209231742609    4.628850524236   -2.068024593751
C     -1.832387608946    3.513975210009   -1.210188449585
O     -2.245106987235    3.138030079977   -2.282228090765
O     -2.421602602286    3.232369711090   -0.036097254993
Pd     0.973977748236    3.060523074096   -0.118329119305
C     -0.697506644793    2.064936082955    2.408216199151
O     -1.165406707513    0.997676974975    1.844771664156
O      0.165060523544    2.807407251955    1.932980468781
C     -1.289969013729    2.391355656789    3.786020615372
H     -0.743782451322    3.277647217087    4.136906841246
N     -2.688594565992    2.770456638615    3.674031234787
C     -3.067987672771    4.066548023269    3.433750843086
O     -2.260839855654    4.948932307595    3.196533922358
O      0.114712484015    0.256864952697   -0.143813215386
H     -0.643325661913    0.739751511377    0.953020347678
C      2.764329952941    4.454709870008   -2.018115330392
C      3.461880781317    4.672752671564   -3.219043986404
C      3.307971676089    3.754671708926   -4.282408195770
C      2.460369486999    2.653856984511   -4.099068295130
C      1.772803212747    2.439115563075   -2.899281205571
H      2.899157191491    5.177530475994   -1.207425343036
H      2.332014194252    1.939293162137   -4.918018149624
H      1.118330126361    1.570027807466   -2.799851183026
C      4.364462351708    5.874162783818   -3.362774964475
H      5.407342053799    5.576812535390   -3.567915357718
H      4.054000770216    6.520544341508   -4.201701530943
H      4.365915958340    6.487842096357   -2.449913297307
C      4.038795836566    3.952690434277   -5.588077247303
H      3.775272707069    4.912739653508   -6.064749423441
H      5.133457015307    3.964395246039   -5.446958103452
H      3.803544181191    3.150330369121   -6.302557181243
C     -3.578589578201    2.370918146998   -0.077304018955
H     -3.395583208936    1.574158086368   -0.812899791578
H     -3.617481842215    1.926281057233    0.925765983405
C     -4.848832794627    3.136196453041   -0.408321285979
H     -4.803580295742    3.549470454253   -1.426112213419
H     -5.715371072221    2.457397137477   -0.353574788516
H     -5.012988245473    3.960731675890    0.302742092392
C     -4.561026461904    4.336380395550    3.517660010052
H     -4.766959280723    4.880976638231    4.452916687875
H     -4.846377753086    4.994773631483    2.685593085666
H     -5.179192774152    3.426766767601    3.497195929982
C     -1.102496050684    1.208888488087    4.757356274908
H     -1.598413607470    0.322596533445    4.330745279189
H     -0.025280754111    0.974868250141    4.789641061619
C     -1.617445111382    1.479871920569    6.154680501499
C     -0.982493987315    2.417552840071    6.986366448510
C     -2.746830962197    0.809624560349    6.648586211524
C     -1.465715029837    2.680370567979    8.269723570725
H     -0.095717159421    2.947169866770    6.625794064322
C     -3.234304659192    1.069535305637    7.934007835286
H     -3.245583521394    0.062993330926    6.022778926815
C     -2.595609741011    2.007670221439    8.748054054800
H     -0.955923251970    3.411999220414    8.901930489161
H     -4.113456482091    0.532992716662    8.300372913977
H     -2.972571883143    2.211850855382    9.753373647486
N      2.115059492642    1.302386880151    0.138991834183
C      1.380268644323    0.190888906003   -0.032195095080
C      2.057079492495   -1.113437380233   -0.110640320175
C      3.462336503540   -1.200754474326    0.046811339066
C      4.205640528245    0.024933630783    0.318771482350
C      3.484566325097    1.252894024714    0.357219849646
C      1.288983697451   -2.269900637902   -0.354068777028
C      1.900171188667   -3.510768477172   -0.450471623971
C      3.295840171458   -3.608920759311   -0.300819158732
C      4.061837505902   -2.477688600909   -0.056597545175
C      5.597528575744    0.051893177342    0.557229948733
C      6.266703891002    1.235742560976    0.831017579979
C      5.547272543882    2.442094561392    0.880646624726
C      4.180796768926    2.447404749504    0.648486112855
H      0.210694016431   -2.150412212246   -0.468124357033
H      1.304550610091   -4.406423843223   -0.643188760743
H      3.784415651225   -4.583902687957   -0.378033834119
H      5.141807288183   -2.583802161050    0.053296438181
H      6.163154849791   -0.880840592567    0.532596579920
H      7.343844419653    1.227040688171    1.013115247292
H      6.061777321251    3.379708666519    1.105945757522
H      3.613380248574    3.378487976787    0.694200431458
