42

Pd     1.158629507346    3.100208729517   -0.192389729250
C     -1.626961379314    3.512315606613    0.089965586018
O     -0.768944057524    2.516440147652   -0.111640167338
O     -2.804530107861    3.341202510436    0.286034616914
C     -1.034916748085    4.964648016648    0.023700765283
H     -1.255598228472    5.431130989832    1.002068256457
N      0.391484149512    4.878971870696   -0.208691753895
C      1.490320972008    5.530721016765    0.151377154656
O      2.549123315718    4.815211611294    0.052588718854
O      0.035319855144    0.046371442470    0.039688828053
H     -0.395274229761    0.947361243036    0.003734432561
C      1.561247593013    6.948669309105    0.630014318073
H      1.894165723817    7.596028715010   -0.196424980537
H      0.586838632091    7.319336488151    0.975057302688
H      2.307184066995    7.016334691662    1.434893904662
C     -1.805990215215    5.735524289856   -1.077151635193
H     -1.621359560198    5.231418340992   -2.038882839990
H     -2.873160302882    5.607103561076   -0.839823781877
C     -1.461329481567    7.201526501119   -1.188568638596
C     -2.019098485682    8.139424431372   -0.302476910774
C     -0.565357812631    7.662051552911   -2.166385449119
C     -1.684107277096    9.493578067734   -0.383976681764
H     -2.732665424066    7.803882257447    0.456407875162
C     -0.229839174461    9.017086100686   -2.253780243528
H     -0.129514290208    6.948341986091   -2.871013716191
C     -0.785363026660    9.937221056625   -1.360088298002
H     -2.133074414468   10.207426787508    0.311761460205
H      0.465228110356    9.355639421408   -3.026833768952
H     -0.526586990944   10.996928245224   -1.428615238052
N      2.053171665399    1.204897922101   -0.096686153888
C      1.351135635636    0.057292662206   -0.001055639284
C      2.029025048160   -1.183444181616    0.058554980386
C      3.408583063088   -1.209560535546    0.020672848182
C      4.148507725683   -0.009237235302   -0.075722574860
C      3.408360060693    1.162021499503   -0.129675314531
H      1.427682546851   -2.090042169883    0.134372746651
H      3.932569427574   -2.168821305664    0.066801836212
H      3.902725152683    2.135282546281   -0.202318796286
C      5.654583691406   -0.000348678626   -0.117051242073
H      6.048482025846    1.023875458013   -0.190017015598
H      6.083274983772   -0.461441674901    0.788305292224
H      6.035383989542   -0.569167789650   -0.981660048857
