61

C      1.354935970128    2.929401856084   -2.092057632160
H      0.068845382780    1.879142179223    2.256343970372
C      0.484176597200    5.284702718601   -0.357873068790
H      0.549937366072    5.681162840645    0.661607733990
H      1.200655801113    5.636710868351   -1.104323353072
C     -0.626064895260    4.567167398004   -0.761388654493
H     -0.785535047042    4.330319321272   -1.816724463426
C     -1.848646810890    4.325868576513    0.088169836346
O     -2.560696062135    3.354499915855   -0.043889786250
O     -2.053500649034    5.320924248984    0.941939824434
Pd     0.957081454091    3.136055025339   -0.144547137744
C      0.257733022599    4.017547534280    2.898583168283
O      0.430300721159    5.219932761184    2.847876876286
O      0.687159268040    3.149666825771    2.003974338757
C     -0.517233566088    3.338455505914    4.049770504850
H     -0.763433301404    4.115097835315    4.785817163994
N     -1.748275062644    2.666324421838    3.644123206342
C     -1.746961543553    1.647833691752    2.877589795122
O     -0.633717070116    1.110711036163    2.301891884953
O      0.038813034052   -0.054206901805    0.071342445776
H     -0.346352786898    0.491268410834    0.826964301937
C      2.489183536241    3.546470024329   -2.634283580230
C      2.853778757365    3.367084838729   -3.980826193584
C      2.051060016155    2.548814010740   -4.808641710487
C      0.917126926553    1.940212377123   -4.253594734145
C      0.560956646800    2.120626284760   -2.911416116417
H      3.126068656091    4.182104247305   -2.010235253025
H      0.290443518926    1.305285057833   -4.887461655637
H     -0.330652703484    1.624407949489   -2.518827378263
C      4.086244876153    4.044360725232   -4.528138005626
H      4.812206476840    3.311752430081   -4.920156301566
H      3.840639469733    4.718807799149   -5.366199415306
H      4.595556592913    4.639588870169   -3.756484731713
C      2.404538818355    2.334598335912   -6.260008761189
H      2.427504561377    3.285439510981   -6.819552908674
H      3.403979620658    1.881098230808   -6.374788425344
H      1.678563968770    1.673414024406   -6.755043452952
C     -3.180005139319    5.238955017898    1.849201587370
H     -4.095070529482    5.092843739288    1.252968652683
H     -3.040458815977    4.356779090023    2.493340406502
C     -3.201407595258    6.521848134532    2.652195809688
H     -3.349734490632    7.399494718305    2.003743989723
H     -4.022694451077    6.488645586237    3.384848050577
H     -2.251092481047    6.643917024797    3.193467066589
C     -3.012799540641    0.935327262099    2.502582329381
H     -3.829341189133    1.240049952819    3.167931056113
H     -3.278382584032    1.194646635027    1.464100265446
H     -2.869042216188   -0.155127562780    2.557073061475
H      0.177230593936    2.622658635215    4.533422900472
N      1.978227701398    1.219756319041    0.097685002508
C      1.348278696330    0.025627430314   -0.020544253477
C      2.079410033312   -1.158833044628   -0.279019399035
C      3.457041962147   -1.113630597642   -0.349213375839
C      4.082435221731    0.126188109356   -0.157084096086
C      3.320515325100    1.264626267470    0.054097888968
H      1.520892250191   -2.088569973081   -0.388996393981
H      4.063487426718   -2.001626702974   -0.529837406780
H      3.808997443976    2.232496441531    0.169780930467
N      5.545521453287    0.236256291484   -0.202878998367
O      6.033459142682    1.341175533729   -0.029037646057
O      6.173090765949   -0.788531950573   -0.413652744247
