83

C      2.546622562494    3.792397419306   -1.228528807133
H     -0.414387670258    1.038677274244    0.075945680891
C     -0.008122599696    5.143138000605   -0.200182109562
H     -0.769939518386    5.113483123631    0.580828630117
H      0.802463530633    5.865481025744   -0.085306506086
C     -0.236337227902    4.543436105759   -1.425219754856
H      0.412228063844    4.757498447746   -2.277841871378
C     -1.505808590281    3.845448343491   -1.833577852229
O     -1.557443617606    3.122946326908   -2.802659062355
O     -2.543251318063    4.153262091875   -1.050520550517
Pd     0.966959775428    3.179746304248   -0.160982287213
C     -0.761325995713    2.589389012282    2.164671644861
O     -0.764472149378    2.370691915939    0.876248146772
O      0.114254328867    3.195568318394    2.764694795213
C     -1.982172870048    2.009711375320    2.904451822799
H     -2.042955213815    2.542892340045    3.860666191725
N     -3.177193632533    2.292694172595    2.120641104103
C     -4.380823629715    2.792907838228    2.524812395032
O     -5.241599114417    3.108990244293    1.712651180549
O      0.004486414403    0.237541007958   -0.370133528032
H     -3.043542729279    2.252479418016    1.113763520351
C      3.335403244060    4.876324534672   -0.821455161189
C      4.457932509141    5.293897446752   -1.556913912292
C      4.796397175036    4.610332201603   -2.747066383363
C      3.994973358912    3.534413667130   -3.151168882162
C      2.880299812406    3.123329271791   -2.410927054081
H      3.100746116199    5.414479362917    0.102374031240
H      4.245956928907    3.000845217110   -4.073192872941
H      2.281246378240    2.282022229459   -2.769542722681
C      5.288474193138    6.458632433986   -1.075256770054
H      6.335165034301    6.162438339357   -0.889069611837
H      5.323013586145    7.271035091339   -1.821341598048
H      4.888572153079    6.879135721093   -0.140921668411
C      5.992206680503    5.028570066916   -3.567226975955
H      5.908109603615    6.073934367081   -3.911071990120
H      6.928827066751    4.965573698686   -2.986802802326
H      6.108096797416    4.393110899068   -4.457329660590
C     -3.839521535765    3.599017941442   -1.396370000861
H     -3.685834011927    2.591840350204   -1.810361771940
H     -4.383820745482    3.527960244195   -0.443765804725
C     -4.565069471723    4.490752397908   -2.388806930907
H     -4.031064945612    4.537812079519   -3.350034245765
H     -5.572700930534    4.086787014493   -2.576303943827
H     -4.676881483453    5.511470431209   -1.991171929905
C     -4.607107785036    2.947559482202    4.020730975407
H     -5.661178910475    3.206883395833    4.176664837569
H     -4.366318066585    2.028844461970    4.577126760023
H     -3.980632153685    3.758512717081    4.427346975558
C     -1.811245480148    0.495558072619    3.162814114299
H     -2.709513506039    0.150116519438    3.706426763681
H     -1.830275828819   -0.018478572889    2.186249301885
C     -0.550793798657    0.067061887930    3.937544835536
H      0.330973254399    0.347766356540    3.332813175821
C     -0.532705963762   -1.458704328653    4.100021039666
H     -0.599036030092   -1.971059001566    3.126234795017
H      0.392403204634   -1.795895755056    4.594744361526
H     -1.382863544573   -1.801828927455    4.714879785920
C     -0.416726511089    0.773461033468    5.293444014953
H      0.448092440878    0.381930529599    5.853175796251
H     -0.263402460825    1.855822371050    5.170097894236
H     -1.313891338390    0.613206775104    5.917439739336
N      1.947582611189    1.274258723391    0.274740363457
C      1.299368086071    0.196624670607   -0.123088111750
C      1.963381744570   -1.076348693043   -0.341518770271
C      3.345707203850   -1.183912735446   -0.041027657524
C      4.010451173336   -0.035206856341    0.559010084688
C      3.266289283730    1.166544497126    0.718495917970
C      1.249045607715   -2.175742818860   -0.867377949819
C      1.902143725962   -3.371244609168   -1.117447392566
C      3.277983234862   -3.484986965586   -0.839313927776
C      3.985476740619   -2.415760404425   -0.310158845752
C      5.345010417709   -0.066536989269    1.024037790052
C      5.918183458598    1.032694146805    1.643793789227
C      5.161204773441    2.202835815524    1.831783420983
C      3.854763318134    2.267089623368    1.375319628905
H      0.185927581481   -2.058109857890   -1.078717783854
H      1.354197882578   -4.221173980651   -1.530444708757
H      3.795750892802   -4.426410162604   -1.040042886654
H      5.049369816156   -2.533734247057   -0.102388503577
H      5.933453712147   -0.977905222311    0.909859833560
H      6.949622361531    0.982033252152    2.000155621408
H      5.597780068900    3.062442335174    2.345673407749
H      3.249549711077    3.158595261011    1.538723410449
