74

C      2.483201039190    3.856477791782   -1.129691907043
H     -0.434545553995    0.792486890663   -0.137277660009
C     -0.181264077907    4.950949287884   -0.236862790678
H     -0.982668160323    4.839964728439    0.495182818131
H      0.591239878750    5.695087919001   -0.030600252815
C     -0.329135919974    4.434843583610   -1.513117282547
H      0.343754110718    4.738867177045   -2.318115893284
C     -1.548323701841    3.714910215418   -2.022289794277
O     -1.531017755476    3.057743340550   -3.038536480212
O     -2.622465296049    3.922845394275   -1.259673932449
Pd     0.868436066654    3.032540149885   -0.297853374984
C     -0.768529113708    2.328598985350    1.971104575560
O     -0.863174572117    2.097037453227    0.690799306160
O      0.197316629035    2.868984570285    2.498263750265
C     -1.988709513969    1.925656031740    2.831653185492
H     -1.966631632123    2.620261429709    3.680662130541
N     -3.212947257190    2.146148479664    2.077063128518
C     -4.220765525478    3.044065964950    2.307613001580
O     -5.077266867111    3.259770861562    1.459752309830
O     -0.009021711371   -0.017530171463   -0.548374934294
H     -3.186114356259    1.812131434544    1.117133575638
C      3.279014599709    4.702052390734   -0.344787801449
C      4.471946142416    5.260298931559   -0.838483062391
C      4.872947834191    4.968598851438   -2.162872772044
C      4.063529725843    4.127683447229   -2.939059144294
C      2.878352464530    3.573387837722   -2.440775994396
H      2.984732357760    4.933941599994    0.684288820313
H      4.366756619730    3.897463282065   -3.965181708516
H      2.277925106241    2.920436888773   -3.079701691978
C      5.305094736159    6.163281836584    0.038330681577
H      6.326845758605    5.769360606223    0.174707409539
H      5.415883369464    7.168751640691   -0.402810062534
H      4.855850208765    6.282181772399    1.034990980572
C      6.142844866817    5.552051849535   -2.732770551658
H      6.122134336525    6.655452910229   -2.732371222922
H      7.029221257370    5.256970441851   -2.145207257229
H      6.304358989892    5.222019540517   -3.769297161751
C     -3.872365037450    3.308041325920   -1.662769624633
H     -3.650307113167    2.316150569375   -2.083376053575
H     -4.439940593142    3.204115712345   -0.727719828210
C     -4.609933077376    4.174227831718   -2.669286782129
H     -4.045901490249    4.265443998022   -3.609762173870
H     -5.586897395198    3.719295210699   -2.898524067085
H     -4.792157958339    5.180430533986   -2.260823091033
C     -4.245396409512    3.760385832971    3.648807441428
H     -5.173644404667    4.342238236803    3.697166191248
H     -4.204433892826    3.061330236517    4.496792396666
H     -3.390157562258    4.449581378267    3.741925378677
C     -1.888125530251    0.475850533344    3.437658956300
C     -0.523196795346    0.290091245318    4.125433270254
H     -0.498589427964   -0.676180171400    4.655079946135
H      0.308524903564    0.300713457142    3.405801144180
H     -0.327685207290    1.086951686076    4.860151287892
C     -3.001655553203    0.318577979459    4.490084887594
H     -2.869519915995    1.028136747553    5.323573106752
H     -3.997054433740    0.482302572237    4.049653494259
H     -2.987499709220   -0.698030006896    4.914899820591
C     -2.072643546486   -0.599500034137    2.352666327886
H     -3.056362348247   -0.514972862652    1.864929791691
H     -1.299986627578   -0.540895519289    1.573056592389
H     -2.015728171673   -1.603421916098    2.803869943738
N      1.952122019881    1.144305658527   -0.131799387030
C      1.303655255761   -0.012360959174   -0.370268269701
C      1.981431629328   -1.259378848252   -0.453982993603
C      3.349695852526   -1.254746032079   -0.218970743009
C      4.015752923638   -0.057488885644    0.086515544280
C      3.283616174835    1.114826385732    0.110009857655
H      3.904157271662   -2.196353022852   -0.263980173548
H      5.087457871633   -0.035798428723    0.288230150101
H      3.756737204223    2.076123151308    0.309491193692
C      1.196379468308   -2.502158173889   -0.767565118435
H      0.418854174502   -2.681771867412   -0.007363834694
H      0.670195247940   -2.406666365353   -1.731027783466
H      1.853436138856   -3.382437772857   -0.812248037223
