63

C      1.109975986395    2.672434625703    2.258214259409
H      0.296481028389    2.275712221191   -2.110734622688
C     -1.113056812737    3.974093781125    0.947851282054
H     -1.222872446784    3.866361331934    2.028026463477
H     -1.841760081766    3.457169023853    0.312519037760
C     -0.258905891836    4.927419076267    0.432707846118
H     -0.317238752448    5.196282918899   -0.624443974634
C      0.530469101452    5.911479902183    1.238506092029
O      1.427728847517    6.576317100840    0.769366268777
O      0.125201261875    5.988126055024    2.510738456036
Pd     0.797489474009    2.962623987881    0.312958715803
C     -1.843733290770    2.100711101916   -2.004964362842
O     -0.781818176558    1.338125288698   -1.934054364948
O     -2.770490525972    2.086497386655   -1.210402878074
C     -1.842374811830    3.089736859341   -3.197121514580
H     -2.828831248084    3.576200389102   -3.209224923150
N     -0.833644145171    4.136472235434   -3.275799487242
C      0.327658182123    4.136652950036   -2.766974184261
O      0.886381210874    3.131906455673   -2.008211896606
O     -0.004567624065   -0.086269764424   -0.051213792568
H     -0.443682278410    0.542151442324   -0.781704099722
C      0.399412651005    1.705503017076    2.975484851413
C      0.675281072791    1.462170052638    4.331415673802
C      1.694844941068    2.202458184532    4.976129073596
C      2.402148778786    3.157489125104    4.234924841028
C      2.120569080754    3.402941811179    2.883692787387
H     -0.374802732850    1.114419128279    2.479172568965
H      3.199522860687    3.727358733284    4.722225873485
H      2.699708195185    4.155971161344    2.341939050726
C     -0.108218429832    0.413453404165    5.082357441122
H      0.550845937230   -0.375493726854    5.483487464820
H     -0.639983709548    0.845576112888    5.947355848488
H     -0.854596945106   -0.068956372434    4.435375699288
C      2.021750954733    1.963393046569    6.430040862030
H      1.148629003200    2.142079527235    7.080719907289
H      2.337035313211    0.921543298900    6.611713544422
H      2.833729526166    2.621957252206    6.771577228093
C      0.836421531807    6.895670055918    3.373981413338
H      1.896277044915    6.596393085294    3.403553493854
H      0.795241025192    7.904721919512    2.933535154914
C      0.193235292714    6.839087968655    4.742990228429
H      0.254044324221    5.823296174035    5.162186858499
H      0.710814328347    7.529056056725    5.427496884243
H     -0.866546396406    7.132873211067    4.693611805852
C      1.272466967229    5.292489015569   -2.951322690452
H      2.198745698099    4.942607763155   -3.435549553352
H      0.799690255419    6.063911503142   -3.570426865146
H      1.559705925734    5.725301730752   -1.978238255847
H     -1.773381466179    2.487715270422   -4.122819662724
N      1.929131505712    1.184508653942    0.036982904410
C      1.298139569651   -0.004155272229   -0.009532038457
C      2.071474904478   -1.216321437919    0.019033411892
C      3.456812545851   -1.133791095159    0.042980415295
C      4.075309975535    0.131794175664    0.047773755812
C      3.285177788422    1.260261374985    0.051080271269
H      4.069213041754   -2.035986486548    0.046109213934
H      5.162273320740    0.223254271774    0.057864229547
H      3.715794896112    2.262496661574    0.077008096659
O      1.348221105323   -2.350897967212    0.002309308050
C      2.021621856324   -3.589928639544    0.012206705458
H      2.636404446841   -3.714905543129    0.922207695546
H      1.245534326170   -4.366042393505   -0.004270912016
H      2.669320059140   -3.710549988899   -0.875226656755
