74

C      1.458743321559    2.885945997491    2.158657220103
H      0.805595267290    3.824954327131   -3.908155066151
C     -0.929283728281    4.069877994311    0.882017928915
H     -1.693688390113    3.818829033873    0.143281793987
H     -1.088926631446    3.729586951349    1.906861489619
C      0.028669791424    5.023536480440    0.596965584920
H      0.661612567964    5.431622366007    1.388960906920
C      0.072455473254    5.824514676987   -0.671554283762
O      1.040298709746    6.462511997437   -1.015156018716
O     -1.086878009843    5.787485721304   -1.337687829025
Pd     0.899632360637    3.016523647864    0.238495088453
C     -0.442458654506    2.333083547509   -2.340683340254
O     -0.999779383512    1.412972199408   -1.699006788146
O      0.402785271498    3.152477095433   -1.867088591978
C     -0.805043603904    2.471542146026   -3.826714249194
H     -1.863289395649    2.787056969801   -3.867881536388
N      0.005545311520    3.506796876011   -4.444762481312
C     -0.341364194254    4.106458416580   -5.618502263356
O     -1.354773680695    3.812055311517   -6.235051520889
O      0.121867760723    0.008629612823    0.032174390069
H     -0.349701693077    0.701454445043   -0.597929900696
C      0.887423994909    1.917751394369    2.995653178513
C      1.271241076724    1.783667229654    4.340486047228
C      2.261860781448    2.645890998988    4.866192914419
C      2.829250471417    3.606585974336    4.020164814172
C      2.438960888951    3.736098711716    2.680914003239
H      0.129399834393    1.234136030084    2.601339415234
H      3.599882065007    4.275739091455    4.415518312113
H      2.918695445872    4.497998904747    2.060282011883
C      0.632743031375    0.725807479927    5.207421914435
H      1.381493402677    0.018659798740    5.603909674160
H      0.126921922278    1.167275441554    6.083338638866
H     -0.113311951156    0.144214159118    4.646735594916
C      2.701923117071    2.533102227886    6.305408815579
H      1.861554409513    2.686807190449    7.004141766721
H      3.115001824875    1.534571020500    6.529810905804
H      3.476221853469    3.276179144722    6.546112105518
C     -1.150871509034    6.511024350302   -2.581981027552
H     -0.813703144838    7.544717778418   -2.406046489474
H     -0.444815129747    6.046190572859   -3.286117955764
C     -2.575022966619    6.448933265193   -3.090844011372
H     -3.272782982440    6.904515296677   -2.371252877977
H     -2.655144538669    6.993880887372   -4.043982444104
H     -2.886366405039    5.408771402003   -3.269936247415
C      0.621407614938    5.174262458220   -6.119737535653
H      0.978026465204    4.882901278702   -7.119422806058
H      0.070724367722    6.119775926747   -6.238866335040
H      1.487752291699    5.338764567434   -5.462430124747
C     -0.696853148408    1.120348860812   -4.548497440187
H      0.344082126878    0.758449839247   -4.544203660895
H     -1.330160369577    0.376717163371   -4.045725791419
H     -1.028543825614    1.237527519440   -5.589370277368
N      2.047737353485    1.238507874696   -0.106582476719
C      1.429160941248    0.076373136666    0.003040469834
C      2.167851375811   -1.170684468130    0.134415000253
C      3.585786243335   -1.142419144342    0.094658360220
C      4.244731147608    0.139090386189   -0.119388038859
C      3.433522559043    1.303073220960   -0.220558071909
C      1.475058906545   -2.389877002446    0.300657456469
C      2.177620979622   -3.574568034390    0.447125502249
C      3.585388252294   -3.557108645849    0.422129282607
C      4.276056596901   -2.367087967740    0.247112893945
C      5.645374745401    0.285312391546   -0.240203800325
C      6.227479265146    1.524808692958   -0.456502986472
C      5.417066945994    2.669102474049   -0.563597457990
C      4.040902255033    2.557517623999   -0.446555342295
H      0.384998131985   -2.370639818651    0.312998103414
H      1.643477039728   -4.518275596168    0.579377046654
H      4.142045374681   -4.490553098371    0.538397186335
H      5.366188365761   -2.384632898570    0.228308119136
H      6.285821909186   -0.594738159295   -0.167952502036
H      7.312665071911    1.609645885138   -0.548374202909
H      5.868168635197    3.647887095819   -0.742808337002
H      3.402929842853    3.440004528556   -0.539149532472
