74

C      1.350451694190    2.809087329960   -2.066324333911
H      0.080122145048    1.946960213190    2.272915402439
C      0.458109785260    5.231223879873   -0.435502635013
H      0.525533670629    5.681710413899    0.561018740196
H      1.159503578096    5.557670143092   -1.207458815629
C     -0.642533702126    4.473674828442   -0.788435352878
H     -0.807854483872    4.177486803920   -1.827469798697
C     -1.855560639757    4.263375454967    0.080799879683
O     -2.574699575459    3.292598584259   -0.012132247956
O     -2.050651874190    5.286429132117    0.905677825081
Pd     0.979957450559    3.105865126677   -0.123504513311
C      0.285373386486    4.112187508078    2.882670630058
O      0.461267326212    5.313659392397    2.779580532444
O      0.724129446568    3.211331974490    2.032788220045
C     -0.496642344347    3.511838303121    4.082076698338
H     -0.845260067099    4.389825399320    4.645432829834
N     -1.694569256257    2.752591872248    3.712713390267
C     -1.707573125032    1.722123542261    2.962003348588
O     -0.631872687076    1.192405030745    2.317892961131
O      0.035516236927    0.015126303584    0.049377661416
H     -0.351130190275    0.563366527240    0.793255769558
C      2.462840152052    3.416758793041   -2.661633510103
C      2.788736692365    3.198725399474   -4.011843490807
C      1.970702233787    2.348720144238   -4.790568344172
C      0.860254388604    1.747439166758   -4.183162025148
C      0.541858310728    1.967575669182   -2.837602246253
H      3.115480464655    4.069849856626   -2.074189021745
H      0.222218784509    1.085834691408   -4.777368146914
H     -0.330258519639    1.472877855254   -2.402661505258
C      4.000027224404    3.867251986171   -4.615283430627
H      4.721999069173    3.127824181852   -5.002371489836
H      3.727175786693    4.512339314636   -5.468108432882
H      4.524300082045    4.491428953483   -3.877057727393
C      2.284231233393    2.091540342814   -6.244344967748
H      2.283682980754    3.023984960043   -6.834813849455
H      3.283341779058    1.640942544626   -6.374280388381
H      1.549406278503    1.409814402702   -6.696948560997
C     -3.170092289513    5.236314150049    1.821557097053
H     -4.088122861480    5.056543722583    1.239135728751
H     -3.021473350228    4.384765023970    2.504051609350
C     -3.197417112530    6.554178447166    2.566241534066
H     -3.362019076098    7.399643750827    1.879912807052
H     -4.010455595216    6.546281521001    3.308826895038
H     -2.242458177573    6.711296487922    3.090051827637
C     -2.980230962586    0.976645397424    2.675945139486
H     -3.764038878487    1.280421966720    3.379881265238
H     -3.307007169228    1.207306413924    1.648144009769
H     -2.811222277836   -0.109514701551    2.743522132494
C      0.436138999068    2.706679198400    5.003766851943
H      0.859343759536    1.830195787221    4.491233116506
H      1.267440213343    3.337848646932    5.355236048023
H     -0.127160298553    2.353423012561    5.881158646992
N      1.996469600152    1.204306464794    0.206097864173
C      1.358932119376    0.068181231822    0.020673415922
C      2.053315704583   -1.172669590427   -0.269351218395
C      3.472482961381   -1.174413582664   -0.299083673262
C      4.167959875321    0.064324572882    0.017711823146
C      3.388663412914    1.225703214685    0.275619451349
C      1.325524141667   -2.357089723371   -0.522891403611
C      1.993525295421   -3.531136164447   -0.826813159751
C      3.401226682358   -3.540839322986   -0.873149973273
C      4.126676138498   -2.388223564529   -0.612191859366
C      5.575847259686    0.170819642100    0.092611169368
C      6.193176846171    1.368855520085    0.415724177272
C      5.413868778386    2.508972694798    0.683401621687
C      4.032075992982    2.436664916307    0.613828789068
H      0.236945506142   -2.320137976906   -0.479034580869
H      1.432518721603   -4.446472530405   -1.028519238386
H      3.929757981058   -4.466791747315   -1.113713494196
H      5.215687883191   -2.426496809455   -0.651053241075
H      6.192799650516   -0.707748936663   -0.100376406922
H      7.282835780527    1.423568054683    0.470430531601
H      5.894362564748    3.451890957826    0.954769498459
H      3.416157097478    3.309619519861    0.841966472384
