41

Pd     1.161985751099    3.077207604363   -0.132905866547
C     -1.670594291340    3.294402262189   -0.293027854960
O     -0.706874098123    2.380834670425   -0.421591859730
O     -2.839945977782    2.998234431339   -0.262384338088
C     -1.197722067052    4.781237324351   -0.199455678488
H     -1.616191048199    5.167166931880    0.749240330343
N      0.249487324989    4.780007801157   -0.155694357902
C      1.216233149046    5.548893071688    0.315834564831
O      2.343821090687    4.953784566085    0.397142274194
O      0.154136371682    0.061958598161    0.317147026876
H     -0.294424542152    0.914556212977    0.046414539809
C      1.061650703811    6.989680570902    0.708745891285
H      1.374385323426    7.634535340853   -0.128738047416
H      0.022248252095    7.237988082741    0.967079214844
H      1.721976725296    7.203324394879    1.561014070813
C     -1.760291411431    5.653008311373   -1.361574840027
H     -1.226122015779    6.618183422420   -1.272953833763
C     -1.420527399845    5.055643098411   -2.732408573753
H     -1.661243327008    5.757692618304   -3.544482411871
H     -0.347549303461    4.820027420490   -2.805053500070
H     -1.988111688741    4.127861437085   -2.912234700360
C     -3.261123179936    5.945842298358   -1.172397204733
H     -3.822379159619    5.000464850013   -1.228622595523
H     -3.414142797906    6.321076796664   -0.144210907666
C     -3.833474855696    6.965073660070   -2.159788278325
H     -3.810157959462    6.596851318233   -3.197552194964
H     -4.884540417066    7.191526163639   -1.920260204522
H     -3.275107230281    7.916925263619   -2.132503361510
N      2.161426093227    1.202359373438   -0.020588997310
C      1.467699587916    0.068603054868    0.241334573260
C      2.131499174849   -1.161503452237    0.452752952974
C      3.508193453677   -1.205216779782    0.364336600904
C      4.217667200261   -0.033521050247    0.059978759405
C      3.521926885142    1.155002519098   -0.129789920701
H      1.521637148122   -2.038571860765    0.669918577082
H      4.039937926818   -2.147262725351    0.520535862848
H      5.304259466629   -0.040846084052   -0.031930866906
C      4.239894497651    2.430141973095   -0.472476181200
H      3.877033030825    2.836494860538   -1.430780362469
H      4.070372712104    3.211033750307    0.284332637221
H      5.320604045725    2.253950379566   -0.559470861921
