48

C      0.992589846661    3.077107012004    2.043009042910
C     -0.705127174147    4.563840692606   -0.081246686126
H     -1.174521339957    4.669877635144    0.899821047892
H     -1.311706465831    4.134412994116   -0.885309042653
C      0.480715740959    5.205076011595   -0.356522330438
H      0.862472594349    5.268265614010   -1.383796104788
C      1.229102773059    6.097069280384    0.601933768998
O      2.406388584005    6.332038835853    0.466547092332
O      0.446280593928    6.568783060155    1.564091085096
Pd     0.977779162813    3.068781148951    0.049025125184
O      0.016399867983    0.039722997144   -0.081939797974
H     -0.328789881369    0.948962819433   -0.054176586439
C     -0.032299631485    2.448447018502    2.742912094015
C      0.004664491237    2.425847303872    4.150263408378
C      1.091006054650    3.034759953126    4.825131365783
C      2.101382559439    3.646280623300    4.072086437424
C      2.074758993373    3.678586747687    2.668661257560
H     -0.869613111851    1.965096557169    2.234574229575
H      2.945295367489    4.114660636337    4.586407370972
H      2.876333136452    4.175673109928    2.118088671947
C     -1.103596816641    1.752092187999    4.918190768408
H     -0.713998289261    0.935430461666    5.548262483004
H     -1.606916497985    2.459496808741    5.597914546085
H     -1.864958687089    1.327876591403    4.248778344312
C      1.163735574077    3.021532907342    6.330958622620
H      0.287480829463    3.515649865880    6.782500464275
H      1.180867867344    1.991766741548    6.724883921960
H      2.064408132109    3.535116453192    6.694718008524
C      1.049575964931    7.458708637152    2.541804464097
H      1.798305911038    6.882768676113    3.107869773855
H      1.582317144754    8.253233160810    1.997689800161
C     -0.050285097557    7.998302252549    3.427484488263
H     -0.568990964911    7.185861130842    3.958742314473
H      0.382614980063    8.677329903007    4.177779389645
H     -0.790662307097    8.563439297682    2.841532469910
N      1.999435489019    1.227362186640    0.062185759556
C      1.348520555439    0.052659361323   -0.019391661701
C      2.030838586860   -1.173326117216   -0.046042646149
C      3.421013530777   -1.194853112413    0.016077172170
C      4.090497096044    0.049458801714    0.110024202060
C      3.358316363870    1.216277373652    0.136278385381
H      1.439994426580   -2.087570152985   -0.116802888906
H      5.179394689454    0.098177957886    0.164740049680
H      3.846983991973    2.189425003500    0.216272920156
C      4.193923376719   -2.481561651533   -0.014225355865
H      4.827953734611   -2.573157586477    0.882649994752
H      3.533407938000   -3.357305366452   -0.065053189210
H      4.869032929847   -2.503975599789   -0.885510869240
