74

C      2.555314146096    3.932382648607   -0.883136841953
H     -0.782392634763   -0.737594418727    1.512018881070
C      0.201419927637    5.073627938447    0.694040760408
H      1.013951235600    5.800091288800    0.776871324464
H     -0.288384066126    4.709223399873    1.604084384502
C     -0.345858604045    4.837859315838   -0.551394921769
H     -1.280940049160    4.281494764731   -0.659855923490
C      0.089221030168    5.626748701559   -1.752217192558
O      0.781327160742    6.614030797257   -1.718099183243
O     -0.427670423228    5.104309313251   -2.876821297270
Pd     0.952833344644    3.114208405866   -0.027023126292
C     -1.424620744374    2.191327335339    1.869634566434
O     -0.836784299545    2.113416873889    0.692824488947
O     -1.218556829943    3.081612022265    2.674682966353
C     -2.436925151828    1.047635281671    2.137289910366
H     -2.394332003147    0.374092746366    1.256984103692
N     -2.099133244021    0.359710036245    3.368851820790
C     -1.305466913837   -0.632950256882    3.398872819846
O     -0.641234698724   -1.200477646386    2.357128741179
O     -0.005077933375   -0.006289519488   -0.215813991427
H     -0.442799165086    0.893608079416    0.085731008302
C      3.466661527434    4.715764872666   -0.163840096236
C      4.622014591797    5.244058085587   -0.765133707942
C      4.870593216780    4.982233576017   -2.132351088791
C      3.952251781359    4.196758359302   -2.841347245496
C      2.804743603330    3.671891236050   -2.234405152789
H      3.292436715133    4.932575272462    0.894507116050
H      4.139592586713    3.984321891382   -3.898697511628
H      2.117807484010    3.059930047507   -2.825439164702
C      5.575151524582    6.091192192515    0.041863714466
H      6.593420049171    5.666097292038    0.050129174271
H      5.664516626174    7.108322540017   -0.376532225824
H      5.242608750274    6.187714606754    1.085580235033
C      6.094216662776    5.540019924828   -2.816968110400
H      6.111582048033    6.642986164645   -2.785197676566
H      7.026141456231    5.199250320921   -2.333912460813
H      6.135119191948    5.236107609082   -3.873179697692
C     -0.102523833128    5.775239818804   -4.108091769726
H     -0.403704585647    6.832049971875   -4.025313827334
H      0.991882663707    5.760255739211   -4.236987163207
C     -0.821357098784    5.064447069234   -5.235318577693
H     -1.911574019467    5.085710286630   -5.083953711921
H     -0.596083751633    5.558391724584   -6.193297685245
H     -0.504269466335    4.012585777834   -5.306829747525
C     -0.991638815697   -1.347691268156    4.682567975119
H      0.091714926816   -1.309609454141    4.881113266451
H     -1.537926849911   -0.881835695816    5.510315964061
H     -1.268479957027   -2.411377632562    4.600266238437
C     -3.916687932556    1.568979355321    2.187229132834
C     -4.216815023844    2.375947940596    0.911108123462
H     -5.281257809223    2.659398380090    0.879870304216
H     -3.628894906194    3.306853053104    0.871382597963
H     -3.998375326538    1.795157141102   -0.000712055946
C     -4.838813930753    0.336423705607    2.236026199266
H     -4.718619458064   -0.293507779860    1.337999271905
H     -4.617720823525   -0.281483418956    3.119309086763
H     -5.895508988287    0.645093906002    2.290472570946
C     -4.163650661758    2.439818598129    3.430828266228
H     -3.937905657855    1.874206116824    4.345508542113
H     -3.524764312265    3.333424327450    3.427178416510
H     -5.219142515683    2.757964162905    3.463272394762
N      1.976170538059    1.180268986318    0.040044801476
C      1.312842732642    0.009784586767   -0.096899210048
C      1.987401295538   -1.244249164221   -0.128924364381
C      3.365246883565   -1.233804622885    0.029648149976
C      4.049522866122   -0.022821408946    0.214930353413
C      3.322714295340    1.151382881211    0.206057986539
H      3.913464776655   -2.180001450876    0.017214628623
H      5.131085111986    0.007942295725    0.352851285960
H      3.812804514824    2.117197764131    0.318853056929
C      1.188246780251   -2.505795480865   -0.301569903339
H      0.532263897705   -2.672639280112    0.568507052097
H      0.535891965790   -2.446541793194   -1.186962899857
H      1.850530539863   -3.376794441176   -0.408536248486
