62

C      2.015317251965    3.366915726194   -2.030594395372
H     -2.960809983208    1.326333429116    2.671609250103
C      0.181327728955    5.404030713719   -0.517437264270
H     -0.253163832618    5.601117447235    0.464389083716
H      1.050580591593    5.992590342921   -0.821673871852
C     -0.504616326529    4.659649010892   -1.455240551495
H     -0.167186286223    4.631765590628   -2.492995939092
C     -1.890146857338    4.100010009508   -1.307211839611
O     -2.408695250139    3.446526354446   -2.181976353097
O     -2.477931056415    4.426051489940   -0.148730083346
Pd     0.919199856309    3.328556761302   -0.355675435819
C     -1.016001142468    2.620532741799    1.861589759106
O     -1.430562882403    1.655798742731    1.174940463260
O     -0.049099754569    3.379650831980    1.569744159414
C     -1.725776128668    2.931326068795    3.176738606381
H     -2.026853595809    3.992295823633    3.172962422159
N     -2.860426875022    2.060766458330    3.366283743510
C     -3.671022558381    2.148602983540    4.457575538149
O     -3.511592348242    2.993888358741    5.324306360640
O      0.059527880553    0.265668268652   -0.318997283142
H     -0.528644378349    0.939971805773    0.195391342054
C      3.111125474879    4.235591060397   -2.118098701719
C      3.940652088110    4.270634936033   -3.253495440769
C      3.658506893619    3.410463372932   -4.338723634261
C      2.558215816158    2.547301764504   -4.240770730693
C      1.739851994292    2.515722072710   -3.105886566720
H      3.350100669008    4.909521037985   -1.288174758210
H      2.332377604002    1.877660826540   -5.076502304889
H      0.892565300959    1.825595571698   -3.072195075540
C      5.113511309575    5.219360971656   -3.306818215312
H      6.067557511957    4.681090021867   -3.441086344824
H      5.031421893653    5.921827071906   -4.153987898523
H      5.192177532729    5.814802894230   -2.385324549480
C      4.519928150800    3.419326036037   -5.578107501422
H      4.532074805078    4.411366590674   -6.061680824322
H      5.570778809000    3.171451870322   -5.348994620988
H      4.159773387626    2.691626947050   -6.319871218063
C     -3.806084891641    3.905613430683    0.087051063239
H     -3.875107479464    2.908749883772   -0.369332040087
H     -3.876302443870    3.800573295727    1.178175303758
C     -4.871115210806    4.841724376582   -0.455841678139
H     -4.809226442042    4.914731774895   -1.551865619684
H     -5.870356802271    4.457282415864   -0.195609611071
H     -4.769331780889    5.849907351182   -0.024873395009
C     -4.794306968293    1.123163201557    4.523771330647
H     -4.668472181316    0.520352062704    5.436312881520
H     -5.752248436881    1.656043124619    4.620526088131
H     -4.838189387123    0.453283826909    3.652494006083
H     -0.992990532967    2.837292767427    3.998782353435
N      1.948040079736    1.529131640007    0.130898024294
C      1.337563363739    0.332372934605   -0.023195294682
C      2.078664862763   -0.866048076276    0.095707615858
C      3.430336456539   -0.840091077707    0.410075592364
C      4.028750733057    0.425238344386    0.606365278692
C      3.262290582223    1.562871590099    0.448856240481
H      1.538444052697   -1.802325329703   -0.052822849225
H      5.085630790820    0.517123280047    0.863631307675
H      3.703904863791    2.555099145085    0.560318022523
C      4.237212742983   -2.103026144879    0.548667557689
H      4.691173064693   -2.169949970835    1.551081009418
H      3.622247524489   -2.999528268303    0.388119805937
H      5.064907988792   -2.117998577662   -0.179707366241
