72

C      2.506224269286    3.959292474198   -0.870506913046
H     -0.989387194678   -0.804578897086    1.336272665254
C      0.075784617310    5.163095198237    0.526432458348
H      0.898526706153    5.867840622297    0.671338141493
H     -0.527405954197    4.838021057003    1.381916318899
C     -0.376757640880    4.924730553297   -0.756276733548
H     -1.321318032166    4.399013715708   -0.923731296275
C      0.164962412020    5.686644410272   -1.932118342387
O      0.870067893846    6.661989521678   -1.856107611769
O     -0.276125600542    5.158191486476   -3.084888432397
Pd     0.837880629969    3.181349477537   -0.117330362751
C     -1.799225316042    2.366929199648    1.566937821882
O     -0.962487018509    2.171839309335    0.566972832269
O     -1.965121086267    3.438005618808    2.116065685597
C     -2.567071518541    1.097668757016    2.010391874577
H     -2.546229232937    0.373539750439    1.170048255289
N     -1.940754949343    0.599207826753    3.220573795448
C     -1.140927599244   -0.391287272691    3.241271971652
O     -0.697809912964   -1.138995576912    2.201328406120
O     -0.196338324294    0.088256484966   -0.391544622403
H     -0.623623634670    0.992892100620   -0.006866116140
C      3.395359716101    4.697582328883   -0.080249594940
C      4.611877149539    5.178117614855   -0.595391438615
C      4.943020772730    4.914007492530   -1.944659730806
C      4.043056383539    4.174939841109   -2.723778713010
C      2.834013526281    3.697002728200   -2.203918323986
H      3.156290246066    4.915530401005    0.965024286196
H      4.294423323747    3.961478117671   -3.767394302138
H      2.162718077598    3.121115626548   -2.846714390566
C      5.543072261901    5.975892246747    0.283794590134
H      6.537187028152    5.503313231346    0.359329660755
H      5.708088905249    6.989764776693   -0.118987307001
H      5.142873331237    6.082023577287    1.302450455358
C      6.235314537801    5.419718496389   -2.536774547844
H      6.300694371413    6.520275552737   -2.490972081208
H      7.113959330818    5.031281349058   -1.993884130236
H      6.335708760069    5.122768114326   -3.590861009901
C      0.145511052583    5.810889012402   -4.297534345671
H     -0.142572529718    6.873174104832   -4.244900012134
H      1.245798909880    5.776385279705   -4.349257499429
C     -0.505529621588    5.100444258074   -5.465274216501
H     -1.603060747005    5.141995279887   -5.390705289211
H     -0.205360450593    5.580647614952   -6.409546600694
H     -0.202896730900    4.042667214011   -5.505211473582
C     -0.563126643377   -0.890755382695    4.535547440781
H      0.537749505359   -0.881647826962    4.489500660701
H     -0.909399271831   -0.264029130148    5.364935644068
H     -0.871312342716   -1.935754105557    4.701937543079
C     -4.043612944350    1.454456369528    2.294279386432
H     -4.038504835783    2.200968185815    3.101402461523
H     -4.456912812591    1.945117320732    1.398025217350
C     -4.894580298974    0.260953611412    2.659544957424
C     -5.623621760575   -0.430336989746    1.678056467903
C     -4.957449903132   -0.204023080334    3.984146880947
C     -6.392670758917   -1.551185206306    2.004880698762
H     -5.593946135973   -0.080159140717    0.641455017579
C     -5.725730153177   -1.323425494769    4.315035832717
H     -4.392463319457    0.321500762793    4.757142233674
C     -6.445980458426   -2.002130893586    3.326779339752
H     -6.955948056638   -2.070615043633    1.224813890683
H     -5.764748968930   -1.666821146885    5.352498837709
H     -7.049447500924   -2.875860715874    3.586713546128
N      1.811102236674    1.199222638746   -0.040528917456
C      1.102548042473    0.063989781990   -0.249371353028
C      1.783767207473   -1.187928737903   -0.317133685119
C      3.149440171008   -1.253153679234   -0.115181917525
C      3.841878506160   -0.061899911640    0.148873764377
C      3.147218155733    1.135278256615    0.165838429474
H      3.669583537455   -2.210898261325   -0.153108135155
H      3.669743336365    2.075859026669    0.332428953266
Cl     0.865826980569   -2.620053210904   -0.645562847776
Cl     5.559945121745   -0.080343451414    0.431030568518
