71

C      1.351543752586    2.902758293952    2.111207556785
H     -1.794077427570    0.346562160229   -2.855292439843
C     -0.813380565138    4.527566291454    0.714810420342
H     -1.537367360258    4.472363059818   -0.100612315682
H     -1.149956537391    4.245224875736    1.714967448623
C      0.373456612143    5.212173055459    0.545872146493
H      1.001651873532    5.452792436072    1.406516178532
C      0.793024223827    5.928310486087   -0.706545528660
O      1.943981525115    6.227630446055   -0.924409339113
O     -0.235322593983    6.215330934140   -1.507685977660
Pd     0.747988440847    3.054899396558    0.207674556903
C     -0.692022645218    2.395479835047   -2.363067071448
O     -1.192880905473    1.410172211205   -1.736812512601
O      0.127009925958    3.209609686675   -1.860763687655
C     -1.132503692149    2.631439537645   -3.819815320666
H     -0.587028366432    3.535493573458   -4.131928031769
N     -0.738825475350    1.571577467546   -4.741403259882
C     -1.111976847657    0.351805838388   -4.646483313816
O     -1.824666770585   -0.228009249604   -3.664228167198
O     -0.103798318591    0.018148560784    0.058713101951
H     -0.560150363013    0.691215622593   -0.579683495048
C      0.611541377874    2.114422519728    3.001705429932
C      1.012928420653    1.937320713109    4.337036304544
C      2.194365614896    2.567928396901    4.792992339520
C      2.927955286400    3.349308098318    3.891261773131
C      2.520291919095    3.524235278783    2.562395343313
H     -0.293944383757    1.603377401634    2.660204748241
H      3.844651869824    3.839016198324    4.234205693071
H      3.126140253751    4.145669330534    1.896148123706
C      0.190532517946    1.078112025119    5.266021487766
H      0.778130502532    0.233785025293    5.665297284068
H     -0.166493778444    1.650051031963    6.139657226535
H     -0.689076620152    0.661458507237    4.754490709369
C      2.658751970132    2.401873130193    6.219265795993
H      1.904432365140    2.762100647781    6.939724830189
H      2.846121536634    1.343025886004    6.467390584502
H      3.589459643780    2.957773144654    6.404144496672
C      0.076138767187    6.827467612810   -2.775740573963
H      0.798194537505    7.641035368667   -2.607805040286
H      0.570217847056    6.070101505167   -3.405653289464
C     -1.215088438726    7.323852960200   -3.389733752498
H     -1.695121683636    8.077347584888   -2.746296920705
H     -1.009031163222    7.786227404826   -4.367494862041
H     -1.924694778285    6.497008478774   -3.544682303635
C     -0.778366103583   -0.627140560457   -5.740548963945
H     -0.187239575130   -0.138466820526   -6.523373355646
H     -0.224998792166   -1.485322870730   -5.326438178599
H     -1.710667814974   -1.027106440198   -6.172529771111
C     -2.648214182072    2.969316582937   -3.846770085375
H     -3.232007294123    2.040332515606   -3.732840106050
H     -2.870902501480    3.580932351050   -2.954204353420
C     -3.139287736266    3.754007537476   -5.079676998021
H     -2.507875101505    4.660351573265   -5.158446266259
C     -4.587031007944    4.216611635159   -4.860519553698
H     -4.688165465313    4.829359206231   -3.949330875905
H     -4.946858665021    4.817567099115   -5.711417202320
H     -5.264649159091    3.351737192883   -4.755800988605
C     -3.009787682979    2.984521826179   -6.400540243560
H     -3.365782000365    3.599377689687   -7.243949162562
H     -1.970273721184    2.686768256912   -6.595283713405
H     -3.620165339932    2.064822414348   -6.378982722921
N      1.840908325837    1.240150983974   -0.145097980923
C      1.201150880665    0.058569989198   -0.036250429010
C      1.966824604840   -1.140655740698    0.003300026011
C      3.345700251807   -1.089656898360   -0.120883042138
C      3.963408380068    0.159447204671   -0.284932007663
C      3.180565404314    1.303679005847   -0.284354132106
H      3.934736879373   -2.007276514264   -0.104580214131
H      3.629654649044    2.292908215894   -0.381622050068
Cl     1.147392843092   -2.654899745873    0.187387434001
Cl     5.689012935214    0.278793547519   -0.466757538318
