77

C      2.532320324167    4.029956903834   -0.980225562661
H     -0.938975031939   -0.891893379960    1.070092411042
C      0.128119249436    5.176788939863    0.527620883834
H      0.944039999682    5.891731193056    0.661860489191
H     -0.430752920116    4.816077883072    1.399019487002
C     -0.361064754087    4.960792048853   -0.745325522644
H     -1.299532624066    4.420363533964   -0.898949798123
C      0.132351331856    5.759300958347   -1.917381744489
O      0.824141993001    6.744050704514   -1.840100554357
O     -0.334770849936    5.250923936977   -3.069725231446
Pd     0.899638371327    3.221983338094   -0.183780368965
C     -1.632294366168    2.303339089736    1.601567114871
O     -0.888302869889    2.187363262109    0.516045264449
O     -1.702810653492    3.317358752211    2.266799346418
C     -2.433049464494    1.028353445425    1.964009502050
H     -2.465499588080    0.383323883044    1.064535104842
N     -1.787663156679    0.386799417951    3.099767601636
C     -1.113784270154   -0.688779365385    3.007078243707
O     -0.803228777131   -1.398559582105    1.890937878476
O     -0.083888257430    0.112053152364   -0.403444613347
H     -0.531149004177    1.031052551095   -0.041376790697
C      3.443567111057    4.760071051293   -0.208721230811
C      4.638798667165    5.255362868798   -0.757201264863
C      4.922416115211    5.018971811724   -2.122219769982
C      3.998637077384    4.291066702595   -2.883288198255
C      2.812297401173    3.794440518510   -2.329296652312
H      3.242757502735    4.953188106895    0.849301412349
H      4.213801722230    4.098854377211   -3.939153497880
H      2.121933421191    3.225367284028   -2.957825784273
C      5.603311414692    6.029551740170    0.106389173249
H      6.588743069763    5.535655407199    0.153374040447
H      5.776902908238    7.044638815639   -0.289478812392
H      5.229810495632    6.130011492759    1.135637336859
C      6.194206199131    5.536233633112   -2.747634698688
H      6.264798699834    6.635309377904   -2.678928039194
H      7.089264769887    5.132612550376   -2.244097979112
H      6.256930198670    5.263236515907   -3.811194309299
C      0.045772219107    5.936030045019   -4.277473063383
H     -0.253659679908    6.993185474803   -4.193454574774
H      1.144578733750    5.916770597571   -4.359655553713
C     -0.627811586425    5.243699241795   -5.443429953355
H     -1.723394607448    5.269045204194   -5.338490352974
H     -0.359391419084    5.748771224548   -6.384318379872
H     -0.313170788815    4.191121960024   -5.515434952674
C     -0.561336451782   -1.359983357090    4.233854296257
H      0.536764206180   -1.428554668982    4.168513912973
H     -0.849682573030   -0.796424369816    5.128334639357
H     -0.945067903373   -2.391229556795    4.300069684413
C     -3.870245116383    1.392336889099    2.373135246027
H     -4.368663268433    0.459726308760    2.692513651230
H     -3.786340845034    2.030801555788    3.265824386548
C     -4.729999682748    2.100236401299    1.311581320930
H     -4.213375452667    3.037666244760    1.034825470214
C     -6.086254443501    2.490103591440    1.914557610521
H     -5.961085094530    3.120434564743    2.809460854505
H     -6.701760583496    3.049267096848    1.190915674681
H     -6.657477600283    1.594488634995    2.215196259181
C     -4.922184758539    1.267700596370    0.035708946071
H     -5.577411256666    1.789442070645   -0.681074480469
H     -3.970299389224    1.067140766747   -0.480963226268
H     -5.391114762943    0.294605199413    0.264645181779
N      1.906224852550    1.271350867618   -0.120813401419
C      1.218427826591    0.104778132259   -0.268681683486
C      1.895886201580   -1.139969499587   -0.282215118292
C      3.261416444852   -1.181010884238   -0.103089592018
C      3.964649598842    0.026552514806    0.088908550847
C      3.241801054018    1.213942284526    0.062076604641
H      1.296685863926   -2.041277870880   -0.411578497375
H      3.799202408002   -2.130194408139   -0.097758745505
H      3.769399051241    2.159803623758    0.183106760834
C      5.433665436676    0.102963439383    0.312377590509
O      6.049459602807    1.127104673165    0.497196302997
O      6.010847632489   -1.114025641726    0.287617850278
C      7.422497739859   -1.147267887050    0.498107219342
H      7.680808656791   -0.726043374309    1.481424946439
H      7.714497066997   -2.203297953264    0.447024942624
H      7.946625415708   -0.567465093087   -0.276623363627
