66

C      1.108609401931    2.667242682187    2.265239217161
H      0.316627931106    2.256020571816   -2.112509738367
C     -1.116643923919    3.960860250108    0.956149777650
H     -1.221386947398    3.860713776445    2.037554848176
H     -1.842059851851    3.433732122885    0.324898545670
C     -0.268833816495    4.914199212151    0.430898602801
H     -0.332831118259    5.174464249926   -0.628019131634
C      0.519252531186    5.908123903972    1.225451915115
O      1.408971228268    6.576206804979    0.746452606612
O      0.122567551672    5.989640360682    2.500193345624
Pd     0.797122596250    2.953736619877    0.319424901840
C     -1.817670163478    2.080304608655   -2.026619818643
O     -0.767988199478    1.300602156474   -1.959312562221
O     -2.720450768506    2.109384306486   -1.203671882315
C     -1.837341835419    3.037540879252   -3.249677461815
H     -2.808555637689    3.552621616632   -3.186467302793
N     -0.828424665719    4.095097553793   -3.300422540811
C      0.325509463718    4.111002758508   -2.775715289201
O      0.888205627945    3.117521587426   -2.001851557519
O      0.000374980799   -0.091640973363   -0.053788191255
H     -0.435651053659    0.526194481744   -0.799339781233
C      0.402527124822    1.696222833318    2.981475177235
C      0.677276185579    1.454957581754    4.337964446588
C      1.691132217527    2.201572821571    4.984416497621
C      2.393988276934    3.160707819866    4.244317746510
C      2.113423800169    3.404147240936    2.892497030836
H     -0.367434517114    1.100789847014    2.483712428518
H      3.186931066788    3.735554359167    4.733010410946
H      2.689110666171    4.160499122722    2.351698311519
C     -0.101379784435    0.401833941734    5.087795513378
H      0.561585153277   -0.383058053500    5.490464785865
H     -0.637376163002    0.831064205154    5.951626452361
H     -0.843637077656   -0.085201313843    4.439534189730
C      2.016650271731    1.964969275892    6.439045684203
H      1.141254959816    2.138806780585    7.087991764341
H      2.337702165441    0.925062382702    6.621769634457
H      2.824093765460    2.628427504148    6.781876531622
C      0.834028570389    6.906750579596    3.352915451462
H      1.895953954327    6.614243406588    3.377142142552
H      0.783829101021    7.912828447592    2.906633540387
C      0.200485060341    6.854793800866    4.726615811495
H      0.270026435524    5.841945526545    5.151543191705
H      0.718579840348    7.551971291282    5.403390991130
H     -0.861326006761    7.142053728420    4.682595938312
C      1.260782441904    5.276227058792   -2.951931074873
H      2.196168882290    4.934420679839   -3.424241849672
H      0.787410072381    6.040728916162   -3.579036710196
H      1.532437306189    5.714915013864   -1.977049878105
C     -1.798458774877    2.240183885216   -4.562066394541
H     -0.868233329907    1.656400817022   -4.631741097141
H     -2.647644750641    1.540998612481   -4.613090855182
H     -1.851913176992    2.927097616176   -5.420037904845
N      1.933448738709    1.178329065431    0.047154810590
C      1.302568754202   -0.010437416446   -0.005756467698
C      2.076514817429   -1.222343926602    0.023278640101
C      3.461703424912   -1.139569326007    0.055046317390
C      4.079810626395    0.126157153035    0.067048288009
C      3.289321189515    1.254415945876    0.069233920287
H      4.074384217147   -2.041583280515    0.058986866236
H      5.166677511845    0.217875561706    0.083659293994
H      3.719501812261    2.256679984432    0.100843799981
O      1.353841675494   -2.357248411565   -0.000639698012
C      2.027741786221   -3.595933993487    0.009849169150
H      2.637565923099   -3.722982806747    0.922908761062
H      1.252155710048   -4.372405468354   -0.012881753748
H      2.680443169869   -3.714086764712   -0.874262660099
