65

C      2.014858249453    3.315053513292   -2.163703059850
H     -2.677204957551    0.966581843867    2.731534148723
C      0.256794578351    5.383347784075   -0.622129875452
H     -0.133424170723    5.616374838744    0.370734878543
H      1.115847326756    5.953491288200   -0.984237651644
C     -0.481537502288    4.619204373685   -1.502808431817
H     -0.191385716630    4.551135318779   -2.553149524289
C     -1.867750736079    4.086960245716   -1.273307249094
O     -2.406514737565    3.350455068827   -2.065793218199
O     -2.436917564714    4.549720638450   -0.154029990890
Pd     0.986544671103    3.309326546422   -0.442599551616
C     -0.895505802900    2.512136099656    1.752579780453
O     -1.255078764022    1.544366685807    1.039261334955
O      0.015626889058    3.343689123564    1.479532680136
C     -1.594727180136    2.717118939071    3.094682137712
H     -1.934537016540    3.758990231979    3.181759771859
N     -2.721484176018    1.831744103279    3.260170400359
C     -3.898460619076    2.239291711759    3.817688087170
O     -4.055326616523    3.353838868321    4.294418763367
O      0.193512383343    0.290438345371   -0.593685019563
H     -0.396595178195    0.924551565775   -0.021054825887
C      3.078981499816    4.203923697395   -2.362426888697
C      3.829738968600    4.207155336818   -3.551378331541
C      3.499614214199    3.293421158895   -4.577678498563
C      2.431093444571    2.410638921429   -4.369506569671
C      1.690641664348    2.411433990957   -3.181772359268
H      3.359133483638    4.915517533528   -1.579368051820
H      2.167050648312    1.699852139884   -5.158805893785
H      0.864252771921    1.705651407279   -3.062104059380
C      4.973945112240    5.176818300632   -3.722141694477
H      5.930497933799    4.652364711993   -3.889333481759
H      4.823807891250    5.836015958582   -4.594410366430
H      5.094632982571    5.816812788534   -2.835759707082
C      4.278260774408    3.266153464069   -5.870374748177
H      4.234540706915    4.235695212813   -6.395994483272
H      5.347538989657    3.051771167360   -5.700270442911
H      3.888974243436    2.498344635904   -6.554839875396
C     -3.783741395268    4.103346371947    0.128763021190
H     -4.340453137948    4.064835651442   -0.819332238469
H     -3.719317244723    3.074401613522    0.517953261704
C     -4.413124527216    5.054945569947    1.124443609458
H     -4.412863866308    6.084898526486    0.734726461319
H     -5.458006544709    4.756436407373    1.303087335995
H     -3.899876793568    5.037473545640    2.096804261411
C     -5.009957754274    1.200589607549    3.823488744785
H     -5.283543876998    0.985384683400    4.867874306600
H     -5.899494956702    1.632294927205    3.340697849926
H     -4.742778243476    0.259333125531    3.321339820469
H     -0.833232923950    2.577881187510    3.885598165077
N      2.040723198783    1.504861098183    0.050376470319
C      1.464390755519    0.346588195319   -0.278530792167
C      2.220554020426   -0.870005786675   -0.325451503201
C      3.538315693725   -0.860304522667    0.034850567940
C      4.152340092040    0.351215690118    0.471051557676
C      3.354159404467    1.535686477702    0.468340519321
C      5.501564303034    0.421061804627    0.900450404938
C      6.047743832182    1.617947955577    1.322335615433
C      5.252830289292    2.786362113358    1.328028621868
C      3.935319904314    2.749612465535    0.908638154363
H      1.696984944245   -1.774689589076   -0.635777553064
H      4.129034970681   -1.780199623875    0.010671253276
H      6.101126799937   -0.493185999928    0.895137684873
H      7.087124669145    1.663549315448    1.655056311394
H      5.681863326362    3.730795099521    1.671844962340
H      3.317823105903    3.650357812292    0.924207619342
