72

C      1.107604358393    2.661805790422    2.259089227998
H      0.359127373750    2.230522536526   -2.127461753028
C     -1.104113747432    3.952439661131    0.925703647473
H     -1.217924480544    3.857856468159    2.006689576617
H     -1.823720651919    3.422312715672    0.290239935256
C     -0.251041378931    4.902385654901    0.402840248262
H     -0.306065289743    5.157452252330   -0.657819871951
C      0.531449288981    5.899633935186    1.198698107655
O      1.425404316539    6.564758834332    0.723431338542
O      0.124997441278    5.987602733860    2.469927964337
Pd     0.813807587046    2.940447550170    0.309403246325
C     -1.773847937720    2.065136913254   -2.070400610214
O     -0.728727157124    1.279247268863   -1.988327625710
O     -2.677116364399    2.110688221120   -1.248695245082
C     -1.785236583472    3.006395410045   -3.304085974506
H     -2.756291511890    3.526347819384   -3.250775658155
N     -0.772444713932    4.058622996202   -3.341738957370
C      0.372817874786    4.081021487792   -2.798452305003
O      0.927061457685    3.093806459413   -2.010942755835
O      0.012311085126   -0.102145733612   -0.063568495500
H     -0.412625907837    0.512863044244   -0.817787010191
C      0.394517872321    1.694094898308    2.972881965217
C      0.656996664925    1.457976073394    4.332691156643
C      1.665634443173    2.206404121540    4.985193703903
C      2.375688435509    3.162166592314    4.247616233701
C      2.107271763828    3.400521219137    2.892423660041
H     -0.371549000145    1.097383664640    2.470647689807
H      3.164649158131    3.738411864443    4.741082126925
H      2.688229568145    4.154440892963    2.353868910589
C     -0.129163187405    0.408479082068    5.079771415285
H      0.529555055956   -0.375079979607    5.491884983492
H     -0.672831521085    0.841706947682    5.936789243063
H     -0.865747477403   -0.080860105492    4.426786712091
C      1.978086802025    1.975247504935    6.443558335157
H      1.097091913683    2.152130209442    7.084046999765
H      2.296837619676    0.935857759368    6.633132918939
H      2.782894827571    2.639527185733    6.790964137786
C      0.830621324546    6.908241131918    3.323689447822
H      1.892368764799    6.615849785471    3.356440511775
H      0.783554489770    7.912472615945    2.872858025960
C      0.187585868172    6.862057380843    4.693204322752
H      0.254185850238    5.850975668219    5.122858025899
H      0.700997691970    7.562099564484    5.370588667327
H     -0.873910300119    7.149112645977    4.640649431700
C      1.307943431283    5.248195663326   -2.965047274510
H      2.247689843980    4.908232438789   -3.430094398430
H      0.839770103209    6.014093952949   -3.594346855864
H      1.571382903088    5.685133058587   -1.987186612346
C     -1.764167217915    2.195663621291   -4.631462772233
H     -0.775333431736    1.705329946411   -4.683353778207
C     -2.836960430612    1.099547404387   -4.627663363015
H     -2.829402267467    0.552067628494   -5.583921206836
H     -2.674635924737    0.365949742325   -3.823731636270
H     -3.844506949591    1.529513691861   -4.496888017743
C     -1.920175273142    3.113899188056   -5.849146841158
H     -2.907567766208    3.607051967114   -5.842968236017
H     -1.154956396740    3.902150948275   -5.861428689855
H     -1.842618404236    2.534987022622   -6.783950025174
N      1.948548141682    1.161262823651    0.054948034025
C      1.314332320618   -0.025519050998   -0.001617659566
C      2.083695541048   -1.239909005583    0.039110664946
C      3.468757748246   -1.161676986811    0.085998129467
C      4.090936320210    0.101975355065    0.101508739592
C      3.304286979268    1.232918419922    0.091911764886
H      4.078328018340   -2.065708761822    0.099118594168
H      5.177855707222    0.190087383444    0.129982323098
H      3.737455611854    2.233817980890    0.125722096210
O      1.357523976421   -2.372480179881    0.010174741720
C      2.027130455048   -3.613373488806    0.031623414536
H      2.626333235470   -3.739845024922    0.951761234747
H      1.249253406096   -4.387334126864    0.002458887642
H      2.689206023033   -3.736201624099   -0.844843551972
