65

C      1.126316148098    2.654913677183    2.238366068701
H      0.322226550965    2.274778059760   -2.111921862422
C     -1.054437472112    4.024836877922    0.920980207315
H     -1.177135650343    3.900480572583    1.997953329855
H     -1.791009791364    3.536898021891    0.273058961595
C     -0.169411624632    4.962652785820    0.432407643039
H     -0.204107927834    5.250609690163   -0.620418063854
C      0.643028316532    5.907223197188    1.262828036186
O      1.572432447514    6.541639735651    0.814318749975
O      0.219916173072    5.985065263005    2.528298377330
Pd     0.841799643664    2.976839966188    0.291244167773
C     -1.824348430438    2.042253873074   -1.936300896806
O     -0.741411268193    1.307721869242   -1.877076624715
O     -2.727991738268    2.023379984242   -1.116053254545
C     -1.878458890703    3.002884247151   -3.149655846811
H     -2.879868205304    3.457710733858   -3.151490194929
N     -0.905101274624    4.078448253108   -3.270558435604
C      0.270468707237    4.120414622403   -2.798573115596
O      0.884554864706    3.145743329305   -2.043220705202
O      0.082602421770   -0.090815965537   -0.015105255062
H     -0.372269331316    0.552917735995   -0.738819093770
C      0.360760756741    1.708190493308    2.925830928173
C      0.591439089708    1.438587298419    4.285309966964
C      1.619720031928    2.133323391579    4.965395872031
C      2.380555712793    3.069761798300    4.254273149830
C      2.145757953107    3.340044943928    2.899017566749
H     -0.422585604376    1.152430838767    2.404022485632
H      3.186321604637    3.603104558581    4.768287523450
H      2.770811687676    4.071802787452    2.381566935874
C     -0.249965394287    0.411251208819    5.002420228652
H      0.368669169185   -0.406339935507    5.410507272916
H     -0.788028227482    0.852791943432    5.858719162696
H     -0.996594796396   -0.035460565548    4.330516074339
C      1.899624439345    1.865167463596    6.423979254202
H      1.016948960940    2.068031615824    7.054372176610
H      2.171776662094    0.810278779828    6.599893446307
H      2.726061197304    2.489105001951    6.794550268738
C      0.951841284079    6.853096879886    3.415197023168
H      1.997847213870    6.510337556406    3.458846954287
H      0.958514598784    7.868081540088    2.986738017950
C      0.283081014404    6.805619809627    4.772167379861
H      0.296096549474    5.783066529241    5.178887091414
H      0.816053124588    7.465580925296    5.474199806726
H     -0.763029432458    7.142531116185    4.708856539930
C      1.178164522602    5.296072356431   -3.037650874512
H      2.075322637648    4.965217025207   -3.586184439956
H      0.651811424804    6.061296593829   -3.619985822364
H      1.526131938803    5.727919273751   -2.084475027194
H     -1.808356301874    2.382862612622   -4.063265006416
N      1.994479427910    1.201602943923   -0.001364339178
C      1.379984818006    0.010821990357    0.052998816963
C      2.141708479833   -1.196036703333    0.214172808416
C      3.505249565815   -1.143103135090    0.248664963135
C      4.177846435830    0.108476462367    0.113904717291
C      3.372802205783    1.280728458062   -0.013645903404
C      5.589929409535    0.227231507099    0.104776524331
C      6.195420865105    1.462213283318   -0.029969291026
C      5.397328296191    2.620124492568   -0.162306712122
C      4.016240010617    2.534610125575   -0.153796608780
H      1.582777744857   -2.129772578091    0.282514101366
H      4.095525639297   -2.056669631809    0.362337940383
H      6.192106396824   -0.679945006334    0.203927824669
H      7.284474679627    1.545506172345   -0.038606623071
H      5.873637141771    3.596803702580   -0.277990926111
H      3.404741296253    3.432473372099   -0.270319132491
