75

C      1.384968107233    2.904984130820   -2.112214735807
H     -0.042906353568    1.829495238597    2.186119060289
C      0.461830980256    5.252629606863   -0.389656174667
H      0.516703552082    5.651571289170    0.629260483504
H      1.183934755369    5.605352175996   -1.129984294575
C     -0.639861812186    4.528658683810   -0.801230967420
H     -0.787217445016    4.282814090005   -1.856255140483
C     -1.871297636075    4.290510636794    0.035437004943
O     -2.597402009437    3.332600576793   -0.114671805589
O     -2.071719336281    5.277465076488    0.902426424943
Pd     0.947805829286    3.102061700405   -0.171926204275
C      0.207969231276    3.978847272183    2.861625443918
O      0.427236767460    5.176267706781    2.814182178144
O      0.615771430799    3.099351622936    1.975165038878
C     -0.596260007431    3.354464796474    4.033587105523
H     -0.925234088725    4.215850585712    4.633445113498
N     -1.803891724917    2.639565557400    3.627694353534
C     -1.832307354902    1.625861357147    2.855082962201
O     -0.756119795596    1.078796700657    2.225760877405
O     -0.004692993792   -0.013428668345   -0.084466565186
H     -0.434853807576    0.474175050567    0.671417595810
C      2.486644326551    3.581494300206   -2.651777185220
C      2.860945252323    3.429412581658   -3.998777636770
C      2.102891086062    2.576020159791   -4.832404362807
C      1.003488785009    1.904341666970   -4.280535955000
C      0.638601354242    2.057191246668   -2.937651186545
H      3.089628483360    4.245300174473   -2.023431866704
H      0.412623836657    1.238986647300   -4.917791056366
H     -0.219516657253    1.505740838902   -2.545227997854
C      4.056368250590    4.174215817825   -4.541685925161
H      4.820598125540    3.484214462078   -4.938926829947
H      3.776571331895    4.841189919766   -5.375165823995
H      4.532982446039    4.790985900302   -3.765703163168
C      2.466636562941    2.390115659646   -6.285379089173
H      2.438113179739    3.343893202757   -6.839980232744
H      3.488757401514    1.991034110702   -6.404352976814
H      1.776496769084    1.694013043021   -6.784009043303
C     -3.212235584030    5.200399429060    1.790472904020
H     -4.116955147771    5.043022149591    1.181520672394
H     -3.081246587530    4.326409318399    2.447761540556
C     -3.254051776353    6.492553920337    2.578177127530
H     -3.399471150351    7.361336803311    1.917101886477
H     -4.084828940588    6.462221700623    3.300201871341
H     -2.312327168904    6.629076192359    3.130962468760
C     -3.119943129754    0.927706474647    2.522983641801
H     -3.907618425320    1.231925581804    3.222254669484
H     -3.419062623468    1.200008883051    1.496857901898
H     -2.984063032703   -0.164492333484    2.557634469393
C      0.350750132355    2.507923262022    4.931591337512
H      0.744480289469    1.660413637117    4.351172639589
H      1.210128476600    3.149719497550    5.187601804258
C     -0.298101763968    2.001778797060    6.200046155778
C     -0.454300172575    2.845255585677    7.312306073304
C     -0.772720535973    0.684398467948    6.294632751339
C     -1.069862848918    2.389414094945    8.480539100718
H     -0.084481960766    3.874044518757    7.262588554666
C     -1.388515697820    0.223035784305    7.461818112489
H     -0.654432877763    0.011525849803    5.440585879187
C     -1.540679697148    1.074773266473    8.559361026343
H     -1.178821122334    3.062366441059    9.335413781510
H     -1.750181504840   -0.807545134171    7.514021614877
H     -2.020473633171    0.715516817347    9.473552113056
N      1.955355619620    1.217152260958    0.106422964617
C      1.323339683048    0.033087606747   -0.017005369649
C      2.050263977827   -1.168122110479   -0.119788785054
C      3.439962136120   -1.163961724320   -0.053727809793
C      4.074069297620    0.083142073554    0.127365717050
C      3.303734123982    1.229501271058    0.195812517146
H      1.480974305749   -2.092206997907   -0.230672691661
H      5.160574297750    0.158435545195    0.202832490634
H      3.769322297288    2.210466100927    0.312550592994
C      4.242926826134   -2.432528979320   -0.154776602361
H      4.872140076181   -2.570397091155    0.739738687434
H      3.598107139692   -3.315744949026   -0.262515043669
H      4.922262920431   -2.394164429607   -1.022368786587
