74

C      1.514577142361    3.016890847713    2.125541770832
H      0.935839277998    3.751188387540   -4.051249691516
C     -0.912973696859    4.033019261621    0.794077653166
H     -1.649821847139    3.724423585000    0.049068379785
H     -1.065934732805    3.695142537977    1.820864112480
C     -0.004471830969    5.035155603124    0.509660312856
H      0.591410980465    5.485322807222    1.307352058442
C     -0.006128440806    5.850066353756   -0.750138619975
O      0.920714651798    6.552440026564   -1.081927812074
O     -1.165292862086    5.763601467183   -1.412126125054
Pd     0.977606217799    3.074560556772    0.192668375845
C     -0.337855720281    2.328651186893   -2.362251849496
O     -0.976587486442    1.525955784413   -1.645572324459
O      0.553762910278    3.127989747762   -1.931605116057
C     -0.617863229219    2.345067641018   -3.877182822837
H     -1.698287094877    2.508551458015   -4.013873769721
N      0.063566526488    3.473406547019   -4.486970922294
C     -0.539306442538    4.321025496457   -5.370834952441
O     -1.691425295773    4.179928974769   -5.755057397254
O      0.130163856590    0.097717407567    0.147694608987
H     -0.323614822742    0.779228410707   -0.474421876212
C      1.033470264084    2.005303922873    2.968711674288
C      1.413717050002    1.923033107826    4.318557726297
C      2.309489401120    2.882924980455    4.846037763359
C      2.785602212838    3.889201260911    3.997082707976
C      2.395617146787    3.968644473911    2.653332448451
H      0.348278146003    1.249299684847    2.574194620600
H      3.478337713386    4.637806721109    4.394255002191
H      2.792254345515    4.779492913772    2.035208874734
C      0.870609280752    0.816848794132    5.190125785535
H      1.679645393341    0.190914778822    5.604323173482
H      0.312614210717    1.216246390329    6.054436169099
H      0.192397849004    0.159508184006    4.627161012881
C      2.742584303439    2.826961185587    6.290603250210
H      1.883159919146    2.902638418115    6.978794787581
H      3.249718053902    1.876210833677    6.529189831904
H      3.436594454253    3.645271255249    6.532179739109
C     -1.306983401707    6.585911748474   -2.587809266140
H     -1.111635442882    7.632270068548   -2.301916789828
H     -0.529344829682    6.298781365130   -3.310604719717
C     -2.702924190299    6.395332985183   -3.140585041000
H     -3.461687432969    6.649843247546   -2.384375886055
H     -2.847845928546    7.053734252592   -4.010923226234
H     -2.863837653671    5.361807479818   -3.479444949440
C      0.347100874414    5.441319735423   -5.897273163223
H      0.675620145527    5.176807668869   -6.915531024840
H     -0.247887947029    6.361558211126   -5.976929354888
H      1.239670613396    5.626698260940   -5.281215949996
C     -0.268831779360    0.970212743644   -4.575421364469
C      1.168160790086    0.540157662506   -4.228857747884
H      1.443650042187   -0.367605450956   -4.789744412443
H      1.897467088504    1.324239742697   -4.490803849945
H      1.281059336615    0.311192330012   -3.157384753303
C     -1.265089607767   -0.119750256116   -4.137778344484
H     -1.231317016880   -0.297348941601   -3.056058907074
H     -2.297410896632    0.166602598581   -4.397881715996
H     -1.039396109506   -1.063758339850   -4.660853781376
C     -0.387455730037    1.143665110659   -6.102782113087
H     -1.372113307985    1.542952838106   -6.387251541586
H      0.378118850342    1.829115347699   -6.495851571170
H     -0.249730782743    0.169420689713   -6.599187378219
N      2.108731575765    1.271496650929   -0.096162776914
C      1.444695375327    0.101308808795    0.041459718338
C      2.146290048259   -1.120846051504    0.099240371307
C      3.523219205334   -1.109414333828   -0.042037317926
C      4.189466007617    0.106610806417   -0.249152225394
C      3.455489359657    1.290041642037   -0.268500885479
H      1.571510977054   -2.038327884369    0.227077357564
H      4.085955796484   -2.046000858376   -0.011844687564
H      5.270754006021    0.140262833463   -0.387856590709
C      4.110946194538    2.627946310709   -0.461613591005
H      3.584789187410    3.211446265148   -1.233516724642
H      4.076897700030    3.209518146723    0.473682828061
H      5.162722046838    2.515406436547   -0.758093697584
