44

Pd     1.149429368968    3.200757162703   -0.086488480862
C     -1.664239735877    3.476413506369    0.006915339643
O     -0.749809170563    2.548561811084   -0.287028985877
O     -2.801329474617    3.194267926912    0.293365743977
C     -1.173626914204    4.958110646676   -0.094908923809
H     -1.574245225139    5.482191763381    0.791554174829
N      0.276849677347    4.935514263273   -0.074104652846
C      1.254863233227    5.628443234453    0.491545540215
O      2.371714708712    5.006291682323    0.510849090095
O      0.074718183085    0.183873789541    0.223731935413
H     -0.368600898742    1.072842432405    0.064336680454
C      1.135006354991    7.006649377582    1.073857971086
H      1.474311483968    7.751311559888    0.336196612248
H      0.102193116467    7.249586049246    1.358517563377
H      1.794465981618    7.077681942854    1.950182445664
C     -1.770559373019    5.660758187246   -1.374846420725
C     -1.448318055826    4.842811891635   -2.638742951600
H     -1.807665623028    5.373138634836   -3.535161632326
H     -0.363748543150    4.687924267355   -2.749528039448
H     -1.933713589765    3.854883268757   -2.620727020813
C     -3.295294537481    5.806822960870   -1.213793374198
H     -3.790884637722    4.834855203270   -1.094388262893
H     -3.545229724062    6.418601386197   -0.330871414941
H     -3.715897847710    6.311136801110   -2.098776530420
C     -1.157250989023    7.065698684442   -1.513812723418
H     -1.357991020746    7.686349458012   -0.625302873753
H     -0.069391181085    7.024149133762   -1.672833072608
H     -1.599258672898    7.581941929108   -2.380867309271
N      2.101211679542    1.300511455862   -0.011832765963
C      1.384526507394    0.183691547310    0.148330426085
C      2.006996536464   -1.103858751208    0.254012531831
C      3.363851261171   -1.208256985325    0.171147999735
C      4.158411081077   -0.039112509400   -0.017305572251
C      3.484111645920    1.217626703040   -0.102776032895
C      5.570861681348   -0.087358786049   -0.120643652486
C      6.305727917298    1.068250485291   -0.301835976026
C      5.638624359338    2.309769584915   -0.381155359292
C      4.259722470646    2.389221523877   -0.284286644328
H      1.351226946652   -1.963790906533    0.391928057745
H      3.853641637373   -2.183046755255    0.244144948581
H      6.066786547006   -1.059467798443   -0.054134557011
H      7.394294698978    1.024880215107   -0.381334671302
H      6.215874368664    3.227356308670   -0.518855869788
H      3.768784863056    3.361932230158   -0.333093520957
