75

C      1.488348329832    2.937115378629    2.114564811345
H      0.721137474140    4.013877054808   -3.609804630008
C     -0.904734596178    4.153223639476    1.008741369470
H     -1.796919917585    3.846631523422    0.457255646217
H     -0.896854085792    3.984863491946    2.086691574310
C      0.017016750722    4.992157371859    0.412832057020
H      0.798983833423    5.476010484833    1.004494877605
C     -0.179853036787    5.608643410016   -0.944904344225
O      0.706932234294    6.139540644484   -1.572164791374
O     -1.459681158640    5.555878991779   -1.329012733961
Pd     0.752523973382    2.899132342802    0.255369249880
C     -0.416766948285    2.113644781319   -2.519434304248
O     -0.952864561496    1.068258052769   -2.083141813635
O      0.214031741569    2.967291329621   -1.830561618736
C     -0.531933900048    2.382850841652   -4.029415076428
H     -1.610951970943    2.497371501797   -4.239818623700
N      0.149217539672    3.621178280552   -4.351763406871
C      0.064647632947    4.240472369816   -5.563725565426
O     -0.613787788613    3.804715893391   -6.483358445210
O     -0.311858325424   -0.033746605779    0.016774465387
H     -0.627287978402    0.549352223701   -0.827826883687
C      0.968624312721    2.121640078932    3.128282857104
C      1.522785520420    2.106893743927    4.418921416920
C      2.635361945189    2.934323847289    4.703820918673
C      3.147420953039    3.742990429590    3.682184789417
C      2.586328327904    3.755674774805    2.397762921848
H      0.114411106571    1.469437868993    2.921461994717
H      4.008812845941    4.384665237935    3.891449354747
H      3.025235534682    4.403713063308    1.632963492928
C      0.936460926012    1.213034876601    5.484171248520
H      1.681329696693    0.494154713176    5.866189473033
H      0.588582794883    1.793507454060    6.355744794167
H      0.081269920349    0.638083601729    5.100528537097
C      3.259556774822    2.945019699932    6.077622937616
H      2.535400539866    3.247488869902    6.853421257122
H      3.627454744631    1.945654170194    6.366792608683
H      4.110105989605    3.640411571821    6.125110178732
C     -1.804371289072    6.151590157602   -2.596485451247
H     -1.371789812877    7.163547113206   -2.638054128634
H     -1.337820619438    5.554171709631   -3.393303096593
C     -3.313660093268    6.167752462574   -2.712691183850
H     -3.767870438843    6.765718352246   -1.907477605768
H     -3.607300766413    6.607677418176   -3.678223466392
H     -3.725556898441    5.148109934044   -2.662697187294
C      0.902883254628    5.504045476127   -5.694131444959
H      1.868858544641    5.244996706087   -6.157835066884
H      0.386648686001    6.201823263754   -6.367212702909
H      1.103694959739    5.989449560445   -4.727216920535
C     -0.064019732739    1.159106237541   -4.869576259572
H     -0.611415215659    0.285680766906   -4.486230189475
H     -0.396149908188    1.346600258216   -5.899682926558
C      1.426630328812    0.909461112628   -4.849514187724
C      2.255560130778    1.482818228752   -5.828962938849
C      2.025378302045    0.119543081346   -3.853108613097
C      3.638922439421    1.284160072382   -5.807806083786
H      1.801861581618    2.080665881428   -6.624346116566
C      3.409647105703   -0.079704001784   -3.827074864715
H      1.393018236364   -0.351099851177   -3.095458030103
C      4.221609796252    0.505657799961   -4.803457931236
H      4.264319004869    1.735692181469   -6.582814571402
H      3.860767673578   -0.693447478698   -3.043442712179
H      5.303176394252    0.348347420394   -4.784313987377
N      1.742330901956    1.009238691965    0.065934618428
C      0.985514188451   -0.116986882439    0.110648836741
C      1.610116968557   -1.379052516159    0.282090683029
C      2.985803917695   -1.463005377015    0.333706100297
C      3.752455347902   -0.286084181005    0.218709547437
C      3.085980541328    0.923244532013    0.103657506327
H      0.968108076964   -2.258066116208    0.344533176120
H      3.478486303363   -2.431092825357    0.451519432072
H      3.639969135942    1.861640689473    0.058769091473
C      5.253668069914   -0.356192905756    0.193904270208
F      5.726353135027   -1.126108415785    1.190390156113
F      5.699942363421   -0.902110676525   -0.957502918497
F      5.819703553103    0.854621759992    0.306695134517
