74

C      2.549797978083    3.957735463200   -0.862019865943
H     -0.979415892190   -0.841023561950    1.224647387491
C      0.110373313868    5.121464756303    0.572748410289
H      0.915018975653    5.851943296216    0.689292228834
H     -0.451770407316    4.781817763168    1.450733356720
C     -0.359906367863    4.853111252207   -0.696920391769
H     -1.287989332733    4.293184854988   -0.842922615462
C      0.138687110634    5.613074854346   -1.891817981861
O      0.819064999017    6.607845310217   -1.844221654220
O     -0.308526825437    5.056665550292   -3.029986125206
Pd     0.915360235268    3.149667165165   -0.060571088466
C     -1.633533484829    2.288050171902    1.693018474724
O     -0.864762928006    2.123629265543    0.638353574461
O     -1.681637094414    3.308144093083    2.354983454486
C     -2.510166151855    1.057840425790    2.039043616600
H     -2.528452897834    0.397883684676    1.149627248190
N     -1.951530038319    0.403753838385    3.213563192059
C     -1.259209511779   -0.660879094115    3.154515911602
O     -0.862811025260   -1.346608367310    2.048178395696
O     -0.031341187917    0.042811085640   -0.340292467668
H     -0.475504352736    0.922896081440    0.016675051750
C      3.420705935921    4.762186799858   -0.116505191379
C      4.603213221874    5.281346879163   -0.671224433170
C      4.921321804773    4.988466161573   -2.017488223693
C      4.042669213560    4.182089861821   -2.752902889778
C      2.867998383527    3.666134608304   -2.192254887768
H      3.192246916735    5.003842051722    0.925985855825
H      4.284007195346    3.945455499739   -3.794024610979
H      2.214147477365    3.036517790183   -2.801803878777
C      5.511427309842    6.151813440855    0.162297896189
H      6.529732171727    5.732348851266    0.231160887251
H      5.617392890826    7.159483489645   -0.274708684941
H      5.126806073472    6.270703708410    1.185633491411
C      6.176013586283    5.535495094706   -2.652763086683
H      6.188331224777    6.638944814199   -2.645985520091
H      7.083573282079    5.210021014815   -2.115791682682
H      6.270853483554    5.207327577482   -3.698179830348
C      0.080602501719    5.699170730289   -4.257816504117
H     -0.232630683043    6.755010696368   -4.219280519192
H      1.180608337126    5.690616263357   -4.324554392022
C     -0.568150851820    4.953835790273   -5.405076713205
H     -1.665310201473    4.969054959069   -5.315732662018
H     -0.293058958391    5.425615742134   -6.361228711609
H     -0.239589454976    3.903385471938   -5.431814224360
C     -0.780848939491   -1.346363872243    4.403731743097
H      0.320087329407   -1.397370831139    4.412340698262
H     -1.137222651572   -0.801503658421    5.285136488064
H     -1.152546996562   -2.383795650256    4.428268513750
C     -3.946427046753    1.493416599344    2.372615234549
H     -4.503379084540    0.590510698065    2.680767467208
H     -3.874570357228    2.141801936331    3.259239312082
C     -4.719791112988    2.224196815188    1.261487517028
H     -4.146529841548    3.132425716856    0.999059906693
C     -6.083926026676    2.685609303190    1.791743499129
H     -5.972848838586    3.322357538339    2.683951513250
H     -6.636496454397    3.262206449327    1.031834491208
H     -6.710757453234    1.822066376734    2.074942199211
C     -4.888407752770    1.382950247038   -0.012001447310
H     -5.483853383796    1.923308258939   -0.766266191813
H     -3.922708693890    1.132369151130   -0.478728391683
H     -5.411970134334    0.435432936581    0.205710551988
N      1.934498004853    1.215357152166    0.043728960259
C      1.279243849568    0.049502379373   -0.162217128382
C      1.960243744223   -1.200804386194   -0.211238661122
C      3.328899771698   -1.193257979983    0.014870336089
C      3.999811178664    0.010447925800    0.279740211773
C      3.270734112911    1.183359996240    0.275345240441
H      3.880478285079   -2.137369202805   -0.007416164307
H      5.073140664419    0.037063604163    0.472032580889
H      3.751899193380    2.145850543265    0.443341683142
C      1.178058057375   -2.457917959390   -0.471914087302
H      0.496509279525   -2.671616698504    0.367603821027
H      0.554447500837   -2.359493927211   -1.374320002669
H      1.851255016251   -3.317656044491   -0.600342522524
