74

C      2.592571016585    3.889184550541   -1.192515724536
H     -0.370208954620    1.137508171751   -0.175684844282
C      0.028320353587    5.228225431460   -0.145911110561
H     -0.747127441629    5.177296718786    0.620932028000
H      0.838801963819    5.944507962270    0.001741533787
C     -0.186916648911    4.666104664789   -1.390288591134
H      0.473242886962    4.899842041557   -2.228606606611
C     -1.459163797744    3.993915259338   -1.833705365315
O     -1.511104535911    3.313728877852   -2.832448403361
O     -2.497960494110    4.277691275650   -1.043298234622
Pd     1.000590650880    3.262071394882   -0.147059202602
C     -0.704441828739    2.499866177190    2.136506907338
O     -0.740057135522    2.436327436171    0.834702678689
O      0.230592809904    2.940735970017    2.792739012839
C     -1.968542906355    1.949838221646    2.825569495489
H     -2.004590756477    2.412198741818    3.819818689327
N     -3.132573614769    2.365977227699    2.055576007937
C     -4.340832445271    2.828050010586    2.487418917714
O     -5.183971408333    3.236644323640    1.697970481850
O      0.082794430554    0.381512460659   -0.640250670427
H     -2.973493779779    2.431419537558    1.053633356044
C      3.352893226816    5.000752791411   -0.800988063327
C      4.473620027143    5.431083465179   -1.532957251989
C      4.842246815383    4.731554918859   -2.704983354674
C      4.072396279456    3.627150554536   -3.093554127955
C      2.960315556475    3.203624673643   -2.356157299374
H      3.096020251964    5.551881073841    0.109056088598
H      4.346483593238    3.080770156599   -4.001370111521
H      2.386756648814    2.340519957247   -2.704536020900
C      5.267920820122    6.627734603865   -1.068467969393
H      6.321739999550    6.366197368884   -0.871314453385
H      5.283067390499    7.426233983564   -1.829998934711
H      4.850538204767    7.054278834136   -0.144629192441
C      6.034612188000    5.163902948220   -3.522755966656
H      5.924845128142    6.198492216832   -3.890973766953
H      6.966764427006    5.140460038609   -2.932299243567
H      6.176891115673    4.512200983608   -4.397114063440
C     -3.799128881423    3.753234497705   -1.418695274261
H     -3.655478809669    2.757661126335   -1.863315775260
H     -4.350674515909    3.660876827574   -0.472004462948
C     -4.503939367823    4.686753889912   -2.387220672012
H     -3.961538768361    4.757653499872   -3.342212697763
H     -5.515205276546    4.302643097386   -2.595701559714
H     -4.605737711744    5.695268122227   -1.957072874911
C     -4.593865730362    2.826782916251    3.987151973612
H     -5.644945678074    3.092347334075    4.152383680781
H     -4.384228745682    1.847979856610    4.444972814318
H     -3.957050490012    3.573255887279    4.489915829212
C     -1.894869407967    0.411544645589    2.969581931718
H     -2.825794663109    0.081621194166    3.465720082758
H     -1.920403484972   -0.022499601278    1.955079865943
C     -0.684609283571   -0.155542588361    3.735386753925
H      0.228298687013    0.110500011549    3.172164662400
C     -0.770006672583   -1.686942326698    3.782237270118
H     -0.847509897760   -2.119775678889    2.771422785398
H      0.119190581897   -2.121333897690    4.267136420877
H     -1.654767780120   -2.017292184251    4.353687923378
C     -0.539447570157    0.437586775675    5.143399236474
H      0.281198378381   -0.053670170879    5.691144477192
H     -0.309797496829    1.512650349917    5.104140513471
H     -1.461658916086    0.295028871508    5.734263591581
N      1.960262303677    1.355218283474    0.299711970825
C      1.329790801440    0.270092758171   -0.198674698783
C      1.961169743145   -0.985874866978   -0.258993860185
C      3.224855397796   -1.113674843759    0.293445648431
C      3.819965180463   -0.011655639198    0.920850757629
C      3.163284159155    1.218402043830    0.919165373580
H      1.419492573320   -1.820460528283   -0.704593587873
H      3.737936503538   -2.078528421624    0.272237621520
H      4.787255481183   -0.102196499220    1.416490675278
C      3.730178756593    2.412578092107    1.628513540104
H      4.101887035320    3.159109251157    0.911047934016
H      2.942830067375    2.887974313236    2.234908370482
H      4.560905990842    2.116333509539    2.283576985185
