74

C      1.508233814462    2.915413229851    2.144613544134
H      0.885799328579    3.779320302557   -3.895654960867
C     -0.915825401649    3.983125341506    0.821289713334
H     -1.663260671807    3.693784974311    0.079007497577
H     -1.074607620945    3.652556809315    1.849561656275
C      0.016013446100    4.960591876531    0.532048904357
H      0.629712044073    5.396044360086    1.324827015743
C      0.040783478401    5.761329569626   -0.737662669890
O      0.978245149023    6.451903012607   -1.061051479339
O     -1.105090951722    5.669316872674   -1.422568870770
Pd     0.953133380521    2.971139469998    0.222377545204
C     -0.382742678650    2.291174059918   -2.362841146957
O     -0.980110469561    1.413458579320   -1.696390052243
O      0.517704733941    3.057355765669   -1.898960203132
C     -0.745987866114    2.449208122333   -3.846525947318
H     -1.799624171498    2.776641526251   -3.889526981982
N      0.079491821735    3.488693371473   -4.438357279849
C     -0.293540442858    4.170125062881   -5.558752255091
O     -1.337404918327    3.941346034401   -6.152588360223
O      0.268004540931   -0.121135022200   -0.160094961082
H     -0.235992503141    0.623405973068   -0.688139149781
C      0.942944428245    1.992998906156    3.034944577804
C      1.358009335326    1.911058698923    4.374671913924
C      2.375360354791    2.778818059987    4.837562795168
C      2.936837050447    3.692800689629    3.937454606593
C      2.514247714390    3.771816009684    2.603710334545
H      0.164684369746    1.305237593790    2.689463103317
H      3.726589645356    4.366134156726    4.284649684418
H      2.985095395743    4.502686354148    1.939261941107
C      0.724588030539    0.903389597958    5.302759694554
H      1.471787737083    0.203052199738    5.713797411862
H      0.246675068499    1.392193926501    6.169053175915
H     -0.043491910208    0.309289506380    4.786715657912
C      2.848857226364    2.721495750168    6.269387215240
H      2.028177849172    2.919750380849    6.980076375855
H      3.251381142473    1.726898979370    6.527648603691
H      3.640347783626    3.461201138395    6.458566802942
C     -1.200753004343    6.440780426450   -2.636902962512
H     -0.973803683666    7.492578711930   -2.400119758112
H     -0.426854732535    6.087375949416   -3.333945080178
C     -2.594403778860    6.268241997013   -3.201065912253
H     -3.356241809686    6.609763089872   -2.483317082761
H     -2.697671511090    6.859065406518   -4.124062331475
H     -2.794617874223    5.216589635818   -3.454255636697
C      0.685326692168    5.233824860368   -6.036013260634
H      1.044150445909    4.954391810432   -7.038692538643
H      0.148223549737    6.188177363527   -6.142410663215
H      1.551275938608    5.373456626810   -5.372544902947
C     -0.658393211592    1.114456321081   -4.650249121948
H     -0.754451899337    1.439613670828   -5.698962370945
C      0.699540058592    0.424461332263   -4.481910540608
H      0.797000361972   -0.420968579842   -5.181624138295
H      1.532471335257    1.117960038735   -4.680558869398
H      0.820061431429    0.021850667384   -3.462097440179
C     -1.827699536796    0.166113447940   -4.364936507260
H     -1.814099143443   -0.191581443966   -3.326057747112
H     -2.793886652504    0.668176327683   -4.536737668604
H     -1.782760589775   -0.705444599018   -5.038506249308
N      2.151369856571    1.223919409749   -0.046393925194
C      1.566628659835   -0.000313867371   -0.096904794623
C      2.365361654951   -1.170610400151   -0.050945868960
C      3.739725072437   -1.063331888193   -0.001743163044
C      4.334832489003    0.216352792927    0.004671481518
C      3.492124634153    1.322481284950   -0.007266470701
H      1.853633369374   -2.133087187896   -0.076469059588
H      4.370970609756   -1.952878275896    0.021894877663
H      3.922999253622    2.324747167273    0.032409399380
C      5.803294060346    0.451944937677    0.041730482557
O      6.321829895253    1.544454658304    0.041473727679
O      6.499216143560   -0.699919121133    0.075365971793
C      7.921601652685   -0.577136396535    0.110824311913
H      8.243117095969   -0.023159469928    1.005641050143
H      8.316104019119   -1.600288493360    0.133110126168
H      8.289554051811   -0.044139843182   -0.778820961242
