71

C      1.913459984354    3.168341085656   -1.831498363789
H     -3.004348912251    0.554924579792    2.733569682367
C      0.286671130295    5.142742541083   -0.136778588960
H     -0.038051968893    5.341125648834    0.887028205219
H      1.181822188774    5.650981886392   -0.502173657712
C     -0.564881418413    4.514058689768   -1.022277507085
H     -0.333491817085    4.482516543564   -2.089421861613
C     -1.991423084298    4.135508678126   -0.738697152954
O     -2.643639830756    3.467682542859   -1.507552859059
O     -2.450319163509    4.655423273611    0.404369577409
Pd     0.833266009341    3.005833321412   -0.153264289698
C     -1.034231082346    1.974018674009    2.032941746425
O     -1.262354474512    0.934395151743    1.366525425319
O     -0.237541561898    2.901549929595    1.712806629850
C     -1.789076631079    2.138296847066    3.364673517061
H     -2.031518267992    3.202810169007    3.485727892080
N     -3.048013178911    1.418422513792    3.266201039415
C     -4.260884424619    2.005985634575    3.478785096620
O     -4.388273463380    3.150065245186    3.894870372451
O      0.181526393691   -0.066956437831   -0.408364990744
H     -0.437116552083    0.457788052276    0.248666299804
C      3.053626158964    3.980484411659   -1.887273566338
C      3.841453726197    4.074603146739   -3.048408995754
C      3.472536865702    3.332129626795   -4.193040998294
C      2.331015985426    2.521509714771   -4.125989884742
C      1.554035207888    2.431097264425   -2.965208290855
H      3.362464046304    4.561290508214   -1.011458017749
H      2.039025925885    1.940818932182   -5.006543586819
H      0.675106915566    1.780618910417   -2.954898757489
C      5.063621350722    4.960363688913   -3.065895439314
H      5.980061438846    4.386272701636   -3.286178357947
H      4.991086699563    5.740050691971   -3.843540091586
H      5.209180331156    5.465049391343   -2.099423452234
C      4.287746262038    3.407647641022   -5.461050300379
H      4.337097064879    4.437152467350   -5.855819125505
H      5.330856735739    3.086048752547   -5.297700199342
H      3.861429025031    2.769041141351   -6.248389412678
C     -3.831723398547    4.400775536146    0.752931676806
H     -4.090952085836    3.384290525470    0.422929331734
H     -3.863872995856    4.440730171949    1.849550855787
C     -4.756066079771    5.430852204979    0.127196068126
H     -4.746973581976    5.360190363834   -0.970916399217
H     -5.787492176298    5.257936912736    0.473536898873
H     -4.465030438772    6.451348398224    0.421493895576
C     -5.466788157943    1.138260504829    3.151777449118
H     -6.192264769328    1.222451919590    3.973486777532
H     -5.953863947030    1.532639500764    2.245561591151
H     -5.217084022587    0.079799250548    2.988766882013
C     -0.936798271556    1.705580599076    4.615551660462
C      0.326931821713    2.578438150420    4.722125085132
H      0.877617976359    2.327680869045    5.643498154276
H      1.003886359057    2.433563180359    3.868579157456
H      0.069940782900    3.649091791190    4.764288798682
C     -1.792463082321    1.921200031575    5.878482827281
H     -2.131158888608    2.965369298628    5.960748050367
H     -2.686754671188    1.280736049603    5.873684171976
H     -1.206872738615    1.675378907041    6.779369579852
C     -0.536549688060    0.222243318906    4.518116804397
H     -1.423165783026   -0.428233507379    4.452400291823
H      0.092951522068    0.021344350574    3.637498069940
H      0.029454426144   -0.080382555748    5.414129630414
N      1.971192756737    1.238224060189    0.237618352049
C      1.446882993417    0.030106996174   -0.077742564449
C      2.269494032051   -1.121191714413   -0.077435375223
C      3.599441015660   -1.013223572164    0.289400112821
C      4.114901336443    0.240587460805    0.659339701502
C      3.266916672501    1.333701122972    0.607433576904
H      1.811678574219   -2.071335817638   -0.354635090953
H      4.239012607011   -1.899641578698    0.300383540994
H      5.154202732688    0.368242692780    0.964381937399
H      3.625451505308    2.336083781891    0.850360452720
