71

C      2.547119749421    3.950030067742   -0.905662949290
H     -0.824538732554   -0.793211060492    1.409634477933
C      0.189126441051    5.108438346509    0.658444983361
H      1.007258776277    5.827393989321    0.751492390507
H     -0.311299838280    4.743395535779    1.562590467177
C     -0.350098256063    4.883345376477   -0.592452497731
H     -1.289168334231    4.335659638466   -0.710618942811
C      0.102215982554    5.673610686722   -1.786120050398
O      0.805444755184    6.652597593852   -1.741700025144
O     -0.412469538694    5.162855145091   -2.916873164993
Pd     0.929150606358    3.146121145641   -0.066367726719
C     -1.448070509020    2.220516922145    1.828540908773
O     -0.870680824242    2.157267441176    0.643917317837
O     -1.254116291145    3.117196602935    2.628729516316
C     -2.424651734019    1.049244578635    2.107559070408
H     -2.392138457096    0.390156643134    1.216275431786
N     -2.031517949263    0.358460277085    3.319776270573
C     -1.266550151870   -0.658050495250    3.315468432129
O     -0.675290463515   -1.259832817670    2.251628880825
O     -0.065117586731    0.032185414258   -0.249943113589
H     -0.498073932591    0.941792557119    0.051869861259
C      3.462035584324    4.717967579378   -0.174255148165
C      4.629767004811    5.233619341640   -0.762597110177
C      4.887406377333    4.974557941740   -2.128710864783
C      3.965298741548    4.204569892094   -2.849752549141
C      2.805306089748    3.692310245248   -2.255860768046
H      3.280625248057    4.932653477632    0.883309842935
H      4.159389598625    3.994672023651   -3.906373474733
H      2.115512644800    3.092645668267   -2.856121233134
C      5.586292384975    6.064854096034    0.056801093934
H      6.599095634521    5.627110528814    0.071795334698
H      5.691912747144    7.082726349655   -0.355942261271
H      5.245844299548    6.160661398443    1.098022945807
C      6.124439981321    5.519256462925   -2.799599156058
H      6.155816920521    6.621733264533   -2.762634224484
H      7.047346386038    5.164242105039   -2.309563898220
H      6.171082004041    5.219523041423   -3.856748827455
C     -0.071989744370    5.836790910414   -4.142478411653
H     -0.361930922476    6.896410425543   -4.055698058912
H      1.022993438802    5.810330439738   -4.264472666663
C     -0.791460584723    5.140148799794   -5.278074629192
H     -1.882312664680    5.172890395198   -5.133560378003
H     -0.554483928019    5.636679625780   -6.231875795063
H     -0.485764190155    4.085182916339   -5.353289161984
C     -0.910179314213   -1.369051678824    4.590923079641
H      0.182707584105   -1.365482761726    4.732953231975
H     -1.397862486794   -0.877565553701    5.440192848770
H     -1.225005848166   -2.423855447469    4.534694593445
C     -3.914735357580    1.533986840939    2.207242492846
C     -4.269168337614    2.349965154410    0.950843760368
H     -5.340133903936    2.609640387107    0.953249028526
H     -3.703396553612    3.294312411092    0.906759270700
H     -4.064177044535    1.785448940579    0.025715402498
C     -4.805488645870    0.278923155571    2.264033418992
H     -4.693116118097   -0.337786789405    1.355901059666
H     -4.548222427125   -0.343686840166    3.134159756504
H     -5.867510246797    0.561424036147    2.348520596855
C     -4.148432340484    2.381917927594    3.469059540918
H     -3.882051543011    1.810663439302    4.369182132596
H     -3.533138490927    3.291791754770    3.459458376281
H     -5.210497132699    2.671745723429    3.535430420438
N      1.929946607041    1.201794094182    0.004700644341
C      1.247614152594    0.036936187749   -0.118735777217
C      1.920335487067   -1.206857932291   -0.113465289532
C      3.291370071074   -1.241541965404    0.053355060651
C      3.990781923103   -0.034478618990    0.214216894627
C      3.274858624717    1.148355968848    0.176930097737
H      1.319256225548   -2.109711798246   -0.223601232150
H      3.819119359655   -2.198527118104    0.067932352143
H      5.071595042504   -0.009875740526    0.358196996070
H      3.779982692769    2.108576342716    0.274817229750
