39

Pd     1.207400955112    3.023959955552   -0.289057335305
C     -1.543516767308    3.614065550568    0.101967286619
O     -0.736973207743    2.565032581574   -0.034635312961
O     -2.710606990428    3.520976488395    0.380836951762
C     -0.871256210617    5.030000600035   -0.101936108122
H     -0.980640290457    5.525164179167    0.881342202939
N      0.521345037340    4.821170045681   -0.422806818671
C      1.668428860703    5.476488044477   -0.347745541595
O      2.689908069315    4.709050070849   -0.422472655331
O     -0.051049773213    0.076825650789    0.266929945173
H     -0.434788532293    0.996184500049    0.181814593160
C      1.810759393438    6.959147825709   -0.177978458320
H      0.862514500053    7.483921103349   -0.356519711902
H      2.159288544579    7.175377319363    0.845120887061
H      2.578779581102    7.331689747718   -0.871819217578
C     -1.646493133703    5.840883861619   -1.133047233418
C     -2.849928382301    6.457295592069   -0.757818458434
C     -3.600847505498    7.171554445189   -1.693449180005
C     -3.158639881005    7.280680113527   -3.016042422040
C     -1.962496287462    6.666832617510   -3.396467066484
C     -1.210841114404    5.948772149915   -2.460890870089
H     -3.206093703101    6.362192480509    0.270412260816
H     -4.536502329648    7.646676942796   -1.387470956178
H     -3.745293016062    7.842966470782   -3.747059688697
H     -1.610488462680    6.743819307703   -4.428551716732
H     -0.277995286861    5.467089650679   -2.761276356648
N      2.008943773249    1.092139605521   -0.107363556745
C      1.257958151971   -0.002244001636    0.130674585947
C      1.842802960893   -1.296650742876    0.246723092705
C      3.219447856386   -1.391965006037    0.106592796717
C      3.997873821958   -0.247153408394   -0.139532841257
C      3.352528658107    0.969183659170   -0.238060589118
H      3.698169391601   -2.371630730405    0.190058144983
H      5.081217655329   -0.305340914268   -0.251145509831
H      3.897057725456    1.898094944672   -0.426803401737
C      0.950564691012   -2.476189034041    0.511152123170
H      0.389299676117   -2.343608854296    1.450298734533
H      0.195857876486   -2.586006417582   -0.284425287503
H      1.532962714202   -3.406182721787    0.576170473623
