77

C      2.561056236140    3.923016812398   -0.863613023755
H     -0.727323760410   -0.703909494418    1.637040543903
C      0.207728084092    5.082683714962    0.700858274329
H      1.023656177702    5.804944331268    0.786566456065
H     -0.295206146614    4.727155178837    1.607302589847
C     -0.331980565881    4.843965199310   -0.547222292019
H     -1.269963139444    4.293029076204   -0.658960412194
C      0.113832570304    5.625100855523   -1.749131301234
O      0.810170297197    6.609403201226   -1.715538764535
O     -0.399370656525    5.100129536596   -2.874302990124
Pd     0.954791190198    3.115722981464   -0.007001619444
C     -1.462706509804    2.217857804230    1.880724690556
O     -0.841573473690    2.118668978470    0.720145304990
O     -1.306736450222    3.144883216057    2.653358061756
C     -2.439094464718    1.049328053810    2.169507918434
H     -2.356220885616    0.346302711051    1.315307456429
N     -2.099469525414    0.420252291138    3.431327842625
C     -1.267296696683   -0.538622874066    3.509672941568
O     -0.566421576923   -1.119593679377    2.501799965281
O     -0.019672371937    0.003649170390   -0.151714032358
H     -0.462004248308    0.918244399337    0.157599248029
C      3.473056791523    4.706711891500   -0.145906952432
C      4.631046923159    5.228293687300   -0.747818609528
C      4.881098290122    4.959129123423   -2.113364158189
C      3.961571164410    4.173254063679   -2.820288042568
C      2.811291540408    3.654910470723   -2.213041774534
H      3.297871116329    4.928321762469    0.911191553880
H      4.150195872196    3.954875919931   -3.876174658023
H      2.123611241743    3.041937938051   -2.801997184004
C      5.585794059926    6.075782348028    0.056865502947
H      6.602396263544    5.646843764511    0.069086225567
H      5.679725883113    7.090536661528   -0.366271701305
H      5.251699414736    6.178507536674    1.099477594725
C      6.107859964303    5.509468704867   -2.798365223957
H      6.129123330035    6.612502054495   -2.771587704732
H      7.037681730014    5.167539728167   -2.312112631140
H      6.149508003025    5.200549359559   -3.853077567842
C     -0.064430662870    5.764179811892   -4.106646246577
H     -0.359740601803    6.823083300246   -4.029530357478
H      1.030482113146    5.742178210503   -4.230248109902
C     -0.782086889111    5.053070800519   -5.234455709009
H     -1.872898260703    5.081452723396   -5.088443907334
H     -0.549274734986    5.541748072504   -6.193334775613
H     -0.470935188667    3.999047853007   -5.300196598785
C     -0.944527973308   -1.188917464306    4.825029610409
H      0.133355867156   -1.098205991338    5.035822972534
H     -1.521703940784   -0.714089403241    5.626309760354
H     -1.175442862286   -2.265695522957    4.780667062279
C     -3.936956479518    1.518414276054    2.172807044566
C     -4.240250726263    2.267083947420    0.862378887366
H     -5.313060093453    2.511419417837    0.801441764343
H     -3.684390494184    3.216187902423    0.798294651409
H     -3.984629838513    1.661395144864   -0.023263639669
C     -4.814782783161    0.255428479984    2.250380905613
H     -4.654743532879   -0.401644535913    1.378367673366
H     -4.588180868949   -0.321470049686    3.159584523399
H     -5.882745856936    0.526806488438    2.274484314434
C     -4.239363610187    2.424112377126    3.378661634628
H     -4.008937797282    1.901472232867    4.317394498925
H     -3.635196435616    3.341174464327    3.352399425290
H     -5.306580483374    2.702193801514    3.381305633177
N      1.961575505465    1.177006393936    0.055673798102
C      1.293119479188    0.025158004656   -0.078462953418
C      1.976428116996   -1.245605906410   -0.150484540487
C      3.393945461493   -1.267479128701   -0.022441896451
C      4.058937870426   -0.021416518892    0.171473219449
C      3.331365172490    1.134204477260    0.194278096512
C      1.264164670349   -2.455419694333   -0.340696726730
C      1.945130736810   -3.656403302921   -0.404766570662
C      3.353811895814   -3.683721156706   -0.277185112683
C      4.066573477343   -2.514596251556   -0.088618508763
H      0.178655056855   -2.419965825839   -0.434351007919
H      1.395640632611   -4.589110087433   -0.551328521567
H      3.881089727524   -4.639934819753   -0.327098634988
H      5.154641508952   -2.535985214987    0.011190044598
H      5.143026010558    0.016804313376    0.291227074231
H      3.818784838346    2.099347073618    0.317011141597
