28

Pd     1.110506765472    3.114561251914   -0.054939558567
C     -1.714793574650    3.432761747384    0.057328208072
O     -0.795348979718    2.464806216480   -0.026488202173
O     -2.895465297099    3.219144941183    0.125339229772
C     -1.149851715316    4.886935539457    0.066010112153
H     -1.484277833858    5.359575313574    1.007197581546
N      0.281450864830    4.847697989842   -0.064568061836
C      1.363349309859    5.590476224843    0.054835440572
O      2.445493580999    4.901548764705    0.018062946971
O      0.037718969418    0.049760810914    0.027981098647
H     -0.415767708359    0.952511398749    0.013569671513
C      1.386741601864    7.079428520534    0.216457598194
H      2.009521971652    7.520444060195   -0.576906244634
H      0.378489510533    7.514465272507    0.175739647836
H      1.856842811319    7.333592786861    1.179447521709
H     -1.636174253459    5.428426655866   -0.764534445814
N      2.045184475659    1.224750613077   -0.022087684761
C      1.342195405608    0.061295756781    0.012896084237
C      2.016281512694   -1.188534570046    0.034368145803
C      3.392851694541   -1.227001053445    0.020158120933
C      4.088933182767   -0.007125606836   -0.015403439075
C      3.390923385056    1.188109750900   -0.035292122259
H      1.407756582888   -2.092645518065    0.061978037611
H      3.950582469519   -2.163757715077    0.035594661457
H      3.923524584336    2.140970784456   -0.062210114378
N      5.555087691188    0.011672746063   -0.031404782982
O      6.105343511338    1.100342523778   -0.062636326059
O      6.124219650755   -1.067971932484   -0.012250109008
