38

Pd     1.108606228185    3.053134904051   -0.106704552286
C     -1.708272902062    3.351838068280    0.023139778670
O     -0.791808033309    2.394275385467   -0.134172440182
O     -2.878314416086    3.109745332380    0.188974159794
C     -1.183577040438    4.825463713039   -0.031288929076
H     -1.502692429170    5.291359350561    0.918291952470
N      0.262561458608    4.778500300469   -0.111558141383
C      1.329757302016    5.521364473275    0.109243945540
O      2.422031434421    4.847038162409    0.083596480760
O      0.080385880665   -0.025653638152    0.017528927513
H     -0.380966882308    0.866713063037   -0.021457300133
C      1.334300539659    7.000791543213    0.352823200045
H      1.660983135059    7.521040416796   -0.562194606194
H      0.340619246328    7.375538622609    0.635396772418
H      2.061562432734    7.233652323990    1.144024512993
C     -1.789354416650    5.612038393576   -1.217569509821
H     -1.306935974691    6.606620855021   -1.220732098930
H     -1.467722959201    5.115767883047   -2.149363296336
C     -3.317587046627    5.807202447916   -1.238584289829
H     -3.783129301038    4.811360875698   -1.307485580768
C     -3.710238141274    6.607356261914   -2.487922167070
H     -3.354317197365    6.119919612758   -3.410364268318
H     -4.804630796115    6.708418202071   -2.564595882758
H     -3.283324462760    7.625518379968   -2.463073663662
C     -3.849865464247    6.474231052119    0.035936999528
H     -4.929247311422    6.676641596189   -0.053332449830
H     -3.715613266601    5.828857620610    0.917072377951
H     -3.348506876012    7.439898962032    0.228193500861
N      2.072713030745    1.177674720824   -0.047785829795
C      1.387858281423    0.016131142804    0.005878470823
C      2.109602206196   -1.213492600765    0.052916094148
C      3.492966031019   -1.209850956329    0.043606906524
C      4.166969944740    0.021158024173   -0.011783468907
C      3.425206095867    1.188845794915   -0.055550057758
H      4.045248089179   -2.149470130022    0.079224033028
H      3.907781623189    2.167669446897   -0.096858477377
Cl     1.226804404799   -2.701488888476    0.121616123403
Cl     5.905138078956    0.081254580239   -0.024436810390
