74

C      1.494302508912    3.008080712182    2.170339160891
H      0.775879438090    3.959170977294   -3.892782262565
C     -0.912138436872    4.113181224474    0.890471516752
H     -1.674252161341    3.811450302178    0.168403017746
H     -1.047447341169    3.795543847667    1.926004010861
C      0.011565200682    5.089074770486    0.566922669209
H      0.638602162981    5.539348592725    1.340254177763
C      0.002882070032    5.868766880667   -0.715268102030
O      0.935467197764    6.543984457086   -1.084023177847
O     -1.165607688670    5.773456448531   -1.360168111599
Pd     0.938273761006    3.101871340018    0.245036259573
C     -0.406074106521    2.408997523604   -2.316597204349
O     -1.050324717442    1.591524475973   -1.622279315737
O      0.490176680101    3.195505500262   -1.871428127373
C     -0.682270487521    2.443306841235   -3.824129014827
H     -1.765503235835    2.581895996717   -3.965509994876
N      0.002226523989    3.576544428581   -4.425901896451
C     -0.373382085242    4.112585463071   -5.620926304696
O     -1.327152175665    3.694246375037   -6.260907420205
O      0.058522504553    0.129717248683    0.140036220531
H     -0.397810956162    0.821049249412   -0.469375799646
C      1.010020939301    1.986394046163    2.999469498949
C      1.398815420766    1.877987159956    4.344968683934
C      2.306617485942    2.821112083835    4.882251625786
C      2.785738364733    3.837389409606    4.047112757771
C      2.387351612225    3.942964696995    2.707579978419
H      0.314923345726    1.243579309595    2.597217481471
H      3.488138647337    4.572805645824    4.451844287122
H      2.788370027597    4.759774462447    2.100299805340
C      0.852106197916    0.761963558893    5.201550875756
H      1.658536683879    0.122132395045    5.599211570675
H      0.303821074700    1.151505459107    6.076497146120
H      0.164198155670    0.120165147487    4.632474741724
C      2.749347190722    2.736797923946    6.322497249217
H      1.895436711287    2.807770984302    7.017992285462
H      3.250102333271    1.777914588781    6.541094765923
H      3.451922271041    3.545024628450    6.573046908615
C     -1.293655090004    6.500484888467   -2.597448854924
H     -1.016070726617    7.551256529112   -2.417785866773
H     -0.573966626627    6.085432041309   -3.318222208822
C     -2.720347362787    6.356964505042   -3.082197216925
H     -3.431314650720    6.761464622369   -2.345232171711
H     -2.850787300245    6.906926775715   -4.026938454682
H     -2.970998421821    5.301568778993   -3.267378505525
C      0.473357931092    5.278257129112   -6.113663530545
H      0.876363324186    5.023568446732   -7.105648908772
H     -0.176695529370    6.156348115075   -6.247792570222
H      1.304681275439    5.541611874286   -5.443306506531
C     -0.268554956467    1.120115587283   -4.521239280095
H     -0.415651146494    1.298331620629   -5.599574688762
H      0.817100682360    0.981447050538   -4.368665710088
C     -1.009978877797   -0.173376836158   -4.134510734182
H     -0.801911306639   -0.387162315856   -3.073386424263
C     -0.463899870034   -1.340037074798   -4.969749322276
H      0.626387966438   -1.451930957910   -4.847033310903
H     -0.933295666054   -2.293201159937   -4.676501445256
H     -0.662717591766   -1.187613846167   -6.044827443893
C     -2.531109509172   -0.049849419687   -4.289300843196
H     -3.022250710462   -1.019267550576   -4.104306257120
H     -2.949805939251    0.669714689372   -3.570211709362
H     -2.805881166626    0.277556335117   -5.306943983721
N      2.045058240715    1.293143511751   -0.092244473778
C      1.372056508469    0.125380718172    0.020102080830
C      2.063264681586   -1.103879793290    0.038123762070
C      3.438586590567   -1.100972444545   -0.116970486850
C      4.113464102962    0.114298280202   -0.299150184367
C      3.390383998013    1.304260682531   -0.279434055221
H      1.481375144241   -2.019248407461    0.147455458736
H      3.993133280232   -2.042907102608   -0.117579394720
H      5.193439421309    0.142139809670   -0.448902565218
C      4.056777258222    2.640236939639   -0.446949273199
H      3.530095866889    3.246406955718   -1.200858882760
H      4.036571464402    3.200425417686    0.501659640601
H      5.104734523189    2.524439704746   -0.755383078522
