44

Pd     1.156408324830    3.119581333989   -0.238211456707
C     -1.626873886320    3.453399713480    0.042037257035
O     -0.759051885545    2.498511974029   -0.301055105421
O     -2.752619983030    3.206319516866    0.398360749196
C     -1.106741320392    4.927963966459   -0.092674644325
H     -1.422137588469    5.453781965911    0.826830692717
N      0.340383686963    4.877115419648   -0.193990478934
C      1.389606966108    5.527426384607    0.289777572711
O      2.476445383395    4.851990007814    0.223701599828
O      0.072766561200    0.071541049468   -0.065887944977
H     -0.371477664789    0.972889872595   -0.119005915861
C      1.382125789676    6.911548313102    0.869335335887
H      1.680600050458    7.638384347658    0.096951399833
H      0.390018488409    7.197169384648    1.245118516600
H      2.121806901475    6.960170248134    1.680636567541
C     -1.789035607471    5.654085496622   -1.315213776903
C     -1.592238707350    4.835790262774   -2.604485325096
H     -2.008073913871    5.380785950097   -3.467075613590
H     -0.524662901914    4.652548501464   -2.802582289750
H     -2.101948608406    3.861403048193   -2.550842373548
C     -3.291069642300    5.840951093721   -1.030870388749
H     -3.802055980818    4.882164921958   -0.876251149121
H     -3.451467428814    6.453238857452   -0.127681353063
H     -3.767124139012    6.363217490289   -1.876540332254
C     -1.150668872137    7.042903340765   -1.497247950166
H     -1.259286442875    7.661403276385   -0.591274746042
H     -0.081423128853    6.972626253436   -1.746399756429
H     -1.648856055470    7.578138072094   -2.321273344134
N      2.071047855067    1.234754358819   -0.171287486584
C      1.384945726330    0.092657441700   -0.092206492213
C      2.060875504982   -1.182141900885   -0.030026359931
C      3.485569551537   -1.200015196061   -0.053505877824
C      4.171207130267    0.049991969577   -0.135331355852
C      3.444953002075    1.205473565625   -0.189046559384
C      1.336311459837   -2.396296966498    0.052556668705
C      2.011592277350   -3.601328948398    0.110274393683
C      3.425658445226   -3.626492160716    0.087137989203
C      4.150137233528   -2.451731952195    0.006929738955
H      0.246653304537   -2.357573845143    0.069153863054
H      1.453455758574   -4.538309461373    0.173914697613
H      3.948697337848   -4.585186471141    0.133277192031
H      5.242662674164   -2.472793995127   -0.010618313990
H      5.261699061970    0.085308186184   -0.153186936226
H      3.926873274064    2.184195008682   -0.247342165098
