65

C      1.362583248160    2.862242480386   -2.077387375023
H      0.019175959539    1.861060791965    2.279363831828
C      0.506232174717    5.248436522633   -0.367380588172
H      0.572084640015    5.655854438784    0.647551929549
H      1.229990980874    5.583257117513   -1.114440000360
C     -0.609424889380    4.538703213897   -0.766476527656
H     -0.767411968298    4.287314296828   -1.818592394072
C     -1.838768543618    4.328593778707    0.080335954697
O     -2.578495899348    3.378236017266   -0.052041508647
O     -2.019645839057    5.329927242007    0.934220128646
Pd     0.959553841584    3.094028405708   -0.133487387884
C      0.254333046129    4.012360577514    2.902933652169
O      0.458742507920    5.210823476692    2.851746323095
O      0.658715282931    3.131907051738    2.012785796359
C     -0.535819985064    3.356697944653    4.058453505335
H     -0.765916330185    4.142914272014    4.789778654623
N     -1.779998827423    2.706199634506    3.658541457247
C     -1.796291814435    1.678767410115    2.902712743645
O     -0.697864439572    1.111418613215    2.334257684394
O      0.016391856020   -0.035243496466    0.062643424821
H     -0.388928357633    0.490947197794    0.811621148101
C      2.469476352913    3.507612538283   -2.643441706018
C      2.819586742101    3.329072121028   -3.993620513863
C      2.031191412637    2.480394309423   -4.803533932238
C      0.926043346394    1.840621699722   -4.225959919980
C      0.585250507177    2.020478040616   -2.880113192989
H      3.096567595988    4.166271888555   -2.033583985299
H      0.311308049011    1.179582786340   -4.844828839294
H     -0.280821886151    1.495676439297   -2.468686609667
C      4.022618797362    4.039713490188   -4.564633075539
H      4.766306519709    3.327221342067   -4.961108748381
H      3.745392456897    4.699447690723   -5.404701392642
H      4.523080407862    4.657976597031   -3.805045461326
C      2.369499045025    2.265494961645   -6.258621531990
H      2.354739514424    3.211625043742   -6.826709109582
H      3.380406490356    1.841234362852   -6.385860599905
H      1.656667554383    1.578204826968   -6.737165360633
C     -3.149019877021    5.278243449701    1.838215269776
H     -4.066483522596    5.150878374067    1.241140664947
H     -3.032008161832    4.396949819165    2.488120795506
C     -3.141838962186    6.565372926315    2.635206948831
H     -3.268967349498    7.443194432505    1.982332310963
H     -3.964070684122    6.555038087947    3.367588408711
H     -2.188930763660    6.667648555494    3.176130729178
C     -3.077939435033    0.990341833013    2.534057176750
H     -3.887704686303    1.316756648258    3.197515108694
H     -3.338154673177    1.247926935165    1.493738917376
H     -2.956731597030   -0.102477486445    2.595636522296
H      0.145146070015    2.630545180031    4.546361900572
N      1.963695290401    1.203489935985    0.150551997775
C      1.341704465729    0.032075200167    0.055411133848
C      2.073092665544   -1.197496122641   -0.098342306369
C      3.498665541242   -1.145037139802   -0.102797678499
C      4.117817814644    0.128511155080    0.059987537625
C      3.335078435741    1.243780990239    0.177742200387
C      1.408533740883   -2.442847154411   -0.230748836150
C      2.142349335958   -3.603754987363   -0.379505138868
C      3.557310616645   -3.557012160884   -0.391710295634
C      4.224608021728   -2.354973231768   -0.253550611966
H      0.318371455903   -2.458110774562   -0.214781681542
H      1.631761152864   -4.563812046056   -0.484910962171
H      4.125529437118   -4.483445582224   -0.508258724328
H      5.316886253846   -2.321323330919   -0.258448087812
H      5.205276580739    0.217788909304    0.083857032075
H      3.775935466436    2.235629182337    0.289352861844
