74

C      2.581121294083    3.815327000602   -1.269564886674
H     -0.359176240656    1.056839770023    0.062721424580
C      0.029188431936    5.152673891155   -0.215143835801
H     -0.725010272491    5.118916807389    0.573132051981
H      0.835890834362    5.880813355148   -0.109767048050
C     -0.208491335831    4.550911418920   -1.437532341049
H      0.429823460118    4.768755043061   -2.296890189098
C     -1.478217118469    3.846518840143   -1.834210141476
O     -1.536348712153    3.129429485105   -2.806864518398
O     -2.509117687343    4.142405693469   -1.037470466880
Pd     1.015856332879    3.195811983597   -0.184771043846
C     -0.666283864477    2.580775970981    2.163331045880
O     -0.702957434521    2.387505709410    0.870269333604
O      0.236648099008    3.146318878783    2.758547045556
C     -1.888729092023    2.017408375534    2.915765357216
H     -1.931434883727    2.557912988061    3.870876053461
N     -3.085146342745    2.300832243257    2.135623460611
C     -4.312951834465    2.723991986809    2.553626125839
O     -5.182631604842    3.041463124213    1.751595231698
O      0.053811793342    0.253290949093   -0.384327699188
H     -2.939761039438    2.314199680386    1.129444877661
C      3.368269218806    4.903675409731   -0.871189783060
C      4.480624824623    5.327115677929   -1.618641528887
C      4.810037159781    4.645077050026   -2.812206366263
C      4.010246233250    3.564668775228   -3.207450436085
C      2.905847942268    3.147694897949   -2.455227940969
H      3.140699571592    5.440599733805    0.055146527031
H      4.254362701547    3.032146824491   -4.131921373365
H      2.307829149891    2.302755280650   -2.806930400864
C      5.310034522294    6.496358249189   -1.146049412075
H      6.360185956995    6.205766052277   -0.970950559829
H      5.332316161411    7.308751558529   -1.892583422988
H      4.917892364856    6.914934138439   -0.207565442026
C      5.994768523329    5.069521046931   -3.645162229922
H      5.901358875336    6.114299102294   -3.988411787179
H      6.937835661721    5.011790685176   -3.074709767001
H      6.104626317615    4.434372493350   -4.536254450030
C     -3.806169297365    3.583744750210   -1.374150118968
H     -3.651370192417    2.581878007782   -1.800232855999
H     -4.339132850257    3.499262012433   -0.416180496118
C     -4.548324335937    4.481643276991   -2.348498955240
H     -4.025760786376    4.541987251508   -3.315266653912
H     -5.555662239460    4.073667151536   -2.528709821822
H     -4.661408395177    5.497450212332   -1.938844390822
C     -4.552653720835    2.795007810057    4.053825207932
H     -5.615961020900    3.008441212281    4.216373426773
H     -4.281736795738    1.858214536544    4.564501990422
H     -3.956470379483    3.605204092697    4.505187227786
C     -1.693195893361    0.516640795506    3.190968183176
H     -1.606450203249   -0.042541988934    2.246251561442
H     -0.779734468418    0.348762161559    3.782802312479
H     -2.550169557505    0.110273569522    3.750216776093
N      2.004821603731    1.291172474605    0.234901885758
C      1.351630295611    0.212592630155   -0.151457344565
C      2.012196918334   -1.061548415829   -0.373032876072
C      3.397856919750   -1.168844933275   -0.088406335366
C      4.070150130930   -0.018375211122    0.499565763352
C      3.328420336215    1.184205960513    0.663926231410
C      1.291261991215   -2.162261196053   -0.886844679631
C      1.940750101178   -3.358890072920   -1.140659704788
C      3.319687138887   -3.472536865440   -0.878145444816
C      4.033818005666   -2.401988485023   -0.360794795307
C      5.410246185603   -0.048767994729    0.948503618288
C      5.991197099125    1.052144293049    1.557864781239
C      5.236768123408    2.223002511408    1.751567197370
C      3.924981670301    2.286318972847    1.310668450942
H      0.225713897708   -2.044877081689   -1.085701127287
H      1.387571008471   -4.209870599486   -1.544423011631
H      3.834588092681   -4.414917417707   -1.081769279055
H      5.099983992753   -2.519854797634   -0.164963086092
H      5.996921523581   -0.960739844603    0.830130156971
H      7.026827941336    1.002215909129    1.901968697835
H      5.679566371838    3.083887116559    2.257935133313
H      3.321883493323    3.178164755223    1.479414737818
