69

C      1.356739526231    2.903024494468   -2.139986794101
H     -0.029083973758    1.811902573229    2.195472087383
C      0.516011434275    5.250671597720   -0.391741106212
H      0.604139830831    5.642282633682    0.627625075555
H      1.229136587982    5.590976059351   -1.146455330548
C     -0.614363223027    4.558290376148   -0.782738588747
H     -0.792447189295    4.325924808204   -1.836210596542
C     -1.831737389536    4.345016046629    0.081518218215
O     -2.580800926389    3.402889355082   -0.053331184180
O     -1.990324262839    5.333546308344    0.955178845805
Pd     0.942719383347    3.090106710541   -0.194776543321
C      0.281907378279    3.949618248006    2.859595712181
O      0.548140190611    5.138096239055    2.824569280076
O      0.627858224142    3.070436675239    1.951682439905
C     -0.517271844643    3.345345544684    4.054361582610
H     -0.833397759965    4.230166650218    4.629184470744
N     -1.742696122784    2.645386671689    3.680187116652
C     -1.812638965822    1.646631122213    2.888842466123
O     -0.767556667359    1.084096716939    2.229242948731
O     -0.126924450749    0.044034430459   -0.098702978495
H     -0.523596641491    0.495596349226    0.704899273958
C      2.486904386517    3.534130315423   -2.674787386163
C      2.852663002748    3.373347177417   -4.023168344353
C      2.055694136162    2.559913899393   -4.860874160316
C      0.926803969783    1.935870778648   -4.312751666438
C      0.569661235688    2.096746364855   -2.968523377063
H      3.119196835153    4.166434908393   -2.042777359485
H      0.305814871924    1.302273786608   -4.953519224085
H     -0.313643784305    1.584079579266   -2.579154341403
C      4.080483126254    4.065636017370   -4.562650996307
H      4.812377082778    3.342917396374   -4.962254714657
H      3.830970708544    4.747585365549   -5.393506510650
H      4.584521989627    4.656843888133   -3.784232053071
C      2.410455291340    2.365517933478   -6.314805411224
H      2.426933768408    3.322922704055   -6.863426466500
H      3.412751915958    1.919685617410   -6.435344926443
H      1.688750823485    1.705355962474   -6.817410119798
C     -3.114631694364    5.279697417809    1.865766282180
H     -4.035427302392    5.156108253856    1.273396794767
H     -2.997674858285    4.393877953962    2.509590582819
C     -3.103142602386    6.562993056708    2.668655385618
H     -3.234969926162    7.443081163636    2.019964069869
H     -3.921320354976    6.548933943214    3.405360971029
H     -2.148064479994    6.666020140893    3.205570867103
C     -3.124724269830    0.984901808135    2.578381063643
H     -3.892807919439    1.309817489795    3.289977146878
H     -3.433081140997    1.267988334520    1.557990139010
H     -3.018311084567   -0.110680850089    2.608183857711
C      0.423951015108    2.549505902190    4.971518618454
C      0.062718003389    1.314987927077    5.525215613044
C      0.929821338240    0.639263184955    6.391361881541
C      2.169445189652    1.189915335744    6.721866116481
C      2.534593189219    2.428504039059    6.182972960926
C      1.669141008659    3.102253482328    5.319750833361
H     -0.909332168026    0.881067999245    5.287941731479
H      0.628468929076   -0.324086121239    6.811835253165
H      2.846394479190    0.661043831796    7.397857203407
H      3.499660378719    2.874798658235    6.438004074541
H      1.958886038907    4.073872603933    4.910629673393
N      1.900711974130    1.157132682918    0.056194393733
C      1.194722656170    0.015856651768   -0.050569276503
C      1.883092092264   -1.220384770347   -0.161977776915
C      3.269899392328   -1.253007513939   -0.113367291890
C      3.962758287679   -0.047273115434    0.050205050450
C      3.244963811145    1.139128025792    0.126947943753
H      3.802886621954   -2.201595667436   -0.185947968180
H      3.756896205651    2.096637867774    0.231067141309
Cl     0.973718418085   -2.682983855462   -0.335668202852
Cl     5.698213610042   -0.024035332586    0.138653146670
