42

Pd     1.172361705460    3.117361467457   -0.204111515505
C     -1.616519716124    3.507740848131    0.074102321278
O     -0.749717724092    2.517699842226   -0.134956715479
O     -2.791139036170    3.324990260515    0.270568106366
C     -1.032954566656    4.963303159434    0.015185638611
H     -1.256269721648    5.422696837317    0.996149194798
N      0.395051888817    4.888337533796   -0.216245142906
C      1.492189166500    5.543441268705    0.145179068430
O      2.550857798596    4.826739291734    0.046429735046
O      0.043121307845    0.073869656660    0.026353744683
H     -0.389659627931    0.980832254446   -0.013787957918
C      1.562409652670    6.960846384033    0.622021767642
H      1.891840613130    7.607269844991   -0.206581852543
H      0.588271700764    7.330222372330    0.969115400728
H      2.311014732510    7.030428803886    1.424203759925
C     -1.806991872627    5.736507574835   -1.081858960735
H     -1.619973833337    5.238862141268   -2.046452603749
H     -2.873746105926    5.602229257338   -0.845685810819
C     -1.468144544117    7.204702353803   -1.183844444224
C     -2.024714663476    8.133449707921   -0.287463809361
C     -0.579276466686    7.675622550650   -2.163083062071
C     -1.694916621642    9.489361595722   -0.360376131121
H     -2.733349136223    7.789830429076    0.472450329759
C     -0.249111262431    9.032527127263   -2.241832582474
H     -0.144996894611    6.969200611293   -2.875999750548
C     -0.803014791135    9.943577974203   -1.337922461820
H     -2.142729940819   10.196288495475    0.343063927757
H      0.440281909882    9.379592612689   -3.016123375836
H     -0.548416606483   11.004671776368   -1.399687570198
N      2.066577220173    1.214645958360   -0.110197468332
C      1.351573177723    0.069387824916   -0.013641413662
C      2.011785581320   -1.184654983311    0.047552844768
C      3.387767112622   -1.233836680040    0.010690873601
C      4.119909128223   -0.031726593292   -0.086258014100
C      3.416541772708    1.158141251421   -0.142596073328
H      1.395657524814   -2.080896788601    0.123106305031
H      3.907539679179   -2.193709011127    0.056197180723
H      3.934237825934    2.117073123079   -0.216050707646
C      5.623523477764   -0.058440369350   -0.122200211180
F      6.129835198858   -0.608859211418    0.996930112870
F      6.073993865397   -0.797596514695   -1.152931126799
F      6.146734535102    1.170612296567   -0.243099617842
