42

Pd     1.218424800275    3.179531308049   -0.097352092660
C     -1.577315644775    3.686868276213    0.171590505700
O     -0.725515251856    2.670089845732    0.061859058279
O     -2.745945811408    3.546193291411    0.420398389886
C     -0.951711897462    5.116674349984   -0.031600735582
H     -1.130449654767    5.632079370404    0.930766361816
N      0.461842233564    4.950516031598   -0.274854885818
C      1.558224885313    5.680894329855   -0.147134512044
O      2.630358731017    4.990307697044   -0.160311082699
O     -0.011310436583    0.282458170950    0.631983924452
H     -0.410965067727    1.183536273713    0.447023481453
C      1.581878587130    7.171065422413    0.021916244454
H      2.415384623365    7.588624934592   -0.561174479359
H      0.636344975255    7.633781441316   -0.292086287023
H      1.765645650711    7.412670114295    1.081929072380
C     -1.702016965901    5.871121970012   -1.123204480595
C     -2.939085363840    6.460972055227   -0.822368032938
C     -3.668107111255    7.120505987671   -1.813916906564
C     -3.169765111726    7.200549457957   -3.118458884704
C     -1.939671198203    6.612727538895   -3.424694092213
C     -1.209882399839    5.949244820045   -2.433242657124
H     -3.338342028180    6.388454142599    0.191890810898
H     -4.630483254866    7.575569281126   -1.565903747809
H     -3.739278853557    7.720065899512   -3.893328992587
H     -1.543885385861    6.667325809008   -4.442215042675
H     -0.250358398467    5.487751286526   -2.675746557149
N      2.053675256198    1.231383936317    0.128911643173
C      1.285935236322    0.187489772281    0.456423028290
C      1.832866059384   -1.124656282983    0.644356131138
C      3.169402119640   -1.331410589307    0.473805841200
C      4.017444992230   -0.243884407800    0.111310104430
C      3.418093454000    1.042688163584   -0.053663137697
C      5.411703743777   -0.401151235273   -0.086682838349
C      6.201331497114    0.676609925855   -0.437498945468
C      5.608590076912    1.947517212336   -0.597393960222
C      4.248964571470    2.133011842507   -0.411072003633
H      1.137459894847   -1.918897504884    0.916526147864
H      3.601791018948   -2.326442328977    0.609251880272
H      5.849053800463   -1.394621219031    0.043977913062
H      7.275558232621    0.549448974172   -0.589272225070
H      6.228804930862    2.804458973888   -0.871461839090
H      3.820210323544    3.128519535045   -0.531179769088
