75

C      1.118592326926    2.621177520973    2.247365322662
H      0.439724613440    2.129591339852   -2.129788303161
C     -1.046180270859    3.922478367404    0.843363695685
H     -1.187618220992    3.843342403047    1.922313941359
H     -1.763905011072    3.397905406240    0.202484119256
C     -0.166253294641    4.852323172017    0.329363839952
H     -0.190149062578    5.096510763895   -0.734943306832
C      0.615081749561    5.844798121785    1.133142630800
O      1.531157644518    6.488163288660    0.670937707269
O      0.180174950043    5.953517804232    2.392934084198
Pd     0.866250931017    2.870394730633    0.287520910020
C     -1.726995007782    1.926871389938   -2.061213076256
O     -0.650405200584    1.185344344475   -1.957174151147
O     -2.656002638072    1.911038839400   -1.270113508888
C     -1.753264163286    2.919617762864   -3.257517117387
H     -2.686411861064    3.481704614690   -3.100758943763
N     -0.705757087128    3.941055368362   -3.350934087644
C      0.454037650776    3.958259986506   -2.840033633379
O      1.014626053250    2.987435212601   -2.039261719311
O      0.098950912045   -0.222037626941   -0.065241016768
H     -0.327737408744    0.421292934006   -0.799661208816
C      0.367505273930    1.687852426355    2.967578784260
C      0.601208684432    1.471029859244    4.335860863674
C      1.618983359917    2.204971491923    4.990634542349
C      2.365864187663    3.127425465391    4.247106722927
C      2.126839743147    3.345786121811    2.883096314455
H     -0.407949675667    1.102999762199    2.465808394713
H      3.161646948181    3.692274701716    4.742672807554
H      2.736770186285    4.073297330723    2.340267180002
C     -0.224287565155    0.457268383182    5.089554346000
H      0.406726159744   -0.336974304208    5.523770997273
H     -0.767036285000    0.920465258551    5.931266863097
H     -0.965604630048   -0.022867609678    4.435059278234
C      1.902535229484    1.992701748358    6.457664934457
H      1.016461171471    2.203297648716    7.080645890610
H      2.191694254493    0.949168492404    6.670211196077
H      2.718595091803    2.642526101211    6.806023071669
C      0.881966535221    6.870683996315    3.254259931832
H      1.937457646871    6.560688494059    3.313429653321
H      0.861740222226    7.871012706102    2.793012279975
C      0.207672827331    6.848198243837    4.609132112417
H      0.247799958358    5.840372604119    5.049462250849
H      0.717532413045    7.546034778831    5.291419853597
H     -0.847330847480    7.152424891243    4.530142245176
C      1.398903604808    5.106688301565   -3.066689635116
H      2.321920636053    4.738520657705   -3.543331501585
H      0.925266194783    5.857971610254   -3.709191224556
H      1.691279041791    5.569163048193   -2.108939216847
C     -1.886305261332    2.237607007848   -4.624644749665
C     -2.537931871637    2.943242277508   -5.649843587259
C     -2.666490209538    2.396534276139   -6.927280346831
C     -2.144668498222    1.127691150570   -7.201904887538
C     -1.495012471466    0.418443584095   -6.189646719050
C     -1.362295103623    0.968690712855   -4.909421302073
H     -2.942025119360    3.937008693615   -5.439108754390
H     -3.178996623094    2.960796411099   -7.711113808882
H     -2.247344354307    0.694519473274   -8.200413030400
H     -1.086354979223   -0.575139567645   -6.393094691370
H     -0.854133602516    0.408401365061   -4.123879766890
N      1.994386259952    1.080949726586    0.088709947533
C      1.393500364439   -0.116496511798    0.060616196951
C      2.171819779387   -1.328102508231    0.198844218536
C      3.587707383989   -1.230365958232    0.326024934073
C      4.172539771679    0.071865797349    0.301790331897
C      3.361319895001    1.165194330991    0.189595037344
C      1.545676729592   -2.598109601713    0.196293101540
C      2.306521943153   -3.744827811901    0.330736133600
C      3.711813923762   -3.654047604800    0.463540050860
C      4.342790447792   -2.423569633188    0.459170176490
H      0.461464449643   -2.643116630131    0.087246221974
H      1.824134596687   -4.725099048542    0.330421731505
H      4.303676380620   -4.567265992503    0.566948247758
H      5.429183492129   -2.355953750411    0.557463018603
H      5.253843006018    0.197264300293    0.378742730988
H      3.773253364508    2.175854623741    0.183512973955
