83

C      1.170110428884    2.636238129021    2.343496457140
H      0.541221672160    2.160366448665   -2.153764343348
C     -0.993591328446    3.981994430991    0.941744693999
H     -1.128245061711    3.899587925232    2.021253079147
H     -1.708677607557    3.453159691247    0.304172549571
C     -0.128808773439    4.919438618371    0.420877643798
H     -0.152354580476    5.155413185265   -0.645010624274
C      0.654152922911    5.921973030957    1.206398899947
O      1.542228097970    6.586362162843    0.718404277594
O      0.256465539793    6.016157317630    2.479290262703
Pd     0.924297080976    2.938759371387    0.390956447683
C     -1.706393334897    1.900021851609   -2.177026674812
O     -0.683394767307    1.030325793992   -2.195621628134
O     -2.502647685811    1.964950422190   -1.269088218613
C     -1.756103864653    2.860044556169   -3.382016993728
H     -2.680508448423    3.429474317744   -3.193009941863
N     -0.708544715603    3.863346505841   -3.481085850147
C      0.404168595276    3.959731969720   -2.888065283332
O      0.947910650040    3.050395747214   -1.993836959622
O      0.148905056214    0.063261694166   -0.025798098125
H     -0.518780398121    0.574123694215   -1.277884407130
C      0.423096295592    1.648794583286    2.992360118944
C      0.592431102230    1.400061164449    4.364532037109
C      1.540747075347    2.154750600238    5.095051138625
C      2.287457526885    3.128103783178    4.419678817991
C      2.113931443218    3.378637652203    3.051427532913
H     -0.290534517606    1.044969232446    2.425810006262
H      3.034929440838    3.705674351453    4.972588976530
H      2.729659992639    4.137019207723    2.562711387700
C     -0.225118634567    0.326935001809    5.041250154628
H      0.417444519547   -0.453217003115    5.484180119461
H     -0.832525970949    0.737285875919    5.866254531506
H     -0.907411881354   -0.163219952108    4.332219819297
C      1.755744019817    1.907557640388    6.568323207903
H      0.829895936930    2.060268856410    7.149129455589
H      2.079142744393    0.870888608860    6.764771674815
H      2.523358407139    2.579571070421    6.979339076906
C      0.970384662788    6.937627478336    3.325670556886
H      2.032271036159    6.644997165691    3.348623410508
H      0.919343097286    7.941359278122    2.874126568600
C      0.340102860390    6.892608054867    4.701088610175
H      0.409788495691    5.881342403042    5.129600337515
H      0.860702963367    7.592269626592    5.373359696507
H     -0.721487383523    7.181024816954    4.658379605114
C      1.327629773575    5.126603401788   -3.096519521975
H      2.278513182348    4.775227678578   -3.528910608622
H      0.861921907526    5.857973677289   -3.766785232616
H      1.573113308296    5.606616418107   -2.134701341607
C     -1.981030355507    2.143044217029   -4.765841606483
C     -3.080069058749    1.077099696077   -4.599865574696
H     -3.338357660364    0.645507104086   -5.580019783464
H     -2.756285411407    0.248203533528   -3.950993250257
H     -3.999394457518    1.506961044905   -4.169953357373
C     -2.455748588375    3.208355386204   -5.772635033257
H     -3.415637385568    3.651466057017   -5.460208589070
H     -1.721590708032    4.021265174920   -5.862482693282
H     -2.601709714111    2.756453883226   -6.766970871333
C     -0.691189516845    1.487060731135   -5.288904196120
H      0.104601662932    2.234702231225   -5.431589230677
H     -0.320651814414    0.710867194456   -4.604792336761
H     -0.881651444974    1.015862955801   -6.266763570801
N      2.105117367436    1.215663786905    0.129269930555
C      1.411217581788    0.060508353701    0.059079980371
C      2.150892562046   -1.214247984024    0.096726228482
C      3.565384635431   -1.225069380458    0.170462351104
C      4.269208473091    0.053821400885    0.186567492769
C      3.492391541626    1.247061500769    0.164516291950
C      1.425118275831   -2.421567602435    0.066246513717
C      2.086157384331   -3.639840654326    0.112518322806
C      3.490615756734   -3.662695188125    0.188634910435
C      4.216215165645   -2.479674432368    0.217057484427
C      5.676435372032    0.166420003729    0.214037917514
C      6.309974254668    1.401041241400    0.217291735213
C      5.538368522810    2.574843629573    0.186609113764
C      4.154278037038    2.495951560959    0.159421941839
H      0.337356179216   -2.360264823864    0.010307925636
H      1.522123752509   -4.575484553390    0.090805338693
H      4.018493582229   -4.619318445106    0.226327519983
H      5.304160509388   -2.528238227220    0.277710152813
H      6.285378639268   -0.738809823303    0.229043680534
H      7.400701735203    1.457368423286    0.237846989342
H      6.024820785070    3.553500470788    0.179254132464
H      3.550193381870    3.406102428425    0.122344814616
