48

C      0.992374227277    3.080088882258    2.031844032355
C     -0.714267620273    4.571998068055   -0.083392097361
H     -1.181733725513    4.674010700920    0.899026429005
H     -1.322371279635    4.145707685601   -0.887972814869
C      0.470884614768    5.214745659800   -0.358448322203
H      0.850456401205    5.282050905682   -1.386280352077
C      1.221126490029    6.103151319889    0.601940529820
O      2.398430923435    6.337672134390    0.465670315613
O      0.439933120410    6.572092583059    1.566606113498
Pd     0.968967792640    3.077193961304    0.037490432293
O      0.002377786299    0.050390562520   -0.067821490859
H     -0.344210009946    0.959026338824   -0.040761966075
C     -0.030751806709    2.451770388847    2.734611828856
C      0.012644898244    2.425104227376    4.141752992773
C      1.103211908863    3.030079207299    4.813306650656
C      2.111299493638    3.641784944138    4.057322170810
C      2.078474192987    3.677858671448    2.654118576912
H     -0.871561994967    1.971511818857    2.229187547319
H      2.958319698388    4.107321008401    4.569102124708
H      2.878351338345    4.175004852545    2.101207839099
C     -1.093367276380    1.751256603011    4.912807089957
H     -0.702349451936    0.932027106734    5.538627277364
H     -1.592169218688    2.457607870174    5.596913104592
H     -1.858608887510    1.330371913194    4.245752309839
C      1.182762915665    3.012558770474    6.318731578217
H      0.309368375584    3.506820676120    6.775600423448
H      1.199963893390    1.981665584902    6.709675636089
H      2.085902191075    3.523653470650    6.679831726032
C      1.044972865521    7.458193763255    2.546823702084
H      1.794103806014    6.879700809683    3.109726095247
H      1.577376611304    8.254426630511    2.004869144164
C     -0.053455203017    7.995050019477    3.435929556234
H     -0.571959460790    7.180875769475    3.964737894111
H      0.380788144946    8.670930522159    4.188277551511
H     -0.794224430914    8.562896354670    2.853123816678
N      1.993075047031    1.234230451684    0.042427137743
C      1.335757128804    0.065573711870   -0.025120471544
C      2.027381011693   -1.157177616735   -0.056956660445
C      3.409753899047   -1.139456959597   -0.015545513539
C      4.118546154162    0.081849312725    0.060744483642
C      3.353300201883    1.237897026758    0.093307586999
H      1.453191014864   -2.082498908662   -0.114165450260
H      3.960106064943   -2.083936538125   -0.040443345588
H      3.827608371826    2.219572711190    0.161185311391
C      5.622682230570    0.124563537149    0.106320345371
H      5.998298213735    1.155150485857    0.176822556691
H      6.007190560667   -0.437058765484    0.972854658003
H      6.057595004489   -0.333142043052   -0.796835578006
