71

C      1.492592918697    2.965292766370    2.159521055490
H      0.858702615684    3.840854963045   -3.864571211225
C     -0.943091808163    4.009809592604    0.839285671145
H     -1.688076244449    3.707408773715    0.099762323266
H     -1.094990506506    3.680909560044    1.869112727140
C     -0.024787911486    4.998012037454    0.543596957284
H      0.584983945348    5.444829808832    1.332933532969
C     -0.013100071134    5.791440534455   -0.730265578784
O      0.916733200243    6.488075587628   -1.063772640952
O     -1.161503700106    5.685140361702   -1.408811000821
Pd     0.934904772544    3.017976535420    0.237266410749
C     -0.379796707173    2.311347223552   -2.351458635716
O     -0.971519647986    1.430443464816   -1.688058213674
O      0.497473788775    3.103068923598   -1.881914103859
C     -0.716111010934    2.445485711037   -3.845051153697
H     -1.781230490306    2.727403518080   -3.915172643831
N      0.079337058827    3.514371107013   -4.426147195559
C     -0.287368508346    4.166458682646   -5.565525365125
O     -1.300448535659    3.886363322251   -6.189915193689
O      0.261722115617   -0.059079560706   -0.057522999421
H     -0.236968502540    0.651287417999   -0.616518315991
C      0.960986527599    2.012684637973    3.039206286128
C      1.370108211619    1.936193153289    4.380925152561
C      2.348204319685    2.840288527067    4.858629975759
C      2.877408091640    3.784281265019    3.970085293878
C      2.459825978832    3.857630704545    2.634398466609
H      0.214947629415    1.296271079884    2.681428426255
H      3.635772223991    4.487042577767    4.329258140548
H      2.903317103987    4.614271059503    1.979891151202
C      0.772186730838    0.895349780260    5.295971804149
H      1.544293519342    0.221318598882    5.705112990227
H      0.269996725899    1.356282009832    6.163844269858
H      0.031332044476    0.276336580660    4.769514839527
C      2.814121449277    2.789725617041    6.293237837390
H      1.981455805230    2.948109174397    7.000016126672
H      3.255259704757    1.810184132894    6.546090355647
H      3.573420473255    3.559510253604    6.494436561761
C     -1.267862254722    6.439711836378   -2.632093340053
H     -1.053779412763    7.497402724163   -2.409734816246
H     -0.491376010497    6.086417788521   -3.326229500206
C     -2.660116769618    6.241879738910   -3.191571356828
H     -3.425306588173    6.584969495356   -2.478143022946
H     -2.772188375587    6.816677948364   -4.123650913652
H     -2.847377604232    5.183469779041   -3.426314267239
C      0.658051159360    5.268578839861   -6.023666941412
H      1.050314493293    5.002402736846   -7.017335456157
H      0.084906067254    6.200069481873   -6.144558186464
H      1.502130796407    5.445059227181   -5.341008616574
C     -0.552434947293    1.110022576541   -4.635501249706
H     -0.649425721829    1.420903324445   -5.688483038213
C      0.835118992550    0.489002810898   -4.442600105132
H      0.981946695309   -0.359386761017   -5.130115180855
H      1.635663735629    1.219719774649   -4.640353644039
H      0.964099253337    0.106623993948   -3.415967558933
C     -1.677450157844    0.107648851308   -4.357084901763
H     -1.660189321156   -0.240165737465   -3.314886037466
H     -2.664937152433    0.560146011716   -4.544543731986
H     -1.581189773083   -0.765760123851   -5.022960066904
N      2.145085404988    1.286547203166   -0.038177916902
C      1.572826799308    0.065364872010   -0.052889473296
C      2.362257948410   -1.120337136903   -0.028520743385
C      3.742627442350   -0.973140815971   -0.033530033636
C      4.327462221475    0.304017453778   -0.059921011724
C      3.492165182594    1.404741329870   -0.052750032825
H      4.376097058485   -1.864645197622   -0.026038181359
H      5.409950133900    0.436902492154   -0.072398547878
H      3.888963317360    2.421757205756   -0.041827413222
C      1.670729867226   -2.454308541617   -0.017292802145
H      1.029061914685   -2.560057353400    0.872548902554
H      1.005450657501   -2.559195667283   -0.889248563000
H      2.398604795758   -3.278198993540   -0.025023361324
