74

C      1.290157039420    2.821383125689    2.115617804015
H     -1.653057918372    0.023853815514   -2.786240187059
C     -0.943078608408    4.282223628079    0.624688280975
H     -1.627558014206    4.176116368839   -0.219174957165
H     -1.301605330058    3.980151709541    1.611457175241
C      0.202669721222    5.042155599740    0.505290633738
H      0.773959718973    5.321548802507    1.393578936289
C      0.640099731192    5.786246339215   -0.724924175981
O      1.788752116937    6.121402661606   -0.898073009215
O     -0.369672117860    6.062954903092   -1.554002038228
Pd     0.735444911186    2.914429341436    0.192963817457
C     -0.590222064205    2.125204444623   -2.404382397986
O     -1.003272527784    1.103830265392   -1.774556203839
O      0.153529699124    3.005332692354   -1.889703640675
C     -1.027105794249    2.391576082634   -3.861769659561
H     -0.239840269189    3.070769433943   -4.227452878197
N     -1.106176361666    1.317746043822   -4.826911416366
C     -1.485856793531    0.107486166128   -4.689497589019
O     -1.848385467920   -0.547279739522   -3.575483337449
O      0.182131964591   -0.223467507346    0.019494997783
H     -0.316856743600    0.431458028166   -0.597796472448
C      0.575245804515    1.995407990127    2.992535915947
C      0.944762103506    1.857371883764    4.341635546035
C      2.068037351370    2.567528884464    4.826542999764
C      2.777399190666    3.386424310293    3.938804377519
C      2.401397635046    3.521690751472    2.596068851729
H     -0.284972659119    1.423896837765    2.630116281694
H      3.649183151975    3.938049408186    4.304033998548
H      2.985787760692    4.175918693078    1.942173827519
C      0.150389197981    0.956145239919    5.255087887997
H      0.778358386955    0.156360268997    5.683604315518
H     -0.270940612857    1.512750203913    6.109755957665
H     -0.683724236840    0.477771322690    4.721683374846
C      2.496885554534    2.445608550265    6.268308149615
H      1.698766036886    2.763796722611    6.960844366038
H      2.743615890860    1.403469906197    6.534567726752
H      3.383934526472    3.061807506498    6.475163007971
C     -0.038599225386    6.740824634270   -2.784911549988
H      0.716443489161    7.511404498416   -2.569292346978
H      0.422899765901    6.003645632018   -3.461928236674
C     -1.308173489754    7.328330420222   -3.363326369249
H     -1.760521891041    8.051904842148   -2.667623608803
H     -1.078208779648    7.852739814270   -4.303862153307
H     -2.049227825233    6.545192896113   -3.582172978627
C     -1.573354869349   -0.789754966557   -5.898929412321
H     -1.281296737524   -0.242795497674   -6.802497168804
H     -0.921875258146   -1.668288929308   -5.762712828776
H     -2.602332106972   -1.170526298956   -6.005640973070
C     -2.333232256117    3.260303800961   -3.854396799528
H     -2.130218214908    4.082020065183   -3.142488098148
C     -2.555055073854    3.878392395255   -5.241158016558
H     -3.416714111658    4.563634373995   -5.244101996580
H     -1.671895541030    4.452050132355   -5.565252154370
H     -2.730551650193    3.093619932904   -5.991726324015
C     -3.568939280487    2.491981171674   -3.347212734538
H     -3.828704680705    1.705937944477   -4.076813448076
H     -3.307691506576    1.963028148881   -2.416791421212
C     -4.796949000167    3.368508378269   -3.083819192582
H     -5.176278721373    3.845949251507   -4.001091073843
H     -5.621957661584    2.771523987440   -2.663295661971
H     -4.570660987715    4.172834014176   -2.362576983928
N      1.991071635080    1.200942526420   -0.105209770502
C      1.479766622677   -0.046603880228   -0.008853708502
C      2.340082936904   -1.167224215366    0.087907276035
C      3.705744817648   -0.982180747971    0.033142759103
C      4.220123726868    0.320882202250   -0.121651948255
C      3.325950142665    1.377192547947   -0.177194857925
H      1.885945956884   -2.153694241817    0.183617686219
H      4.382859673310   -1.837185114060    0.097805733419
H      3.680384581811    2.404983666713   -0.265980364590
C      5.704931675152    0.545155795969   -0.217045421615
F      6.348736806407   -0.007804343604    0.827531644030
F      6.216388727211   -0.017480286128   -1.327303322810
F      6.016698415807    1.849889626698   -0.244340616589
