78

C      2.542484721709    3.931409880714   -0.839546072419
H     -0.891269864224   -0.771206174944    1.455859230443
C      0.105466214409    5.126472296510    0.574031723661
H      0.915575685166    5.850004249074    0.695276592618
H     -0.478008205479    4.805453881504    1.444604901269
C     -0.353004098190    4.852081161620   -0.698649239399
H     -1.286799758220    4.302701167010   -0.848657308638
C      0.164286809136    5.598063854121   -1.894516880813
O      0.852138360209    6.587668565645   -1.847430021336
O     -0.276435716000    5.036806195988   -3.032755584060
Pd     0.901827737873    3.143298674605   -0.034260750160
C     -1.704642249516    2.325028518188    1.692469894973
O     -0.886855001431    2.128214996733    0.680027843084
O     -1.829484083186    3.383987309544    2.276615568449
C     -2.527379109058    1.077003809920    2.099225436022
H     -2.499152093487    0.358360633524    1.254641882780
N     -1.975734334500    0.538479625860    3.328712754404
C     -1.191838640481   -0.464121782150    3.360649308517
O     -0.697827188227   -1.177101530723    2.317983825524
O     -0.062145417931    0.035968336712   -0.237023373753
H     -0.509229322618    0.934198466135    0.112199928146
C      3.414294630685    4.741486586165   -0.101728973412
C      4.600735239655    5.247329302216   -0.660131960271
C      4.921187093569    4.934712372710   -2.001453820957
C      4.040887720530    4.122705362110   -2.728589396100
C      2.862065535125    3.619934601028   -2.164686873725
H      3.184264266472    4.997489472825    0.936883853515
H      4.284210804183    3.870467444622   -3.765564480192
H      2.207144554877    2.984801112371   -2.767155901828
C      5.510975047390    6.124313675215    0.164246240552
H      6.526645903384    5.700138432737    0.242348730251
H      5.623921002656    7.125163021302   -0.286445859780
H      5.123692165608    6.259542992204    1.184518852945
C      6.180461383760    5.466879634017   -2.640227976959
H      6.198414012095    6.570252502103   -2.647943534842
H      7.084710082305    5.143834601009   -2.096250923060
H      6.276649286205    5.124371825158   -3.680915745027
C      0.129920731279    5.666918222482   -4.261507760823
H     -0.174617209133    6.725625257881   -4.233644938697
H      1.230394927314    5.648342044198   -4.317518185015
C     -0.514238971011    4.918661450669   -5.409456045308
H     -1.612036223940    4.944191977777   -5.331006456626
H     -0.225733196282    5.380786991627   -6.366354001086
H     -0.194648280152    3.865236154065   -5.425214391932
C     -0.701480220354   -1.023877642060    4.666026801262
H      0.400082186008   -1.019045915982    4.691819202089
H     -1.099191040142   -0.432595264273    5.498407515102
H     -1.022974040331   -2.073470446450    4.765249317129
C     -4.001246925007    1.485508436255    2.325958962263
H     -4.001149475902    2.221588336795    3.142736185486
H     -4.358070606000    2.002140903326    1.420034193012
C     -4.912013811014    0.321827273719    2.639022462363
C     -5.637293102465   -0.318533548437    1.620870428475
C     -5.037365415896   -0.166174138753    3.950963762531
C     -6.462992129367   -1.411820518484    1.899525768704
H     -5.559471451559    0.050718845937    0.593409157824
C     -5.862131376603   -1.258193244417    4.233703712051
H     -4.475776717042    0.319516866132    4.751825668356
C     -6.577950758998   -1.886126438767    3.209251619016
H     -7.022408113084   -1.890981519509    1.091347503891
H     -5.949102089732   -1.619947050036    5.262002362042
H     -7.225882184168   -2.738122943160    3.431706519445
N      1.904674775647    1.203671037439    0.086013615524
C      1.245431894461    0.053507207862   -0.101928827118
C      1.935672632882   -1.213689047778   -0.168926466244
C      3.345024743160   -1.235461066000    0.030974107657
C      3.996056009573    0.007089490376    0.286162118646
C      3.265269614503    1.160932955437    0.294251696351
C      1.238270780056   -2.420479357413   -0.422351030499
C      1.925494507522   -3.618258642734   -0.478707764749
C      3.325792013797   -3.645534195523   -0.279266210767
C      4.024127668108   -2.479432345652   -0.028299478550
H      0.159094324906   -2.385781967413   -0.572456717691
H      1.387208529129   -4.548465530446   -0.674385681869
H      3.858032979659   -4.599285573352   -0.323320135492
H      5.105739256169   -2.500793901345    0.126605546077
H      5.072419324747    0.044065503889    0.462603530873
H      3.743315037247    2.124519299247    0.460049685317
