72

C      2.523385243247    3.846229164018   -1.286389627044
H     -0.501937067487    0.971516019672    0.038447603512
C     -0.005802018542    5.138654011188   -0.173784583489
H     -0.766993506892    5.060653404158    0.604181768008
H      0.826501023986    5.824216729090    0.001312158995
C     -0.254403114019    4.659423160907   -1.446769963761
H      0.397473629763    4.935110781941   -2.278719237368
C     -1.539143967873    4.036192935808   -1.922025693472
O     -1.614334036290    3.466709479189   -2.986773897177
O     -2.560397237364    4.225819442249   -1.081145279895
Pd     0.920136347367    3.153441061351   -0.320905999540
C     -0.718214614999    2.519625281945    2.052093462382
O     -0.795914846369    2.372968783932    0.758295590730
O      0.242114966782    2.964824337303    2.658640821012
C     -1.987778549493    2.064280271129    2.817561394691
H     -2.005996858209    2.673428272342    3.733167963117
N     -3.147902494625    2.349506193680    1.996230513542
C     -4.421578602873    2.650499398441    2.391252390289
O     -5.270578914386    2.996390889266    1.580167016348
O     -0.123429685891    0.118817021044   -0.325560197444
H     -2.946722263643    2.477129491260    1.007503854223
C      3.423924313258    4.672526617186   -0.599788646930
C      4.604396978267    5.141758149600   -1.203829709279
C      4.885730928387    4.777887031578   -2.540980723471
C      3.973455743786    3.957434041829   -3.218831685277
C      2.801401005009    3.492293220905   -2.610652299401
H      3.224823631213    4.959661756752    0.438179528775
H      4.183139358544    3.672402648489   -4.254521120633
H      2.117052007533    2.854696822793   -3.176660813591
C      5.551334490599    6.026558061678   -0.430059020324
H      6.556813331572    5.578429424600   -0.353036202052
H      5.684456040179    7.006171167184   -0.920395736329
H      5.186936684096    6.209789671810    0.591214869281
C      6.138546939197    5.264297705822   -3.227823553937
H      6.180136715423    6.366306043410   -3.270441448037
H      7.049732861488    4.938534743709   -2.697118816590
H      6.200527940319    4.888174031931   -4.259376418804
C     -3.868729666486    3.742585582862   -1.488847259949
H     -3.733293874873    2.799671512263   -2.038035443535
H     -4.406018614296    3.550748218099   -0.549054606149
C     -4.588949932538    4.772954674350   -2.340695529216
H     -4.062824534661    4.945521295518   -3.291782321134
H     -5.603780746141    4.411764396607   -2.571579154882
H     -4.683117506988    5.729877234673   -1.804120924890
C     -4.725203644249    2.541971257838    3.875371554436
H     -5.805144092725    2.671612470618    4.014795854150
H     -4.406617705870    1.572647913077    4.287917720280
H     -4.197759127241    3.331179056594    4.436576347252
C     -1.820968097983    0.596327728233    3.222637057999
C     -0.936814862501    0.268883529776    4.263557838396
C     -0.738631462290   -1.062727888493    4.633332624258
C     -1.420669664681   -2.086793174878    3.966533221310
C     -2.297537773794   -1.767871446955    2.926780566635
C     -2.494964841739   -0.433729296758    2.554741362165
H     -0.393571795168    1.067251742724    4.776007453149
H     -0.050747443698   -1.302519436847    5.448538528660
H     -1.269799104821   -3.129197401188    4.259094646490
H     -2.834084520805   -2.560858595057    2.399116547487
H     -3.183217775021   -0.187090734759    1.743775032041
N      1.901725239081    1.232083980530   -0.092406730763
C      1.189833795263    0.087629126769   -0.194724735501
C      1.825060349766   -1.172916228718   -0.183823794214
C      3.199217108125   -1.269009266990   -0.018072091996
C      3.918135251691   -0.062951443795    0.137369510996
C      3.241677143627    1.139505314622    0.087070762307
H      1.189881600664   -2.054016795644   -0.285519454605
H      4.999731634443   -0.065095332570    0.285096832775
H      3.776435201891    2.084986760383    0.176968818005
C      3.904613538259   -2.597782963981    0.009350282818
H      4.453516034947   -2.729065976132    0.956349397875
H      3.202141663820   -3.435589461277   -0.101367314240
H      4.647571771158   -2.660602521917   -0.802982029912
