62

C      1.465311867884    2.965539725519    2.181567659661
H      0.661807534707    4.018817924104   -3.787460790090
C     -0.973920165032    4.111509608314    0.983902548015
H     -1.774562405995    3.821581404419    0.299387990933
H     -1.072408708651    3.812302189515    2.028967639489
C     -0.045540641697    5.061171142918    0.605180994696
H      0.628816163105    5.506599801868    1.341088835481
C     -0.091979135977    5.815367254612   -0.692606540901
O      0.840436847153    6.455696261730   -1.117896317798
O     -1.293528027791    5.740158688492   -1.277808290433
Pd     0.828334142744    3.044565104891    0.285546249268
C     -0.516185978661    2.365887490419   -2.320262150042
O     -1.080607084735    1.424242190655   -1.727431608267
O      0.315324036544    3.179261482686   -1.806267283611
C     -0.847469226420    2.565927512585   -3.796976632317
H     -1.922390917705    2.807990615731   -3.877843569804
N     -0.024182478698    3.588672197927   -4.400095858930
C     -0.058021625726    3.848425315932   -5.739002238854
O     -0.828121715556    3.277387964900   -6.494314623701
O      0.059652781765   -0.010006160109    0.002674228490
H     -0.419333667582    0.674413519341   -0.608825069874
C      0.952496020947    2.016894625074    3.076797492448
C      1.415454282600    1.923134272128    4.399683215910
C      2.429854366513    2.805089488005    4.842117192685
C      2.940251098900    3.744740119625    3.938213285940
C      2.469156684936    3.835195228205    2.621408207308
H      0.178450923850    1.317642874572    2.745678672512
H      3.726740836159    4.429990667341    4.269764133850
H      2.901265663922    4.586553282046    1.953326623003
C      0.836122147104    0.887085808418    5.331991338258
H      1.611778159469    0.196632434070    5.705496886876
H      0.377848938667    1.351097385203    6.222263920147
H      0.063781674001    0.284891396481    4.832038734801
C      2.953444502181    2.735634940446    6.255916299205
H      2.153811819394    2.904968677509    6.997457482640
H      3.385420658680    1.746064256026    6.484434240088
H      3.735204188782    3.489328143194    6.430364442965
C     -1.463317167382    6.424546608181   -2.534756844086
H     -1.029310833218    7.432746181119   -2.449821819038
H     -0.895515354704    5.876583641061   -3.302452572249
C     -2.942844857755    6.459378561278   -2.854777932996
H     -3.503737111343    7.003973594592   -2.079451704471
H     -3.104198684308    6.966063155990   -3.818864944170
H     -3.355481147814    5.441680335349   -2.931046789334
C      0.918572519638    4.909235083932   -6.226779188185
H      1.535089082366    4.477466514388   -7.029497054572
H      0.345826716945    5.737384865750   -6.671961446013
H      1.574332367953    5.308197025048   -5.439034330944
H     -0.728865909663    1.597215238096   -4.311314650826
N      1.976856557041    1.283588175500   -0.049666710140
C      1.370324734966    0.075108857691   -0.041662093522
C      2.142036313213   -1.109092512159   -0.044950124251
C      3.528613304850   -1.054707297349   -0.093056275896
C      4.129891950696    0.223598404333   -0.140226398319
C      3.326387273834    1.346407397919   -0.108380571372
H      1.601768087978   -2.056882145706   -0.027156323533
H      5.214617343939    0.336629276702   -0.187223724315
H      3.761413865116    2.348116955508   -0.113274407413
C      4.371097047023   -2.301863272203   -0.106678354578
H      5.054163424778   -2.320195962393    0.758648734116
H      3.754393214405   -3.210959050921   -0.077551608445
H      4.999467147073   -2.339716282875   -1.011766678644
