41

Pd     1.145312696577    3.037516751980   -0.161364676358
C     -1.674095962466    3.374190899420   -0.119113922548
O     -0.763925449383    2.408675533465   -0.250951495156
O     -2.854051803709    3.141678131045   -0.019046688204
C     -1.126024051772    4.842990225062   -0.111697990694
H     -1.446897626549    5.274692120028    0.855498883358
N      0.318096319521    4.777639792243   -0.188094411775
C      1.379422081958    5.506311270735    0.106712035493
O      2.469871274367    4.833264020736    0.104387269448
O      0.084034503426   -0.026554698558   -0.101006711551
H     -0.366767636458    0.869336683934   -0.145396339514
C      1.373676273470    6.978093927384    0.400499206438
H      1.643213997081    7.536121374972   -0.511060261853
H      0.388195054926    7.325689871118    0.742057362821
H      2.134123185759    7.196519192539    1.163524014157
C     -1.745062916501    5.706002933248   -1.251223969841
H     -1.167662299100    6.648573216782   -1.233169363935
C     -1.551939941772    5.067616952395   -2.631407330942
H     -1.877287058478    5.757894278967   -3.425781686451
H     -0.495929354450    4.814863167560   -2.814079082642
H     -2.147958542018    4.145520302759   -2.728437977429
C     -3.212051645380    6.057195522713   -0.976698971333
H     -3.836230018189    5.153510360882   -0.945282854911
H     -3.327026860644    6.576142383580   -0.010555770884
H     -3.596597648519    6.725561677728   -1.763765592383
N      2.073495518107    1.156997732294   -0.079422729911
C      1.396419049398    0.007432738509   -0.062289456448
C      2.080532971487   -1.262743321895    0.000530909922
C      3.504881655380   -1.267543370655    0.045671756643
C      4.181249958270   -0.010003794333    0.027381352854
C      3.446961169841    1.140080328948   -0.033225072899
C      1.365021946580   -2.485003273292    0.017362089135
C      2.048790162637   -3.685093980328    0.077491362818
C      3.462531078534   -3.697257800519    0.122454454955
C      4.178231787946   -2.514541994391    0.107015459241
H      0.275501756859   -2.456473261371   -0.017965567917
H      1.497653816546   -4.628269898743    0.090370549923
H      3.992274850088   -4.652204619599    0.169839447433
H      5.270484853260   -2.525552692662    0.141899041846
H      5.270984339053    0.035115689479    0.061883380577
H      3.921441550586    2.124173646734   -0.047316655415
