62

C      1.374403714656    2.891179367949    2.127177498568
H     -2.019050180047    0.636114682242   -2.877274030151
C     -0.814046124282    4.420393923246    0.708181770208
H     -1.539411502802    4.313375599422   -0.100915797979
H     -1.124556619764    4.118429784111    1.710773421670
C      0.323796426769    5.179776421453    0.527034181337
H      0.943734633678    5.464041137222    1.380337388818
C      0.672140334844    5.924603986932   -0.729083099515
O      1.781310541684    6.355612283710   -0.942519397433
O     -0.372890456506    6.077598363978   -1.547284752946
Pd     0.837495685873    3.042560004715    0.203768721470
C     -0.534349046797    2.434078688074   -2.394795481046
O     -1.120908742802    1.503543848539   -1.762154205950
O      0.326568016429    3.202500987821   -1.891840609256
C     -0.924373388022    2.643877739818   -3.862111264945
H     -0.374045072369    3.519909374765   -4.231754922451
N     -0.669150189013    1.523981626926   -4.751730703579
C     -1.329162319793    0.433534527064   -4.648470407251
O     -2.219233743398    0.107250522176   -3.694477468565
O     -0.017590376069   -0.016559025160   -0.030698522840
H     -0.462640973475    0.690938158898   -0.617472724654
C      0.657877734923    2.044515419230    2.983611476973
C      1.015410487915    1.883719971615    4.332968493865
C      2.130914823824    2.589676410156    4.841624001457
C      2.844955729142    3.426718088670    3.975108927042
C      2.479333481625    3.585144729203    2.631881922102
H     -0.194888713019    1.475009997676    2.601264669961
H      3.711425162358    3.974890745374    4.358280548160
H      3.069124723876    4.251460986924    1.995126307514
C      0.216761724329    0.962029309637    5.222256223408
H      0.844044760610    0.156920142726    5.641981111782
H     -0.215684413287    1.500471317344    6.083108097104
H     -0.609799933178    0.490124755125    4.671605259898
C      2.546584558402    2.443892085253    6.285181307154
H      1.740824445700    2.746576140710    6.975939335935
H      2.795247813259    1.398273572845    6.536048578490
H      3.428975940830    3.060203175238    6.511453889554
C     -0.109615681744    6.682902728246   -2.827675057725
H      0.401305796502    7.645190466961   -2.666506881673
H      0.584468124252    6.029354411390   -3.379849145392
C     -1.430043961998    6.849841905901   -3.548729421382
H     -2.113223526706    7.498689820711   -2.979036307809
H     -1.261499009897    7.308212467331   -4.535519084814
H     -1.922238366489    5.877300358486   -3.701819483230
C     -1.177275189302   -0.649172693914   -5.681319658456
H     -0.482905725454   -0.329211139726   -6.466816599971
H     -0.815170464097   -1.577236231992   -5.209786341758
H     -2.161406155417   -0.878254315980   -6.122301363569
H     -2.004316960885    2.904610042702   -3.849723859067
N      1.922298255250    1.237465714164   -0.119310874664
C      1.297987723508    0.041388377487   -0.080470919684
C      2.043816021900   -1.157104915076   -0.063292917346
C      3.431045716107   -1.128431722581   -0.126213636528
C      4.053985649980    0.137099514041   -0.211214713350
C      3.271893213587    1.275445175735   -0.197723996929
H      1.486530839718   -2.094123160630   -0.020480537548
H      5.139749389005    0.229086742294   -0.275969911012
H      3.723695339251    2.268766060749   -0.238045313091
C      4.250901335505   -2.390500926386   -0.120273979237
H      4.947045130794   -2.398887067707    0.734665776962
H      3.618798834407   -3.287289159929   -0.058431963714
H      4.863953871886   -2.462463398256   -1.033740889178
