65

C      1.341821676586    2.888716479592    2.147670360272
H     -1.793821743765    0.363312708297   -2.825660332902
C     -0.831276250834    4.475979753254    0.720222353688
H     -1.550248309933    4.397802231463   -0.097627138707
H     -1.165850024944    4.191641479732    1.720379370275
C      0.340343476615    5.185095615143    0.551981178900
H      0.959888564476    5.443990587796    1.413488209778
C      0.749059488853    5.903972804576   -0.701503645479
O      1.890458433411    6.246378102555   -0.907589207055
O     -0.276442724124    6.143605552942   -1.522800151863
Pd     0.766619488347    3.029990610053    0.234014287275
C     -0.659548708416    2.383041952944   -2.340415174433
O     -1.181696643738    1.412515610933   -1.712740980773
O      0.180442619665    3.179598213001   -1.842232317919
C     -1.097303094525    2.635801502465   -3.796441167912
H     -0.523011930819    3.519598064470   -4.112450612915
N     -0.774804975191    1.574130943170   -4.741648826553
C     -1.184434960464    0.367079208879   -4.645003373958
O     -1.865916119251   -0.206454496784   -3.637247111571
O     -0.067952700674   -0.025117512926    0.079760255706
H     -0.524689400599    0.653568027242   -0.531061943654
C      0.614172887424    2.073534079088    3.024815711902
C      0.990138831844    1.915130485477    4.369593963248
C      2.135485538134    2.591163429813    4.851579311096
C      2.859922613471    3.396979304778    3.964180715663
C      2.476407263766    3.552950773496    2.625777705574
H     -0.261394644375    1.525788363229    2.662902000242
H      3.749311698853    3.921901151521    4.326896976599
H      3.074713763460    4.194337577972    1.971660087628
C      0.179259881994    1.027205562429    5.281846954291
H      0.788738141916    0.207053129551    5.698638302750
H     -0.221165581971    1.586968078860    6.144584598595
H     -0.670944397945    0.575828932385    4.750352290943
C      2.571649269404    2.446872397171    6.289236797610
H      1.787788086842    2.781063710003    6.990578590723
H      2.792435650624    1.396601078982    6.546627417261
H      3.476376162485    3.037835785222    6.493908282569
C      0.039492769949    6.744316486403   -2.794399961687
H      0.681889102181    7.621535945137   -2.621197277100
H      0.624281272124    6.016486509058   -3.379605221680
C     -1.258860365082    7.112996443237   -3.479680303545
H     -1.834510722385    7.831940858264   -2.876273177302
H     -1.046003691229    7.575130849677   -4.456133658918
H     -1.884482902097    6.223988080193   -3.651175119525
C     -0.928789733321   -0.606403908937   -5.765338023180
H     -0.399822907323   -0.109265978636   -6.586442771019
H     -0.339066017855   -1.461857437376   -5.397509447405
H     -1.887507723129   -1.012292653423   -6.127915900064
C     -2.593123386051    3.002361040952   -3.835249332954
H     -2.802491706537    3.877328281546   -3.198574196785
H     -2.881421422981    3.244888704303   -4.869199132664
H     -3.216625540615    2.165323132405   -3.488769116751
N      1.863252841721    1.231199417069   -0.098869612829
C      1.246218162669    0.036174344389   -0.016351864016
C      2.009138375459   -1.151789611500   -0.004365692253
C      3.385022724394   -1.077822067259   -0.119143490570
C      4.028122351903    0.171337110885   -0.254285777054
C      3.207883017700    1.291895374775   -0.229856669913
H      1.478023304309   -2.100754896029    0.076946154920
H      3.978707333422   -1.996798122703   -0.118540188082
H      3.635130231811    2.294777359033   -0.304215954786
C      5.522570953374    0.287102537372   -0.406875117478
H      5.840877445255    1.338096729272   -0.466089746565
H      6.049028451872   -0.176678031143    0.443597752134
H      5.871750786139   -0.220707630269   -1.321384061886
