72

C      1.417983264223    2.918180445679    2.120860833769
H      0.971050968115    3.931590461272   -3.974334805865
C     -0.941884721843    4.105020501937    0.799549347691
H     -1.696833243962    3.848789049583    0.052500626510
H     -1.116466984490    3.774696563042    1.825292139844
C      0.026358556011    5.049350835813    0.517665690747
H      0.652908091730    5.458774403986    1.314308838216
C      0.077590642965    5.857355427004   -0.746861988321
O      1.034203157896    6.524855213751   -1.062678374347
O     -1.067687395556    5.798930598556   -1.435778785152
Pd     0.887659211990    3.030243173276    0.194456758427
C     -0.360391964986    2.410520678609   -2.445985094948
O     -1.030434148128    1.556753842156   -1.824895025096
O      0.514728285851    3.172521440643   -1.935294392411
C     -0.593918562918    2.528121118340   -3.967545222735
H     -1.664318530428    2.744496568276   -4.115419447746
N      0.166405050459    3.630401983419   -4.513415658063
C     -0.281194936560    4.366547696862   -5.576593600082
O     -1.344678685038    4.141702899382   -6.129479618875
O      0.024328630926   -0.007878526516   -0.178969941647
H     -0.414621634639    0.738213962599   -0.759306482894
C      0.819986732604    1.994214269118    2.987745899601
C      1.224227686260    1.872143465506    4.327690133145
C      2.263759864132    2.699725143740    4.814801640579
C      2.856842630705    3.616223704771    3.937945212346
C      2.444754933855    3.736018779494    2.603810268817
H      0.024170922748    1.337424778588    2.622840476920
H      3.662877676151    4.259350365601    4.304440675375
H      2.939149898307    4.468667366009    1.958537301369
C      0.556383367398    0.864035283179    5.230654720907
H      1.280919929617    0.134426502192    5.631057834180
H      0.087495395022    1.348466916156    6.104246548359
H     -0.225214538251    0.303147346570    4.698072546092
C      2.726673312212    2.597607126110    6.247471228567
H      1.907676528931    2.804419790363    6.957585934958
H      3.098178206384    1.586173291909    6.485703696037
H      3.538366334713    3.309284229067    6.457203134180
C     -1.142671855160    6.583087846508   -2.643309581861
H     -0.919852626446    7.632252949954   -2.390702098796
H     -0.356077625344    6.238852560727   -3.330494432699
C     -2.526570462233    6.417531026394   -3.232917236756
H     -3.300213708464    6.745112822912   -2.521357213875
H     -2.616458147871    7.025073638382   -4.146383412786
H     -2.720560760225    5.370599431501   -3.509263914055
C      0.654772635974    5.472350465078   -6.041376039649
H      1.073625180207    5.185258602489   -7.018974630077
H      0.071829865493    6.391367245576   -6.197417407567
H      1.485328568928    5.673403108037   -5.348698075502
C     -0.303592067425    1.180076078706   -4.636075351492
C     -1.258823175274    0.154065748641   -4.585499402212
C     -0.996034763920   -1.089905813869   -5.162346253560
C      0.227489243225   -1.328185528150   -5.797659221520
C      1.184165748745   -0.311707170406   -5.851448481347
C      0.919134859092    0.934242917471   -5.273516459360
H     -2.212077937489    0.332855316592   -4.083656306095
H     -1.753782662834   -1.876839252249   -5.120504788644
H      0.430792070271   -2.300662107679   -6.253650311571
H      2.141851121659   -0.485011780366   -6.349640737362
H      1.664603697703    1.730354518976   -5.331568757982
N      1.985807794781    1.215838218629   -0.087757238477
C      1.328445052781    0.032090863045   -0.126017013877
C      2.055820696508   -1.184707281992   -0.071935364040
C      3.432881834979   -1.157929699913   -0.024686243880
C      4.099514062536    0.084609221083   -0.029750380217
C      3.333622996196    1.237619892864   -0.052461773732
H      1.489003100268   -2.115783655397   -0.089409256475
H      4.003659679842   -2.089063529246    0.007136261631
H      3.806638787001    2.220021523039   -0.022442763455
C      5.602112166047    0.141571872281   -0.001076658439
F      6.096729383497   -0.528584203779    1.056064105896
F      6.136338541503   -0.423602425946   -1.099751764179
F      6.057890349496    1.402459792130    0.066718459005
