72

C      2.551011220591    3.900487415727   -1.197902385635
H     -0.222671635859    0.816813460804    0.218598722287
C     -0.080838095744    4.993605970895   -0.174189367649
H     -0.837990900904    4.897059767550    0.605680269184
H      0.695405974485    5.748480692503   -0.030480351652
C     -0.286890853826    4.436934392684   -1.423560672217
H      0.344826886900    4.722269660292   -2.268066171660
C     -1.524951485308    3.703004848436   -1.865224214450
O     -1.543590533970    3.013440878243   -2.858532052065
O     -2.581309397551    3.950813509411   -1.084546689583
Pd     1.002448669007    3.086594375685   -0.236570778189
C     -0.645929006228    2.481030828337    2.117873838697
O     -0.666031824261    2.188880000181    0.839693698038
O      0.271621247337    3.048218190521    2.686080056909
C     -1.937509756469    2.088772671780    2.862844868062
H     -1.900361581474    2.606943282577    3.830193513355
N     -3.058298719730    2.582577671627    2.076780537541
C     -4.261968673375    3.073124914043    2.494862621505
O     -5.117866676467    3.424201237582    1.692727497660
O      0.218021125645   -0.030471428744   -0.102782782833
H     -2.920183119217    2.553936470204    1.069551604474
C      3.370052976944    4.809848179703   -0.514074870183
C      4.516012467186    5.365604406364   -1.111191389968
C      4.845117978567    5.005057476067   -2.438486020058
C      4.013388083775    4.101224037005   -3.113826024084
C      2.875198325246    3.550424238408   -2.512699307525
H      3.133102391624    5.095765504243    0.516219168279
H      4.260446967296    3.818014980374   -4.141732062231
H      2.254588561297    2.848622621369   -3.076324094768
C      5.375309537864    6.338441473825   -0.340904237142
H      6.413604952939    5.977399604579   -0.244687545342
H      5.432393583062    7.317969127872   -0.845912694330
H      4.983383412842    6.506266318431    0.672744796473
C      6.062653788315    5.582908767914   -3.117784089662
H      6.012730213376    6.683665336956   -3.179122304149
H      6.990125970996    5.343252020181   -2.569767924996
H      6.170354449685    5.196363895358   -4.141677858218
C     -3.866069914814    3.402137489280   -1.484693813310
H     -3.703614273844    2.385239354237   -1.871364992113
H     -4.446623313894    3.364545332578   -0.552165250443
C     -4.540330971906    4.282470073337   -2.522321348119
H     -3.966707482627    4.309323735660   -3.460852293460
H     -5.542196312188    3.882015931345   -2.745134827606
H     -4.661889800388    5.309613193000   -2.144791715765
C     -4.485605488893    3.185418020158    3.994788390105
H     -5.510106586480    3.540610444901    4.157932282604
H     -4.349418577922    2.219558443072    4.505773254791
H     -3.780234206966    3.902454837356    4.445360597437
C     -2.034336985211    0.557565956458    3.107801861737
H     -3.027541944535    0.365326096538    3.546618993107
H     -2.020562700040    0.050734471074    2.130402016517
C     -0.960229437435   -0.008509037284    4.009780204079
C      0.104978454780   -0.756379363695    3.485533951901
C     -1.001801597071    0.207948909855    5.397421118134
C      1.102142922217   -1.269819873537    4.320726289305
H      0.146772711911   -0.940679814449    2.409109696678
C     -0.007338292780   -0.301550390070    6.234904713819
H     -1.828669244754    0.779227045887    5.830756137306
C      1.050450476986   -1.042893654098    5.698229031234
H      1.922326358678   -1.851002008776    3.890981680430
H     -0.059878023981   -0.122858767016    7.312159799656
H      1.828556084078   -1.444016851452    6.352769385363
N      2.152278945780    1.251008707993    0.024820256833
C      1.533721876334    0.050316284221   -0.036497088227
C      2.274121840923   -1.153440877134   -0.036354536769
C      3.650923478859   -1.103692895322    0.084885475353
C      4.283487966477    0.143783227497    0.208170074422
C      3.499057250223    1.283134349697    0.163353657260
H      1.723663649384   -2.091219849095   -0.118931271214
H      4.234797552760   -2.027646777786    0.094551194906
H      5.364497163861    0.232100296344    0.322083301617
H      3.947904928831    2.274418135515    0.223027296280
