77

C      1.368712277082    2.859509839100   -2.068340220590
H      0.025365161987    1.861514712973    2.240866708203
C      0.499708707846    5.236461985511   -0.353959542206
H      0.565096564748    5.641854609025    0.661939739715
H      1.219573866620    5.576365001561   -1.102547661238
C     -0.611260179077    4.519036565171   -0.751938249453
H     -0.768675078628    4.267185033609   -1.804030488898
C     -1.838144994705    4.297076081734    0.095433089029
O     -2.567089255711    3.338068753081   -0.035084079892
O     -2.031151386332    5.297482105793    0.947858983619
Pd     0.970264924198    3.084012154359   -0.122322385260
C      0.266363217603    3.993795162456    2.911834340539
O      0.457177651112    5.194878716733    2.836885345848
O      0.691016890503    3.109608796268    2.035607325891
C     -0.523782022096    3.378773955189    4.096914073646
H     -0.856550938961    4.252390413933    4.679243570086
N     -1.738297152568    2.664485259226    3.692095062820
C     -1.771791929753    1.658475557988    2.908372575955
O     -0.702588004877    1.116920207044    2.265293897442
O      0.018284715863   -0.046721937020    0.015401479604
H     -0.397350891135    0.487883192947    0.753371267401
C      2.476485746913    3.507501116070   -2.629560474303
C      2.827706786191    3.335838088975   -3.980342656056
C      2.039601328809    2.491794288942   -4.795388157777
C      0.933647314235    1.849522173264   -4.222204211184
C      0.591478042325    2.022364994580   -2.875750498176
H      3.103232329009    4.162572982729   -2.015553647897
H      0.319290557516    1.191873505265   -4.845037347824
H     -0.274548188500    1.495111772231   -2.467631854165
C      4.031642233167    4.048820997722   -4.546505311174
H      4.775387291934    3.337965421237   -4.945768710078
H      3.755557449862    4.712885264265   -5.383511305705
H      4.531611181336    4.662998853261   -3.783305167169
C      2.379212760747    2.284281178391   -6.251239162084
H      2.365304080467    3.233317784145   -6.814457345420
H      3.390096949210    1.860353620640   -6.379665976554
H      1.666626027438    1.599699828670   -6.733964787598
C     -3.158864248972    5.231303135756    1.852416053187
H     -4.073440249533    5.076450912776    1.257550998508
H     -3.023240811275    4.359576956115    2.511726617727
C     -3.181275527033    6.527309040720    2.634582367565
H     -3.330322014026    7.393845967884    1.971393191736
H     -4.002235633065    6.506070831456    3.368124247027
H     -2.230685935003    6.659513971216    3.172968225635
C     -3.062196068435    0.962940041068    2.578976403985
H     -3.850315500229    1.272170758646    3.275687456238
H     -3.360573529231    1.232234098814    1.551934700314
H     -2.929265085282   -0.129633755426    2.618943641355
C      0.388773241106    2.533286328880    5.035601103121
H      0.647795000340    1.602590387030    4.499796736697
C      1.690193824368    3.278814861349    5.359781013518
H      2.305857767553    2.710952335332    6.073971440661
H      2.302200494080    3.444722142774    4.460355660624
H      1.479948713571    4.265326733448    5.805849111824
C     -0.386637684405    2.144578822540    6.311340265249
H     -0.531384831256    3.053108844564    6.925081613702
H     -1.395581799746    1.813654556297    6.019813053539
C      0.273664971499    1.051713786562    7.154885339333
H      1.264524607507    1.351616553123    7.532464839267
H     -0.345743653221    0.801856217825    8.031431757037
H      0.409284548002    0.124983630149    6.571717566983
N      1.965479885335    1.187912360558    0.150073690968
C      1.342721429225    0.019161472387    0.027481416631
C      2.074726610106   -1.209295580043   -0.134396123038
C      3.500191379928   -1.159200054133   -0.117204506904
C      4.119081807815    0.110616697865    0.074404746669
C      3.336410495258    1.225166513705    0.198274898004
C      1.410262905807   -2.451207265088   -0.295523209225
C      2.144324160890   -3.611092402948   -0.451464897990
C      3.559307829293   -3.566632761353   -0.442313363638
C      4.226330036530   -2.367957502969   -0.275919305394
H      0.319955815859   -2.464821810737   -0.295518939541
H      1.633798842892   -4.568507232017   -0.579003255366
H      4.127799176677   -4.492141383251   -0.564749257225
H      5.318616050378   -2.336176816106   -0.264268908487
H      5.206201009376    0.197477591437    0.115698479230
H      3.777049601810    2.214359616868    0.332464610779
