65

C      1.094897366740    2.652441912120    2.239794246893
H      0.311386138640    2.301887183486   -2.150594102243
C     -1.111790296923    4.000301707196    0.953828680849
H     -1.210782284383    3.892888341607    2.035029535623
H     -1.850971537151    3.489939996856    0.325894020628
C     -0.254544310662    4.944754864703    0.429381567508
H     -0.321391156884    5.213949402744   -0.626938016146
C      0.556527158215    5.919409727546    1.224626138853
O      1.448625813110    6.580514981666    0.740533908613
O      0.177310715532    5.992071075996    2.504902813339
Pd     0.782459624424    2.966242957478    0.298426939998
C     -1.848484993184    2.089467986094   -2.005166547627
O     -0.786255261643    1.319790271832   -1.983692736390
O     -2.740158109167    2.072327158959   -1.172983596835
C     -1.884042772247    3.085340585416   -3.188714625675
H     -2.875124981726    3.562297843464   -3.174446002485
N     -0.888145244284    4.142645728400   -3.280439527337
C      0.279074006456    4.160865497201   -2.787521736085
O      0.864447755895    3.163568556788   -2.034418576238
O     -0.004681502599   -0.090326247118   -0.150544451305
H     -0.455230942578    0.572077052865   -0.898923069601
C      0.370924874880    1.689521624017    2.948665713447
C      0.644627429774    1.429077548623    4.301775888473
C      1.675441040978    2.148584353298    4.952197436773
C      2.395073723917    3.100774366372    4.219436389318
C      2.116210539549    3.362635776738    2.870711963656
H     -0.413724045647    1.115553091214    2.448595825244
H      3.201094715394    3.654429777360    4.711104946669
H      2.706591487649    4.111378926999    2.335253511448
C     -0.151787821501    0.383743936968    5.043575005813
H      0.496931158863   -0.420520289580    5.430756817190
H     -0.672209496614    0.813230530729    5.916682449963
H     -0.909031189205   -0.078797181286    4.394669399129
C      2.001490637776    1.889759900022    6.402842362409
H      1.132104779914    2.073703574588    7.057035061537
H      2.302603833583    0.841763004066    6.572475664804
H      2.823229202792    2.533244375618    6.749661669065
C      0.911947891785    6.890422651303    3.358469759580
H      1.970485681123    6.585082018114    3.363606502448
H      0.867362355008    7.902244991164    2.924795728388
C      0.297488498327    6.829395438303    4.740374686703
H      0.361033535300    5.810799757723    5.152269953033
H      0.833569053809    7.512275422353    5.417692915628
H     -0.761279940149    7.129813507398    4.715153068927
C      1.206156631670    5.328441774618   -2.982489853086
H      2.125788810847    4.992327854345   -3.488576060602
H      0.711792167370    6.098586531821   -3.586009994105
H      1.509612170166    5.756768202128   -2.012455452572
H     -1.829285542500    2.491814606490   -4.120546965789
N      1.902817275939    1.189324298337    0.010125348453
C      1.288239313884   -0.003144543915   -0.050603876937
C      2.065566617946   -1.223729792958    0.020848960872
C      3.484510866745   -1.139963927625    0.117138420327
C      4.078220853417    0.158850975521    0.131964213240
C      3.271938569764    1.260422711360    0.083835845758
C      1.430737421611   -2.488332696194   -0.015839410159
C      2.185862326510   -3.644896541505    0.054205188734
C      3.594355273884   -3.568268182796    0.155457511898
C      4.233816077130   -2.342258739337    0.184267385796
H      0.343737243622   -2.520590138037   -0.099277804005
H      1.696293973243   -4.621272719832    0.027337125458
H      4.182162921091   -4.488468934600    0.208100356140
H      5.322782903575   -2.285509440105    0.258650513482
H      5.161856639087    0.274474134916    0.188860175191
H      3.691069147804    2.267909886467    0.110424070368
