68

C      1.371677972067    2.942479787057   -2.122329310808
H      0.031080817591    1.833029135213    2.186117856688
C      0.469281140579    5.267607938117   -0.372318148975
H      0.537378933398    5.658159987567    0.649232016536
H      1.177617994747    5.629517881984   -1.121590367860
C     -0.637086970108    4.542671461454   -0.772690928780
H     -0.800508507966    4.306745077413   -1.827710835586
C     -1.853780404273    4.291667664420    0.082611416716
O     -2.565271259079    3.320363455951   -0.050193577195
O     -2.056904578501    5.281364676565    0.944613115387
Pd     0.961776140164    3.120689823446   -0.174425754975
C      0.263383502982    3.961780971909    2.874951533522
O      0.448811485348    5.163969398094    2.812588214048
O      0.681946236925    3.090685204504    1.981137747603
C     -0.509897118410    3.327749649417    4.061022220074
H     -0.844606681113    4.192091015231    4.656064665914
N     -1.720668678112    2.604441903560    3.663386522818
C     -1.754292090926    1.603294109784    2.874949005453
O     -0.683131565748    1.076497458195    2.217503595769
O     -0.021517169814    0.030288712650   -0.088547379329
H     -0.425861006583    0.486948170356    0.711016773243
C      2.482583119631    3.604149956757   -2.660571421125
C      2.850042911627    3.451635988082   -4.009479272911
C      2.074541374089    2.614942357094   -4.844360455346
C      0.964567627894    1.960525810593   -4.292981144659
C      0.605641207059    2.113582145698   -2.948319479108
H      3.098165792074    4.255023905172   -2.030917669067
H      0.360094889945    1.309019188708   -4.931589527151
H     -0.262791441082    1.577688529701   -2.556774112775
C      4.056824205607    4.177361556706   -4.552515971058
H      4.807815849107    3.474971887011   -4.952957683141
H      3.786461471726    4.851081245609   -5.383572292397
H      4.545807251053    4.783412243455   -3.775905221282
C      2.431541357241    2.428505096681   -6.298797204437
H      2.419299496547    3.385137459055   -6.848907131926
H      3.445961636377    2.011447103468   -6.420975724566
H      1.727943370798    1.747139499366   -6.798782061890
C     -3.177011887424    5.187571736947    1.857116159483
H     -4.093378793897    5.026258795116    1.266853986891
H     -3.023786624310    4.309586744187    2.504139067376
C     -3.213086037310    6.473387396631    2.655181116833
H     -3.379154957959    7.345630062696    2.003675174530
H     -4.029041922751    6.431004878640    3.393322938018
H     -2.261417073767    6.613231671020    3.189747171752
C     -3.039418760511    0.895684609884    2.553277894339
H     -3.825100490893    1.195876334442    3.256578440924
H     -3.348327033790    1.163398768712    1.528910499714
H     -2.895528899044   -0.195578169396    2.589797371985
C      0.422683455672    2.484158141016    4.979481105244
H      0.731291806222    1.589121205947    4.411574970720
C      1.686058888936    3.264575282733    5.363764825775
H      2.309622794351    2.672710568964    6.053181947252
H      2.303185861990    3.515500155451    4.487524937918
H      1.429971841408    4.209755684960    5.871255097783
C     -0.332348690115    2.017872142597    6.230858513792
H     -0.630381580756    2.880791345320    6.850810074734
H     -1.245324656146    1.463034352301    5.972025872744
H      0.304583673006    1.365539406077    6.850237681273
N      1.969734062626    1.208402883110    0.064548040772
C      1.299009358265    0.047130524504   -0.057211469838
C      2.026165311501   -1.164414123218   -0.200593249955
C      3.413293000561   -1.153706768655   -0.165414634388
C      4.069286565437    0.070282159281    0.016593651631
C      3.314925034816    1.231030684077    0.122874366821
H      3.975360569711   -2.083153699381   -0.262424798027
H      3.797434937114    2.202335346666    0.239650785827
Cl     1.161789182351   -2.651593126810   -0.395290691294
Cl     5.804276439251    0.146793912897    0.090654293014
