74

C      2.553856168635    3.912485848094   -1.184610991040
H     -0.345528176318    1.040703649926   -0.471611248140
C     -0.059190774086    5.115039395310   -0.162593887952
H     -0.847338936275    5.019669111906    0.586688212221
H      0.729760988922    5.845890757334    0.024361029175
C     -0.241942892530    4.594291857081   -1.430965147341
H      0.422452617927    4.875361904350   -2.251308205824
C     -1.492412353428    3.904758269614   -1.907068284902
O     -1.514166257156    3.222595482087   -2.906006894404
O     -2.547994904785    4.174680172789   -1.137200790193
Pd     0.955405244536    3.176308925577   -0.223683225319
C     -0.710048859847    2.297230507852    1.983428540099
O     -0.792752590164    2.234741024600    0.686467872813
O      0.248792850824    2.758940543977    2.595092407986
C     -1.941140648439    1.779623283985    2.763648057342
H     -1.906292157842    2.311155490664    3.722566521542
N     -3.156572867054    2.160177721428    2.059614423095
C     -4.137186810913    3.036989103062    2.439549584868
O     -4.983025531123    3.420036366710    1.641356437735
O      0.133673009267    0.333558319261   -0.979573993616
H     -3.134737005894    1.990992695326    1.057366087785
C      3.282845795054    5.000213761271   -0.682710751026
C      4.413170116332    5.508131809735   -1.347100334770
C      4.823694879623    4.914104583533   -2.562605540725
C      4.084544682846    3.832977330003   -3.060912101660
C      2.962383041999    3.331543185110   -2.390586614056
H      2.992280931529    5.468468749105    0.262875974929
H      4.391463474482    3.368144280092   -4.003014629412
H      2.413318061696    2.490884397599   -2.823090617548
C      5.173170683868    6.675187591543   -0.764774055296
H      6.226485711754    6.415730871782   -0.562194684195
H      5.192244663423    7.534336173225   -1.457082913040
H      4.724928029233    7.016412012157    0.179803312939
C      6.027659409674    5.432440893258   -3.310502605306
H      5.907669293071    6.491962647193   -3.595154786928
H      6.945195595207    5.375850799344   -2.699759802276
H      6.203787612045    4.857709815440   -4.231430929558
C     -3.827678508779    3.605033617859   -1.512665642889
H     -3.651285451500    2.601721097061   -1.927861807337
H     -4.382585740872    3.528731897206   -0.567159709817
C     -4.547368161500    4.490072223437   -2.515606945748
H     -3.995974339746    4.549550265335   -3.466138445890
H     -5.545177100764    4.072065643988   -2.724310386579
H     -4.682518686391    5.506895372038   -2.115225701080
C     -4.145835426206    3.514999413042    3.883080186928
H     -5.055926945625    4.108666082897    4.030831609120
H     -4.130357253847    2.680332345247    4.599150245915
H     -3.269871603841    4.150770768472    4.091575686639
C     -1.877203512536    0.242976919070    3.097412074351
C     -0.514371009262   -0.094595822708    3.729341574137
H     -0.509246831481   -1.140333370625    4.077330565343
H      0.313289549689    0.025386550650    3.014740287300
H     -0.296734220242    0.553640271864    4.592831254114
C     -2.990758674850   -0.072855803419    4.113553109965
H     -2.837153412260    0.471934858465    5.059763496270
H     -3.982504786899    0.193931479479    3.717327000918
H     -3.003427494174   -1.149340639694    4.348653227530
C     -2.093304802975   -0.616761976248    1.839380967117
H     -3.078950492372   -0.426363039425    1.386747244985
H     -1.326916369157   -0.434705352411    1.072939679843
H     -2.054301245552   -1.686231258150    2.102389440750
N      1.961866988770    1.263088227464    0.090025318229
C      1.372518812870    0.210590038532   -0.513365798097
C      2.031516866628   -1.023235601049   -0.658448599991
C      3.284676044227   -1.168466036341   -0.086028483175
C      3.839361596451   -0.108332184746    0.642066620390
C      3.154339587696    1.103774321314    0.723967792530
H      1.520322350855   -1.829746554959   -1.184377272020
H      3.820438913964   -2.117277791017   -0.171811049344
H      4.797639491603   -0.217644184182    1.151318070506
C      3.679587431814    2.250256176496    1.536487679519
H      4.069511100573    3.048010333352    0.886774242617
H      2.864677270860    2.675710483035    2.143249509767
H      4.489522798527    1.916066727844    2.199406765348
