74

C      1.935828160393    3.185950834930   -1.873664751900
H     -2.939905733949    0.642515648587    2.615478600990
C      0.368975676165    5.195929920231   -0.130857649873
H      0.046479905825    5.395381537722    0.893375786551
H      1.257737590818    5.711973551677   -0.500020001612
C     -0.485169166502    4.566021199311   -1.014091178602
H     -0.259809650388    4.539256885981   -2.082405882797
C     -1.912537795623    4.192474741913   -0.727672425729
O     -2.582138057445    3.562261990867   -1.512684476394
O     -2.353466708713    4.675471106060    0.439375729379
Pd     0.919370866990    3.064067093866   -0.146872181100
C     -0.953444986058    2.056911754714    2.000164005230
O     -1.240166875078    1.088457411727    1.254938439799
O     -0.103528753522    2.959427438668    1.747658618988
C     -1.698801063439    2.160808214261    3.344223983061
H     -1.927279835577    3.220611399026    3.523666822018
N     -2.966914061848    1.462632009998    3.214012927285
C     -4.169656480120    2.049096611802    3.480099188354
O     -4.277703102856    3.164225223961    3.973115435674
O      0.153943929649    0.134118896067   -0.609773517027
H     -0.442203124012    0.634303718853    0.076456169940
C      2.969666501736    4.111311031654   -2.074320139007
C      3.684204029099    4.178786398065   -3.283989320839
C      3.347139749461    3.295020397473   -4.333487104241
C      2.308723514720    2.376760357108   -4.125889288502
C      1.606593604461    2.312114069898   -2.917086337429
H      3.251169023200    4.810164415111   -1.280040776241
H      2.038703564386    1.688537041913   -4.932955874948
H      0.807026482049    1.576640375976   -2.796866973120
C      4.794360898446    5.187671124886   -3.453130114024
H      5.759387268554    4.699198451452   -3.672493899251
H      4.596047906609    5.875168650406   -4.293311365731
H      4.926641455668    5.797071313733   -2.546933965120
C      4.084842998701    3.337209112802   -5.649495745331
H      3.998238402755    4.323852850801   -6.136528921075
H      5.164367603062    3.146762646168   -5.520658056607
H      3.694723307391    2.584541342806   -6.350054834310
C     -3.735702182175    4.428907877888    0.789014575400
H     -4.004215987093    3.418296110244    0.448317811467
H     -3.762377116355    4.457640905248    1.886191608941
C     -4.655270003269    5.474133561886    0.181288181121
H     -4.652250336195    5.417451158562   -0.917508694446
H     -5.686218660022    5.304657981766    0.530795513741
H     -4.354885655142    6.488333395534    0.487736090696
C     -5.390137074546    1.219886241766    3.109873890128
H     -6.105876669927    1.258410142294    3.943441253565
H     -5.881563968714    1.679264482740    2.237253171772
H     -5.155823416346    0.171594459616    2.874481774870
C     -0.846532988262    1.651922574109    4.566607038113
C      0.396968057971    2.540516780948    4.750842995942
H      0.955668872546    2.221954023080    5.646120692424
H      1.072617686300    2.488691003241    3.886071585437
H      0.114229409450    3.596614517634    4.888998576975
C     -1.713454738944    1.753098196412    5.836440741810
H     -2.088826062723    2.776957885204    5.986069572320
H     -2.584630344521    1.083649401521    5.784179604517
H     -1.121936951355    1.467820058536    6.721662476359
C     -0.414997214128    0.188855085355    4.359330402885
H     -1.286458308080   -0.469586260756    4.215867772515
H      0.242215152857    0.072229046213    3.483420417074
H      0.134101124492   -0.177042747242    5.242200213026
N      1.990317104895    1.235609069205    0.240321540523
C      1.406924781311    0.098535339926   -0.205392695993
C      2.133119166334   -1.109074286708   -0.259595162896
C      3.436387358239   -1.128079928668    0.206640011689
C      4.001270903284    0.042548014722    0.731734502810
C      3.255269206241    1.218985668702    0.733037213836
H      1.628509229981   -1.995277790681   -0.644974217871
H      4.014910262454   -2.055282505260    0.184642658767
H      5.016590897246    0.047961490957    1.130191019688
C      3.816553212584    2.507923186395    1.262951126347
H      3.980496032662    3.221418198663    0.440010877784
H      3.115414368382    2.973682397677    1.973094664374
H      4.776390789770    2.341422487106    1.770739265461
