75

C      2.484569013523    3.830828733262   -1.161056727664
H     -0.495743259986    0.899445364133    0.156087232073
C     -0.095336342313    5.094976843445   -0.173984245470
H     -0.866441912774    5.024298601143    0.593811176702
H      0.724878631151    5.794106225050    0.003613495421
C     -0.299771447843    4.572873690115   -1.437301830755
H      0.370526837500    4.832483257815   -2.259890827474
C     -1.558904772701    3.904122738255   -1.916849992743
O     -1.591565384696    3.260483539570   -2.941314967984
O     -2.606554647209    4.140253384427   -1.125162498290
Pd     0.865071598231    3.116992662495   -0.237749502193
C     -0.937377507224    2.577312764542    2.054671387804
O     -0.856801423834    2.267489490359    0.786777748899
O     -0.189387337898    3.356374377991    2.626874264511
C     -2.094552154345    1.886444080692    2.806556632727
H     -2.161583650098    2.384487031661    3.781881543857
N     -3.336407641641    2.107825953635    2.077825829763
C     -4.366245636363    2.958415149042    2.380905536318
O     -5.225934428394    3.227810522088    1.552267382582
O     -0.070266024515    0.042472839436   -0.168371673248
H     -3.314502482722    1.829190897657    1.099736693013
C      3.332174810155    4.712793295205   -0.476123530322
C      4.521244150859    5.194181448216   -1.053129711458
C      4.866388115488    4.785858284962   -2.362097930250
C      4.006605008727    3.910425339474   -3.039832330894
C      2.825946445940    3.433549034564   -2.458155903171
H      3.083440391970    5.035741837841    0.540368917266
H      4.265636679067    3.590715163973   -4.054047367550
H      2.184313293290    2.752114521290   -3.023217022757
C      5.409640292488    6.139160470810   -0.280994062553
H      6.424269346151    5.726586914445   -0.146324022722
H      5.532871723931    7.101835619993   -0.806269780793
H      4.999252918372    6.352210298159    0.716800798688
C      6.130125760375    5.283830149761   -3.020133761946
H      6.139752119660    6.383966256761   -3.107615589216
H      7.029176178603    5.009603824740   -2.441684712090
H      6.244430425422    4.868018319398   -4.031823208529
C     -3.887039608646    3.583543690267   -1.517628896262
H     -3.710915460916    2.596610458053   -1.970197327900
H     -4.444297176682    3.469566331718   -0.577487124280
C     -4.610639430528    4.504159654991   -2.485311708875
H     -4.062015274253    4.599627893793   -3.434474042869
H     -5.608553047332    4.092767538052   -2.706236128957
H     -4.746074291520    5.505314226496   -2.047198802950
C     -4.409815098605    3.541101075699    3.784368734711
H     -5.350007265662    4.096326846159    3.885510353739
H     -4.358373923579    2.759711376939    4.558045915004
H     -3.567266045239    4.231892287848    3.949476632591
C     -1.811469027995    0.377209790043    3.043998667722
H     -1.783794483425   -0.107886197123    2.050565985288
C     -0.442974663722    0.174755559957    3.708082244752
H     -0.235072777896   -0.893764133992    3.867116509149
H      0.378889837490    0.580815262720    3.099762519497
H     -0.401271839127    0.676959809177    4.689434004528
C     -2.950705132061   -0.268457681012    3.854736599602
H     -2.930439331264    0.138058029898    4.883510108735
H     -3.910712658848    0.048833366275    3.416917648648
C     -2.916059107914   -1.797628055065    3.905352699933
H     -2.013900530668   -2.181127088292    4.408054708585
H     -3.786657026627   -2.192466699354    4.453059862621
H     -2.939313109298   -2.229439510133    2.890706139930
N      1.907266590974    1.230258925096    0.106792524089
C      1.233673134238    0.072661022185    0.008502196002
C      1.917389989772   -1.185738884511    0.082472624823
C      3.285552204548   -1.188166371011    0.310013035895
C      3.958485373233    0.039590326563    0.455841291693
C      3.246730671136    1.214111005721    0.342762202842
H      3.837131107477   -2.125482200180    0.387548418416
H      5.032287626569    0.069201526182    0.645543587118
H      3.732856564136    2.185193897799    0.420881069733
O      1.132380133346   -2.270847938703   -0.062904453700
C      1.724949269827   -3.550213613635   -0.013519207662
H      2.202287007393   -3.742684405836    0.964582352262
H      0.914275462181   -4.274812761868   -0.164028824592
H      2.478512213159   -3.682604611447   -0.810898526051
