77

C      1.505014126190    2.924431157536    2.083212100042
H      0.996625333919    3.570184536936   -4.093950326391
C     -0.926442259301    3.968190763160    0.738660035922
H     -1.662449224871    3.689228789125   -0.018759568690
H     -1.098026801530    3.618002260503    1.758463922517
C      0.007410806967    4.952390440494    0.480409511580
H      0.608553164044    5.373150135624    1.290613165487
C      0.042190355850    5.788514728742   -0.766278710828
O      0.987308020208    6.479271256768   -1.067172079989
O     -1.107412587454    5.736872233209   -1.447942200581
Pd     0.954377286879    2.970710569705    0.158755162237
C     -0.378423713615    2.258321614905   -2.407731255016
O     -1.001158988047    1.429095012834   -1.701459989399
O      0.530465796981    3.027245981205   -1.966995833985
C     -0.705015818758    2.346153600844   -3.911072322113
H     -1.759943435824    2.651895982213   -4.002131298407
N      0.091160965280    3.398675092518   -4.516396206684
C     -0.432330146814    4.338112819510   -5.356663540829
O     -1.602498006314    4.339288254834   -5.712913819945
O      0.264868247660   -0.125721984713   -0.191302350780
H     -0.242035643631    0.626692514529   -0.700972291958
C      0.934683987718    2.009182586055    2.977761408746
C      1.348706596852    1.930925224129    4.318078928108
C      2.370457086820    2.795211863607    4.777530655693
C      2.937054337755    3.702247876897    3.873524040077
C      2.515361259665    3.777535191189    2.539330294555
H      0.153229018828    1.323537359027    2.635213459284
H      3.729963087623    4.373208337801    4.218160975427
H      2.989364206614    4.503773025405    1.872020202011
C      0.709419825645    0.930823430075    5.250358517809
H      1.452602248801    0.228449532755    5.665226066442
H      0.233394836288    1.426088080331    6.114030994602
H     -0.061435173963    0.338402013512    4.736494029387
C      2.842986961525    2.741857724342    6.209847589859
H      2.023065908404    2.947749583735    6.919261055117
H      3.240085825370    1.746312327614    6.472896299460
H      3.638330017174    3.478201747455    6.396044217372
C     -1.218199625649    6.596744298939   -2.601393720831
H     -0.987360677987    7.626812337178   -2.284887203784
H     -0.448472349368    6.303883825956   -3.330602684926
C     -2.617756183450    6.470015704169   -3.162385281599
H     -3.369885775049    6.728805403570   -2.400942522831
H     -2.735588030686    7.157872655220   -4.013756269179
H     -2.810752307281    5.453673351675   -3.534155232678
C      0.563948100569    5.366314236557   -5.873049088592
H      0.892273145464    5.062426234522   -6.880494967726
H      0.058025073941    6.336182169418   -5.972634908896
H      1.454797081236    5.473792630930   -5.236237966863
C     -0.567192915782    0.957055340757   -4.654358149060
C     -1.744333931771    0.038805411013   -4.274552103183
H     -1.655270539816   -0.924921296622   -4.802721340132
H     -1.780889936863   -0.150259770523   -3.194887745045
H     -2.703828795464    0.493203004031   -4.572552275797
C     -0.616537909420    1.194900791897   -6.176661157800
H     -1.510672545503    1.767026419115   -6.465005814167
H      0.265685791995    1.747938763849   -6.532184552314
H     -0.638544775918    0.226549850211   -6.702257752020
C      0.768372073598    0.281263608667   -4.293668046873
H      1.624723932111    0.945887117144   -4.496107391839
H      0.799470292086   -0.012665125370   -3.233113964733
H      0.911768813514   -0.632606064576   -4.892627828975
N      2.151121049383    1.217992267465   -0.093025812204
C      1.564252645815   -0.005087284878   -0.127454318290
C      2.359381970330   -1.176994784859   -0.066840096774
C      3.733977168380   -1.072385287604   -0.019156197724
C      4.332184746314    0.205827104843   -0.029482674974
C      3.492065685949    1.313747106709   -0.055388875437
H      1.845281266201   -2.138455911735   -0.079485676492
H      4.363033725621   -1.963086579277    0.016152963544
H      3.925120807014    2.315519366463   -0.028794218155
C      5.801242017195    0.438098140936    0.003722979017
O      6.322683314179    1.529078814458   -0.013089548536
O      6.494195400228   -0.714993186116    0.054360250921
C      7.916881206226   -0.595356584883    0.088204177059
H      8.239717908533   -0.029153690129    0.974848262337
H      8.308764510076   -1.619079684794    0.125564952550
H      8.286336578631   -0.076384618206   -0.809086183124
