71

C      1.304227288713    2.835405309163    2.115596852481
H     -1.706702905403    0.091198232832   -2.780188977407
C     -0.912682322698    4.316986275903    0.623018166004
H     -1.599110836297    4.215873409891   -0.219879570449
H     -1.272879753530    4.019313235326    1.610501569686
C      0.239692525276    5.066431893144    0.501374634692
H      0.814527206136    5.341779352307    1.388640431250
C      0.681889967221    5.805517437164   -0.730087632737
O      1.832447595235    6.133885774609   -0.903433763117
O     -0.325696769287    6.086382235990   -1.560596346252
Pd     0.753000647921    2.933160888325    0.192187933873
C     -0.587331636049    2.165065697159   -2.401779812676
O     -1.020239099470    1.153299439574   -1.769842427346
O      0.176485052115    3.030129720685   -1.891331222591
C     -1.030798557014    2.437275046198   -3.855054255987
H     -0.251478767439    3.123831393959   -4.223864288118
N     -1.105428649028    1.362323013727   -4.819749597405
C     -1.512347471770    0.160766482110   -4.681369681413
O     -1.909675506888   -0.477483028740   -3.569375609149
O      0.154531773418   -0.197062495428    0.013054023015
H     -0.336286904113    0.466898713312   -0.601845545098
C      0.580529235661    2.017096023241    2.992513428534
C      0.947270080503    1.876674713121    4.342110956546
C      2.076868506931    2.576355806499    4.827581819849
C      2.795039512549    3.387562082603    3.939876055546
C      2.421712023274    3.525322652654    2.596634911186
H     -0.284851183777    1.453685386259    2.629672655439
H      3.671757112907    3.931024342519    4.305535891070
H      3.013167688129    4.173249568104    1.942797520762
C      0.143231459248    0.983977926538    5.255484187920
H      0.762857888892    0.178278649851    5.685069163077
H     -0.273305269611    1.545297284419    6.109417614223
H     -0.695126278122    0.513546581083    4.721665437834
C      2.503057266824    2.451566087897    6.269891712869
H      1.707278916524    2.777864108789    6.961349700054
H      2.739664559487    1.407363467771    6.537260290986
H      3.395689257421    3.059516173729    6.477152955984
C      0.011471606890    6.759382221565   -2.792431299645
H      0.763164967396    7.532946676130   -2.575554585894
H      0.479358744129    6.020704760873   -3.463393449318
C     -1.255777404449    7.341381700079   -3.381451078559
H     -1.715227456959    8.065582868767   -2.691079480735
H     -1.020759783135    7.863772775059   -4.321854697764
H     -1.993032291213    6.555487498675   -3.603454787886
C     -1.594245205539   -0.743669863795   -5.885673999271
H     -1.276111326334   -0.208488416919   -6.787492091030
H     -0.961205474537   -1.632671024230   -5.731522354497
H     -2.627760365141   -1.106825065413   -6.008492862713
C     -2.343832376498    3.293098098074   -3.831075566665
H     -2.129294842626    4.129490934271   -3.141256233028
C     -2.622447883450    3.884573845689   -5.218187682523
H     -3.505253519411    4.544305141429   -5.189943616320
H     -1.767117297562    4.475272567809   -5.584005214524
H     -2.809807583816    3.086591808413   -5.951693954772
C     -3.565616051459    2.535788030812   -3.296862904842
H     -3.828466317450    1.689314337609   -3.950669114290
H     -3.397802414265    2.136260399098   -2.285564904040
H     -4.440618735650    3.204896568075   -3.255632934759
N      1.984148479664    1.202020181845   -0.103120717909
C      1.454381223520   -0.038253438578   -0.011642014618
C      2.298321575542   -1.171477902965    0.084301755118
C      3.666628243712   -1.006198100347    0.033890133379
C      4.200320088952    0.289720819215   -0.115619431447
C      3.321696158136    1.358976975308   -0.170687144228
H      1.829623113903   -2.151494574012    0.176043456933
H      4.331045948341   -1.871152370530    0.097988030515
H      3.691331699890    2.381730820120   -0.255424526443
C      5.688487673053    0.492761575936   -0.205712781983
F      6.320760329028   -0.070260390586    0.840536905832
F      6.195639515918   -0.076200939224   -1.314715036778
F      6.019044919138    1.792908519644   -0.230718313519
