75

C      1.409922484300    2.878531872179    2.156228875104
H     -1.902494196085    0.640836834028   -2.865320004058
C     -0.673089229377    4.582602765292    0.742864698109
H     -1.385367120686    4.557893265503   -0.084207240056
H     -1.031709491558    4.286713486115    1.731334119288
C      0.529713400016    5.245317557244    0.607084586237
H      1.148178757672    5.455558701527    1.482556979372
C      0.981161391584    5.984612966460   -0.620245545571
O      2.133923484665    6.308977808723   -0.788149493817
O     -0.021616999665    6.255939756140   -1.460215088110
Pd     0.867918179332    3.082225071675    0.238948535073
C     -0.566175943160    2.559802343065   -2.355124982312
O     -1.147473233898    1.611212228219   -1.741152614494
O      0.320865625028    3.292279400989   -1.844663245634
C     -0.994243708078    2.856301398604   -3.803557688567
H     -0.366673983939    3.701652254206   -4.123385037103
N     -0.749062662179    1.775752639756   -4.743502571168
C     -1.269089416293    0.611193975320   -4.671565594884
O     -2.036260227280    0.101868066181   -3.687717577026
O     -0.102258872298    0.052979832707   -0.053280158753
H     -0.520685137519    0.797490490632   -0.631672066274
C      0.619909469405    2.104204120646    3.015647558216
C      0.978275932722    1.895452278885    4.358534721452
C      2.167872018655    2.478483237374    4.854927556715
C      2.951755008573    3.246230163803    3.984429596445
C      2.586375579430    3.453139820197    2.647794138985
H     -0.293990033248    1.630673724260    2.643422526828
H      3.874956916284    3.699408557706    4.358566800783
H      3.230991174435    4.063023983786    2.007690545076
C      0.101803213001    1.053483908693    5.253227263035
H      0.649134504130    0.184696133470    5.657237777617
H     -0.259471235337    1.626403812365    6.124430285213
H     -0.777380488980    0.674007200711    4.712724428427
C      2.587431779517    2.277204436346    6.290496990947
H      1.826660180160    2.653700262463    6.995679356350
H      2.731700661483    1.209261004705    6.528221565963
H      3.531304645917    2.797902344541    6.507983574538
C      0.316286165324    6.888451074910   -2.713108921477
H      1.279039157258    6.487376412433   -3.060168958986
H     -0.474783106695    6.566420774412   -3.404649221225
C      0.360698569199    8.401114531920   -2.584673648324
H      1.174141348571    8.713891474573   -1.913680117614
H      0.541074704246    8.852165212930   -3.573551729688
H     -0.592446811296    8.793468108170   -2.197142592074
C     -1.069718266034   -0.376086667172   -5.789966557803
H     -0.466437158996    0.072339568020   -6.587288221223
H     -0.581017445082   -1.287565502329   -5.409137028828
H     -2.049469817117   -0.682929364170   -6.191232327094
C     -2.472588082235    3.351531802550   -3.791785734409
H     -3.109085637782    2.561149187314   -3.367943324989
H     -2.524745239309    4.212081199216   -3.103017311221
C     -2.996737965807    3.756588777335   -5.150191688694
C     -2.716312559056    5.024365458067   -5.684391641291
C     -3.769444122421    2.869929457236   -5.916496629960
C     -3.185091101247    5.394877111385   -6.947206466937
H     -2.124532332761    5.734946696625   -5.099279565711
C     -4.242367438870    3.235951471943   -7.179754689678
H     -4.005131845570    1.881428492887   -5.512658223952
C     -3.950355226839    4.499597202060   -7.700942420725
H     -2.956247360984    6.388150493977   -7.342707333020
H     -4.843770737460    2.530360674826   -7.759222794781
H     -4.320816115669    4.787701126817   -8.688156830304
N      1.883627424028    1.228282933126   -0.107683199561
C      1.206703534670    0.058268182709   -0.072058172388
C      1.908290326775   -1.171592402525   -0.026287979321
C      3.286641061769   -1.171104824563   -0.067498361053
C      3.973911971241    0.056215439469   -0.157219765899
C      3.230935137249    1.224824929426   -0.165544430609
H      1.324131502589   -2.090846775742    0.021317724241
H      3.841283099855   -2.112059933567   -0.041478274172
H      3.722251543211    2.197882344317   -0.203175146797
C      5.476294468464    0.082061380855   -0.235842211952
F      6.028649256515   -0.602085545099    0.783140543021
F      5.918891571487   -0.490681412850   -1.370072883776
F      5.961245045328    1.332633266876   -0.198070965491
