66

C      2.527436272741    3.951280459580   -0.886646220710
H     -0.860588952904   -0.936628397051    1.220938530022
C      0.084349341581    5.125214292254    0.558034301910
H      0.894976555299    5.843066242095    0.707494639700
H     -0.502126024289    4.775590709135    1.416294004947
C     -0.364878052843    4.892301152943   -0.726351836243
H     -1.297316231604    4.348003699467   -0.901424119902
C      0.165487512921    5.674282629035   -1.892960795038
O      0.860331013176    6.656648967934   -1.808554998193
O     -0.271114344569    5.154628420683   -3.052355898785
Pd     0.877448844619    3.159945799390   -0.103816235520
C     -1.673795438089    2.286689583787    1.659966011481
O     -0.922533198290    2.158414886530    0.585393522840
O     -1.788265232423    3.317781688174    2.293778681301
C     -2.422514659137    0.992310340243    2.070031447665
H     -2.441510545354    0.321146727832    1.187330047610
N     -1.739615672276    0.414567442502    3.216246660772
C     -1.006779112438   -0.623577049797    3.157189508944
O     -0.662936493816   -1.365839082475    2.073609866086
O     -0.130288001327    0.070600200653   -0.364441600308
H     -0.566845956677    0.968815912040   -0.006972377898
C      3.403713939171    4.737759815633   -0.128755472611
C      4.595159080203    5.247700887783   -0.672658936328
C      4.916538247857    4.963765947132   -2.020062637974
C      4.032025007600    4.175118581290   -2.767678994896
C      2.848269854755    3.668212665221   -2.218017968573
H      3.172543232123    4.972031626267    0.914757378138
H      4.275948762001    3.945293237457   -3.809759705829
H      2.189855106182    3.052191471029   -2.836401365169
C      5.509467428676    6.099296530531    0.173634505658
H      6.522417565120    5.667194861675    0.243507164344
H      5.629400025526    7.109843681591   -0.253039897287
H      5.121077511533    6.212882869548    1.196130594983
C      6.180999098717    5.501593666416   -2.643784041855
H      6.206731211096    6.604719717781   -2.626276966994
H      7.081855635420    5.159924921978   -2.105529647257
H      6.277145639916    5.182356095251   -3.691880106307
C      0.149861722924    5.821075938216   -4.256450133389
H     -0.144824813788    6.881220899287   -4.195770510589
H      1.250511715606    5.793692122648   -4.305618043176
C     -0.493074247128    5.117337397970   -5.432943887465
H     -1.591114380744    5.150895092766   -5.361169059779
H     -0.193276805390    5.607782032456   -6.372134959474
H     -0.183559278909    4.061888697241   -5.480955271445
C     -0.403944816528   -1.207478245124    4.405979751440
H      0.695721892437   -1.213613413468    4.330527934178
H     -0.715814202617   -0.622177502554    5.278304169144
H     -0.725359430139   -2.255435896733    4.522681747168
C     -3.863130343052    1.321220717084    2.468678053724
H     -4.419652469617    1.756423183044    1.623111145000
H     -4.381053060091    0.408371923645    2.799882316506
H     -3.851009850809    2.044737041410    3.295374959422
N      1.865498690575    1.208407840278   -0.004633015782
C      1.171659276984    0.069174580253   -0.181593502768
C      1.830057400400   -1.205671289201   -0.166957925522
C      3.191898779359   -1.253802477227    0.084363559501
C      3.888546813872   -0.048990853130    0.296747137596
C      3.204641487833    1.145407130728    0.237762099155
H      3.720568603361   -2.206629949378    0.123640571596
H      4.960412386964   -0.051544112778    0.499566542890
H      3.713750270370    2.097744098072    0.373657932657
O      1.021211898682   -2.258711606833   -0.387451031602
C      1.541743549771   -3.561607909920   -0.235331151709
H      1.936971797145   -3.721099719313    0.783534558747
H      0.706408023887   -4.252285923102   -0.407794830412
H      2.339554285553   -3.772236434916   -0.970392040305
