77

C      1.389615844514    2.850460306297    2.284915131216
H     -0.505055947775    4.592609585684   -4.501845759204
C     -0.629397754414    4.603149088482    0.663972721440
H     -1.229349367929    4.624205593402   -0.251451016182
H     -1.136095255269    4.333336245686    1.593970708262
C      0.621298932070    5.185684236405    0.717274986802
H      1.109459657852    5.362649764289    1.677148321773
C      1.252663787536    5.898933192910   -0.438446757276
O      0.708255027863    6.202937839592   -1.473318024680
O      2.535540009821    6.189021572366   -0.158964174315
Pd     0.888801837357    3.006975870463    0.363019229892
C     -0.635475689810    2.370934307640   -2.328040334166
O      0.230201693792    3.057662695565   -1.771523897386
O     -1.099949811291    1.243653479117   -1.895186383711
C     -1.256954949132    2.781723922426   -3.667845923906
H     -2.313109259923    2.485587238871   -3.572045995570
N     -1.218985815363    4.207472427882   -3.896547379080
C     -1.950592796700    5.056870864466   -3.111255345408
O     -2.649516150633    4.632646363545   -2.200268459563
O      0.067849598730    0.210399000504    0.037354540421
H     -0.615603072178    0.865889736541   -1.042243423785
C      0.560460229290    2.072024555490    3.100485626653
C      0.847935854054    1.879749934013    4.462670161113
C      2.002839152893    2.478759597721    5.017852947668
C      2.827125678416    3.245488711412    4.184517475528
C      2.534468288814    3.438282020913    2.828268943705
H     -0.318610707833    1.579295863477    2.675152041113
H      3.726080232392    3.708035832516    4.603789172260
H      3.205554265596    4.045985028196    2.215394521051
C     -0.065913212614    1.032674919213    5.314309579070
H      0.469337051127    0.173209113343    5.753135930522
H     -0.481742799310    1.606494119967    6.160411748709
H     -0.908701668994    0.638696914444    4.728378978439
C      2.345800334908    2.292107801955    6.475752097629
H      1.544753176821    2.666372354134    7.136314840521
H      2.486818519404    1.227338777641    6.729548236692
H      3.271946742485    2.823367042468    6.739792568875
C      3.285050743788    6.881729035500   -1.173385793707
H      3.282809630381    6.272882645047   -2.092142323914
H      2.769220489901    7.826642072098   -1.410228131748
C      4.685998468397    7.113975242510   -0.648251351477
H      5.190349131392    6.160497949628   -0.428708718515
H      5.282315695402    7.653280280036   -1.400530544934
H      4.666918668973    7.716062454389    0.273165584692
C     -1.832349684955    6.530673838156   -3.440525594536
H     -1.645430773251    6.711226108281   -4.510029494946
H     -2.759534205258    7.033227719874   -3.135750978307
H     -0.997102311503    6.944832475693   -2.856515502460
C     -0.643280375629    1.973409843835   -4.842931362330
H     -0.700410399681    0.919567939549   -4.520502210326
C     -1.502878598355    2.127330055816   -6.105012395226
H     -1.129641600154    1.494336509052   -6.923770361530
H     -2.546791379158    1.836253917695   -5.909731894227
H     -1.510310228573    3.169990208259   -6.461901372907
C      0.845040445218    2.302689829646   -5.085288493828
H      0.937328445250    3.316114019011   -5.520042446111
H      1.369376065403    2.343674948731   -4.116276230818
C      1.569178886587    1.308055719399   -5.996709270820
H      1.145353822030    1.287312174072   -7.013054115250
H      2.635307739043    1.567370425464   -6.092038513791
H      1.511962342134    0.284174199380   -5.591314429011
N      2.077327772678    1.280210787247    0.077131303639
C      1.331376867342    0.121705748275    0.012964594914
C      2.038545916186   -1.123075755955   -0.073005530005
C      3.413391944870   -1.146093184027   -0.110269155321
C      4.143193898973    0.068527039028   -0.058612857777
C      3.414547988742    1.250492398820    0.048344447652
H      1.440287274439   -2.034590669227   -0.109758130848
H      3.954559808246   -2.091484607859   -0.180567133309
H      3.944879833809    2.203017972107    0.119052828046
C      5.619046371152    0.156912857852   -0.098049259244
O      6.255532292750    1.188351183136   -0.068057699332
O      6.203187801074   -1.059680624362   -0.174986184039
C      7.627173484826   -1.070756537136   -0.216232250284
H      8.050986732005   -0.607754163711    0.688194161718
H      7.924510433782   -2.125234084582   -0.277433615578
H      8.000459437744   -0.518436938593   -1.092411228274
