75

C      1.545148637156    3.953123953186    2.485339524973
H      0.057900176681    4.713054700286   -3.595155746328
C      0.845781042448    5.256805359077    2.094575365112
H      0.153808366618    5.567624990476    2.894001035226
H      1.597377857498    6.048334534924    1.962512056150
C      0.114117948753    4.978391505543    0.783225583633
H      0.382834801807    5.625259830058   -0.060461221453
C     -1.362816591551    4.794315153127    0.899272581037
O     -1.931038615123    4.417748984240    1.908284666210
O     -2.007708428203    5.083919195057   -0.245504895923
Pd     0.977755738156    3.168551292281    0.351313247305
C     -0.576488456969    2.664193723649   -2.023823050422
O      0.407573417708    3.376679441321   -1.638576321132
O     -1.108423929533    1.738158272672   -1.385206104512
C     -1.125840675338    2.994735415481   -3.429986769584
H     -2.217950436643    2.874780543702   -3.371334063762
N     -0.888087347148    4.384094212066   -3.757876143270
C     -1.897097421572    5.311890258021   -3.726539136665
O     -3.077855557686    5.008358477096   -3.654681860242
O      0.059432100422    0.098700927845    0.172934806091
H     -0.389864511232    0.867746810465   -0.335351042308
C      0.763155977378    2.802991512418    2.769726752727
C      1.338406190872    1.619764561533    3.292743486664
C      2.725715895525    1.572223229388    3.508454411211
C      3.505971853299    2.708597627108    3.199514852492
C      2.942329922060    3.871874095887    2.698517420567
H     -0.326316784477    2.890869866949    2.728538939491
H      4.585592198998    2.666816096712    3.367733926300
H      3.570383227803    4.742423044128    2.491823520558
C      0.454684155935    0.447509792514    3.633283829056
H      0.743105680471   -0.454648122998    3.069283889767
H      0.526453073206    0.188692745203    4.703528886712
H     -0.597726163007    0.659256350393    3.401445925530
C      3.378239937070    0.334741260988    4.070310714667
H      2.965166138110    0.073516169900    5.059292363247
H      3.208332834602   -0.538886205017    3.418811245725
H      4.463903472874    0.466857131155    4.181692035593
C     -3.440125947848    4.881695920821   -0.281899617655
H     -3.668220123741    4.758369494187   -1.348707048961
H     -3.675645469896    3.953733474432    0.259153280709
C     -4.189986285626    6.064019177233    0.308851122561
H     -3.927085893371    6.997406647153   -0.213644829177
H     -5.274715471650    5.906925187153    0.194321954722
H     -3.970999978118    6.179089136542    1.380611647392
C     -1.439343599768    6.759561195188   -3.766081706915
H     -2.192098666603    7.356941974782   -4.297247660433
H     -1.380649445686    7.129637040844   -2.729199314737
H     -0.455609196133    6.890142963360   -4.241318775041
C     -0.579609671251    2.011388404377   -4.471325800859
C      0.011383456274    2.461458877791   -5.659283313536
C      0.485230583638    1.552379466788   -6.611348096916
C      0.372629194296    0.178326817384   -6.390515114967
C     -0.220814769342   -0.279906681723   -5.209458323680
C     -0.693859388344    0.626351028848   -4.258467074918
H      0.088679937352    3.533828399869   -5.846040282588
H      0.941570200402    1.924563449013   -7.532638944127
H      0.740953268032   -0.532408354561   -7.134913098496
H     -0.320731576028   -1.353405177720   -5.027523778835
H     -1.154159672881    0.265194342814   -3.336792623399
N      2.037281834337    1.256651532881   -0.059161762558
C      1.369737537497    0.113225157650    0.073910341628
C      2.043995490034   -1.150936512746    0.144786195816
C      3.402669446414   -1.196039839765    0.004628297519
C      4.135989973617    0.005904281212   -0.223702779251
C      3.400377577318    1.231577008207   -0.257475175131
C      5.539805358355    0.025556590797   -0.423235279086
C      6.202790702856    1.214102105614   -0.660081870144
C      5.473287769184    2.424286965069   -0.706491001187
C      4.104857953599    2.436594971077   -0.507606380477
H      1.432710195590   -2.043619665966    0.282028900716
H      3.936289776667   -2.149901417832    0.043256132424
H      6.087121157355   -0.920629167717   -0.393022316002
H      7.283588874056    1.221460625933   -0.818725925779
H      5.996347464396    3.362715053691   -0.907498370151
H      3.539784814997    3.369507527012   -0.550993246873
