77

C      1.644283839628    4.008930045275    2.250031694012
H      0.493894568202    4.351141992000   -3.873107433042
C      0.950612004723    5.284910912788    1.773049744187
H      0.271447274375    5.660927634990    2.555339628860
H      1.705800476987    6.057952001761    1.571114688663
C      0.198886912405    4.911978902995    0.496584461796
H      0.456942020200    5.489555982510   -0.398679978287
C     -1.274700129216    4.729409618757    0.650442052674
O     -1.819531336255    4.428236372452    1.697366605658
O     -1.937416041086    4.920534310821   -0.503871082335
Pd     1.004170275145    3.045548846067    0.204562330512
C     -0.488775783777    2.538850532592   -2.218488102965
O     -1.144657684884    1.721850084732   -1.541589205047
O      0.551641385680    3.162791793028   -1.822763478898
C     -0.910997114616    2.798465793418   -3.670770513263
H     -2.008275893360    2.822783925051   -3.700577320588
N     -0.459948414409    4.105437631451   -4.113489567356
C     -1.323374362547    5.093329085625   -4.489377945680
O     -2.525955725410    4.913087696891   -4.621673620918
O     -0.076502338831   -0.022446193132   -0.043816715427
H     -0.479223811040    0.792119387370   -0.527803105570
C      0.859915556183    2.884148522325    2.616881708350
C      1.439449200562    1.729396076943    3.202365130984
C      2.827097061857    1.688752706772    3.406826113995
C      3.607700325017    2.801342453142    3.017830937705
C      3.044666030644    3.931840649592    2.446223939273
H     -0.229574133013    2.980806641344    2.599900843623
H      4.688526071712    2.767203998965    3.182720233799
H      3.673339229431    4.784873658085    2.177369088213
C      0.555420104840    0.580210999049    3.613222516580
H      0.842992225103   -0.353876785423    3.102474209633
H      0.630025921356    0.382154424309    4.696139860559
H     -0.497923658576    0.780244263200    3.374242706938
C      3.482405984426    0.484646885969    4.034125579770
H      3.063785398639    0.269104444853    5.031539143051
H      3.325293845289   -0.421053684457    3.424463324861
H      4.566324328356    0.629604228845    4.147726215571
C     -3.355286542324    4.644002122779   -0.526360621171
H     -3.473840193833    3.585102298871   -0.810952653588
H     -3.751861568389    4.769001541982    0.490975669224
C     -4.025684248877    5.569166422762   -1.522046181116
H     -3.632425149556    5.430713607583   -2.540457807351
H     -5.107224477772    5.358701995627   -1.543436709218
H     -3.891242227375    6.622524001729   -1.227823894799
C     -0.689281818260    6.456401550204   -4.716565666215
H     -1.188503798910    6.941102524126   -5.566619380190
H     -0.867830367171    7.080304882136   -3.825551435081
H      0.394360806896    6.408962801404   -4.901017450285
C     -0.394079860476    1.687609986507   -4.616947911522
H     -0.713860820772    1.973600837190   -5.634515971130
H      0.710413910567    1.725470306910   -4.618763856665
C     -0.849728255439    0.243756881781   -4.334002959287
H     -0.481967823682   -0.044248454729   -3.333961617555
C     -0.215304571999   -0.706964855319   -5.358360772482
H      0.884713759011   -0.630699136432   -5.357149193564
H     -0.478723422211   -1.755490603211   -5.144594537777
H     -0.563126008630   -0.478796367884   -6.380925322685
C     -2.377036322796    0.101133652471   -4.316882478130
H     -2.668930999633   -0.954391236582   -4.191605700305
H     -2.822399632967    0.665669278515   -3.485053218622
H     -2.822921381132    0.460378615627   -5.260859665233
N      1.949264876894    1.073424797902   -0.044918950736
C      1.235955534683   -0.050380285683   -0.023739786314
C      1.874045813297   -1.345620761162    0.049259919975
C      3.298793390764   -1.402703894660    0.050523840871
C      4.016122698958   -0.171364958968   -0.027992766983
C      3.316426629683    1.004323493633   -0.070055959667
C      1.115908185094   -2.541029972804    0.104154867024
C      1.756180281436   -3.764603454465    0.172587586473
C      3.169721729083   -3.828126617286    0.180270725197
C      3.927551500308   -2.673628294246    0.118039610983
H      0.027660558105   -2.469775800179    0.089844799477
H      1.171857398070   -4.686765416846    0.215864098087
H      3.665351027883   -4.801103767351    0.231761780904
H      5.019363635505   -2.725550789830    0.118198794067
H      5.107339153961   -0.165451710468   -0.051838613254
H      3.830233918532    1.966532478652   -0.119863801791
