71

C      1.602384584259    3.979249033833    2.248344646140
H      0.506577232491    4.328665588091   -3.773075621963
C      0.926590665211    5.267310233223    1.769117719273
H      0.234759009591    5.641142391923    2.540966393941
H      1.691815298548    6.035507554688    1.588582887804
C      0.198768814513    4.910615870542    0.474667141236
H      0.468868045202    5.499642317911   -0.409732342817
C     -1.277479007067    4.714795764805    0.600148846196
O     -1.838192402415    4.413670032313    1.638003963135
O     -1.920063503159    4.895748813319   -0.566471418344
Pd     1.040279529582    3.066519709725    0.185481417547
C     -0.389791914083    2.459735265928   -2.251395173684
O     -0.996698466033    1.606156279274   -1.575733847435
O      0.603576328355    3.152853525692   -1.843808437020
C     -0.833677868595    2.713775598888   -3.700861103603
H     -1.933154416436    2.726845623691   -3.702296649049
N     -0.402093172693    4.037375809220   -4.116282330862
C     -1.286183565266    5.002441769222   -4.508837587604
O     -2.468950363523    4.775285323089   -4.721596238153
O      0.040560274570   -0.016881054481    0.059804966255
H     -0.361867981085    0.750874748047   -0.504181560870
C      0.801419355488    2.865155237849    2.613418514725
C      1.357533635305    1.706054635213    3.209747255892
C      2.744459761249    1.646854683292    3.422350011721
C      3.544505624754    2.745745866528    3.033174334451
C      3.000844877415    3.883826813109    2.456856801233
H     -0.286243661134    2.971227544093    2.572844620466
H      4.623956687949    2.694789633972    3.201528713167
H      3.643605086050    4.727524888242    2.191768251529
C      0.452081358557    0.572942595083    3.620858436127
H      0.670143464175   -0.349727426886    3.056944610250
H      0.573160473671    0.326894711098    4.688975315952
H     -0.603167485472    0.821969203535    3.444393731148
C      3.377603199477    0.439017508431    4.065182715972
H      2.997336778466    0.282474399947    5.089030088685
H      3.150139790560   -0.482231398720    3.503725971635
H      4.470795225697    0.538902174866    4.122833167431
C     -3.339009637179    4.620717336497   -0.606173582420
H     -3.456667077477    3.555626071973   -0.867239902901
H     -3.751245795833    4.769596124458    0.401599827733
C     -3.992627798309    5.523614102092   -1.632609022187
H     -3.593107560381    5.355453998294   -2.643989112120
H     -5.075245519937    5.319773077170   -1.658180817372
H     -3.854030424971    6.583397147700   -1.364876977148
C     -0.701684290409    6.399315502504   -4.642210250761
H     -1.195330976495    6.911878844419   -5.478775494270
H     -0.927787137151    6.963866129585   -3.722650425438
H      0.387796988699    6.401726398456   -4.795798322696
C     -0.380662073354    1.575910249614   -4.690772164248
C      1.150046961916    1.413670957257   -4.671185802132
H      1.465637526480    0.668026509397   -5.418800121246
H      1.659552478516    2.360125592344   -4.914010661019
H      1.515810892307    1.074307909027   -3.688924482097
C     -1.051323472266    0.243189993309   -4.309337560028
H     -0.758972358553   -0.099281034725   -3.307748611636
H     -2.149282855486    0.335806389247   -4.317944756795
H     -0.774034420563   -0.536206469876   -5.037856990806
C     -0.835604475131    1.966288401741   -6.110192648226
H     -1.920136813067    2.151535250394   -6.146084780365
H     -0.329916014104    2.878250349776   -6.460145171306
H     -0.600060600153    1.155210721065   -6.818153250573
N      2.056414524892    1.109351705233   -0.033720210726
C      1.346807709272   -0.029676086104    0.081129980277
C      2.038012169778   -1.262445809050    0.269405653011
C      3.422854531478   -1.294052727689    0.258112415869
C      4.120596866422   -0.091237427908    0.071334417195
C      3.401632736065    1.087201048300   -0.064539263831
H      3.954295359877   -2.237946676857    0.384877557184
H      3.911556362329    2.044516705245   -0.185079543040
Cl     1.119236269437   -2.714672820867    0.506382300033
Cl     5.862786988963   -0.068959558532    0.036454543019
