75

C      1.635804471021    3.906757524998    2.399146505267
H      0.026454549163    4.705989302206   -3.673828443171
C      0.991812702314    5.240747367955    2.015078992530
H      0.336981869512    5.591834204108    2.829040455381
H      1.777742194207    5.992888036173    1.855588844375
C      0.212790700871    4.985851815555    0.725548301440
H      0.489810982330    5.610205203710   -0.132199599689
C     -1.267092532606    4.871650788859    0.882772403746
O     -1.824644408738    4.539511016173    1.913537510840
O     -1.928398880104    5.166943906705   -0.250556252255
Pd     0.978313159619    3.130151897495    0.300861331001
C     -0.624014667233    2.657193177135   -2.050873324607
O      0.397587588138    3.331389793343   -1.683654130823
O     -1.170972597148    1.747887108565   -1.399718239793
C     -1.176306813596    2.999120277406   -3.444852210135
H     -2.266289048854    2.879539566200   -3.400046488437
N     -0.932800953274    4.392269142098   -3.773871153558
C     -1.921929708240    5.335102240863   -3.733185159798
O     -3.107532971490    5.056140906367   -3.623496383239
O     -0.019694583931    0.038546890272    0.101043105062
H     -0.460674955378    0.822406057088   -0.390352183820
C      0.804995675922    2.797821199544    2.707968958013
C      1.333786634717    1.583651833029    3.212550576988
C      2.721605122090    1.467143442616    3.391101715948
C      3.549299824919    2.565556595578    3.065192258548
C      3.033018284697    3.755688183578    2.576174906928
H     -0.279298986701    2.941574620441    2.700134868787
H      4.629128028090    2.470587121934    3.211009980666
H      3.697509303069    4.595359794615    2.355382456146
C      0.400347980063    0.450116031072    3.552933511207
H      0.543596668472   -0.408429859721    2.875288056692
H      0.564706599857    0.082698039935    4.579321005354
H     -0.649881354388    0.759684297436    3.462938522770
C      3.328676429934    0.194384382488    3.924578867078
H      2.934161244143   -0.054817335736    4.924157436126
H      3.095702490796   -0.663216742912    3.271472486092
H      4.422569969253    0.271651054629    4.003357848106
C     -3.367880205785    5.020602354540   -0.249272844392
H     -3.626089451399    4.883222053958   -1.307477748006
H     -3.626304947076    4.114832652974    0.318320617869
C     -4.056333991760    6.244091823417    0.332525220869
H     -3.770621191669    7.154913680223   -0.217167545069
H     -5.148924312531    6.127473831294    0.247823347057
H     -3.806184747933    6.373789358691    1.395813157217
C     -1.441795487904    6.774824836388   -3.813599856633
H     -2.202036968840    7.375809124298   -4.329945547101
H     -1.341166877210    7.162139624526   -2.786273269903
H     -0.472820145277    6.880428651039   -4.324381626122
C     -0.589243945783    2.069132313363   -4.529859985560
H     -1.019424168190    2.397049137531   -5.492779147988
H      0.497610751321    2.259105017972   -4.596330122560
C     -0.825206553800    0.556570665742   -4.359229422883
H     -0.348135082435    0.238688932462   -3.415635267751
C     -0.147731628951   -0.205469978568   -5.506220623271
H      0.929210194827    0.023772038833   -5.566857393472
H     -0.252305419982   -1.294931919259   -5.376835626111
H     -0.598518342181    0.057990673649   -6.478902601943
C     -2.314065881853    0.200550923125   -4.259071114580
H     -2.451748460733   -0.892180784415   -4.215186914646
H     -2.766310479843    0.624939667041   -3.351207538647
H     -2.873507936882    0.571855212841   -5.135669861793
N      1.971017811204    1.199780422553   -0.082107992560
C      1.289874619318    0.051379588736    0.008036040106
C      1.982389273617   -1.205339559816    0.040417491038
C      3.363231081685   -1.209425984225   -0.106403747643
C      4.043871161227    0.014136627107   -0.263271892475
C      3.316736664548    1.186947222732   -0.238217761097
H      3.920580701034   -2.146749542403   -0.113952728164
H      5.126603166532    0.038098170664   -0.395488129519
H      3.797789079201    2.162346550215   -0.334701918133
O      1.197586318084   -2.290151000914    0.203085430866
C      1.794421556943   -3.567814390021    0.211091418016
H      2.517512543867   -3.678506087419    1.039942159348
H      0.980488489123   -4.291485459152    0.348504553490
H      2.310438019688   -3.783858416442   -0.742039768872
