74

C      1.611868532728    4.027471009814    2.281167010900
H      0.518086286616    4.329345885859   -3.868514375201
C      0.933685831899    5.309676136850    1.797368900770
H      0.251095162268    5.691953099560    2.573623481674
H      1.697493200728    6.075839004161    1.601665216169
C      0.189719719843    4.942695216685    0.514547720401
H      0.459271778755    5.518595374934   -0.378435228343
C     -1.286448110198    4.770064823062    0.655668816184
O     -1.842399307731    4.473596351791    1.698091657780
O     -1.937389376397    4.964660164008   -0.504253824815
Pd     0.988027591852    3.072780679262    0.231435298688
C     -0.495670231159    2.559034574491   -2.188114029099
O     -1.163298445213    1.764748078731   -1.499417231725
O      0.551152532308    3.180490256480   -1.798850272162
C     -0.903680002459    2.794904317540   -3.649003296953
H     -2.000332976560    2.830006278334   -3.687870942883
N     -0.435424043391    4.088021511783   -4.114629028418
C     -1.285191531105    5.077029476016   -4.517584004054
O     -2.488581694554    4.907317550072   -4.656296168785
O     -0.106578682077    0.004511678513    0.037644719138
H     -0.501820297419    0.808045414436   -0.450434420591
C      0.813523324155    2.911298596415    2.644080933877
C      1.376287626634    1.751432526242    3.235024179894
C      2.762164975802    1.696498341534    3.448612281480
C      3.557408182895    2.800009631066    3.063828810555
C      3.010010225662    3.936052863500    2.487470014110
H     -0.274744740425    3.018132796060    2.616291282759
H      4.636603818428    2.755275920646    3.237133617905
H      3.649351604074    4.782445816880    2.222710282741
C      0.477086886396    0.612480974724    3.641180893477
H      0.755983992792   -0.323585490709    3.129454303613
H      0.544479176255    0.412844915486    4.724284113552
H     -0.572503386922    0.824362231038    3.396592382159
C      3.399619835616    0.485860834060    4.082066948245
H      2.976502461689    0.280331227081    5.079727788950
H      3.228963438134   -0.420115288511    3.476293340318
H      4.485365525902    0.615726535393    4.197375744921
C     -3.355760452402    4.692428090067   -0.539209640834
H     -3.474936872745    3.628039769131   -0.802160357165
H     -3.765315598044    4.840821025290    0.469893957517
C     -4.008812649507    5.598863952885   -1.563140608682
H     -3.603178554523    5.437690338704   -2.573354672749
H     -5.090903518575    5.392593693653   -1.594346214604
H     -3.873446299892    6.657713076411   -1.289767254861
C     -0.634587470595    6.428374846162   -4.768055716777
H     -1.117302616529    6.897187951132   -5.636410078649
H     -0.819665036998    7.075394644257   -3.895051573411
H      0.451005220777    6.366547569883   -4.936178260505
C     -0.391765788325    1.659781201373   -4.568507515476
H     -0.702039397588    1.926989909729   -5.594138544009
H      0.713112317543    1.686882105631   -4.563763515193
C     -0.863552963282    0.226880811857   -4.257498370292
H     -0.506479669266   -0.042375042556   -3.248434015072
C     -0.231140741870   -0.752312251579   -5.255967086943
H      0.869648569675   -0.686725294815   -5.248323239438
H     -0.506762454313   -1.793280910275   -5.021438127683
H     -0.568979171581   -0.543370304671   -6.285971392302
C     -2.392242485271    0.099407798091   -4.248509327446
H     -2.695330170827   -0.950218158679   -4.102216075533
H     -2.837272802263    0.686000621138   -3.431957391537
H     -2.828055596275    0.442497857227   -5.203165694127
N      1.935384513241    1.100207352675   -0.011205804239
C      1.210665787382   -0.033734179705    0.021421863115
C      1.857152512212   -1.291864199722    0.068419918889
C      3.238260008632   -1.348304301218    0.030501334504
C      4.000634214858   -0.163549335419   -0.056959785893
C      3.282314020929    1.026791309458   -0.068636555354
H      1.236243861956   -2.187690573366    0.109632283636
H      3.741849038093   -2.319613036247    0.052681371578
H      3.804234782080    1.986531168706   -0.117515769716
C      5.505537536590   -0.185630801703   -0.135295488269
H      5.922219577129    0.832408659878   -0.147604436013
H      5.947294529136   -0.719318865963    0.722627848542
H      5.853271691280   -0.698767759100   -1.047728806245
