71

C      1.371184700616    2.819982475274    2.188081772848
H     -0.387969496074    4.455973563687   -4.567748165399
C     -0.610684855562    4.656780344999    0.592586186835
H     -1.177853628238    4.735954180689   -0.341064770309
H     -1.145151324826    4.327264644286    1.487147264110
C      0.640774436620    5.224191137241    0.719734286749
H      1.101958228893    5.339906801664    1.702326338822
C      1.302373162810    6.007838115259   -0.373484082099
O      0.769054797664    6.432468341734   -1.368279530493
O      2.600611006387    6.214997470336   -0.077641491914
Pd     0.914266828590    3.070407040330    0.252303834678
C     -0.596980130733    2.492880786602   -2.223822677058
O      0.334886537113    3.250477743021   -1.826493712743
O     -1.012830583166    1.461218087167   -1.641362102166
C     -1.312458392096    2.835289298950   -3.545604170614
H     -2.378018419178    2.685812011951   -3.315663675881
N     -1.156337401641    4.214812831393   -3.954160279972
C     -1.773818366919    5.222725784417   -3.266518813333
O     -2.525583424961    4.996822628310   -2.327042123131
O      0.150572550016   -0.003780982729   -0.023610558376
H     -0.333454344029    0.708985171845   -0.634929559291
C      0.507860172791    2.042375062494    2.971128591010
C      0.770230483796    1.784246449858    4.327582964007
C      1.937867500429    2.319061367889    4.919871965635
C      2.796627313925    3.091017493813    4.126947518398
C      2.525641727439    3.346709865972    2.776801375831
H     -0.388531968210    1.601789496242    2.523972386473
H      3.703272896172    3.508761773765    4.576277121152
H      3.221871193069    3.962527348235    2.200045984192
C     -0.185690865407    0.940345537282    5.135294461916
H      0.310526136571    0.045220178277    5.548228780681
H     -0.591756475156    1.496940505544    5.997524027674
H     -1.034926745688    0.601071301513    4.524765061752
C      2.255036853081    2.064174762837    6.373353004203
H      1.459799616868    2.442105427288    7.038891709343
H      2.354093353089    0.986089637286    6.588079736423
H      3.196239772393    2.550862360220    6.668604178698
C      3.365269167149    6.980635734884   -1.025061617041
H      3.356500253463    6.456005415488   -1.994503365826
H      2.867640352970    7.951713336885   -1.179976859226
C      4.768004399626    7.143193432747   -0.478369621236
H      5.256647774969    6.166224712689   -0.340721609300
H      5.376534149507    7.736076503229   -1.178786575773
H      4.755144789895    7.662322099489    0.492321107699
C     -1.464549943044    6.629670549183   -3.740776382392
H     -1.153647606061    6.668216017907   -4.795904203020
H     -2.357531061344    7.252469328025   -3.595649788523
H     -0.657090120961    7.029712418339   -3.109786669417
C     -0.921160501626    1.837410168913   -4.663732583796
H     -1.076708975424    0.843776364769   -4.212204273495
C     -1.852417436242    1.962047654942   -5.875503553823
H     -1.606431252987    1.206654885553   -6.639251033852
H     -2.905563110624    1.820081714085   -5.585751099822
H     -1.769500310629    2.955312758080   -6.345943693769
C      0.555835403195    1.937840923404   -5.072005663547
H      0.784565612111    2.896462760461   -5.570464642443
H      1.230088872631    1.843145106166   -4.206900010538
H      0.811963086373    1.141810958790   -5.789308001614
N      2.051202964412    1.296307270491   -0.093854552797
C      1.456777367017    0.084450484080   -0.060078763616
C      2.230613232455   -1.114274869857   -0.040191395462
C      3.610736022703   -0.991649465952   -0.105643509156
C      4.214799425589    0.275281070285   -0.188600642262
C      3.397867474329    1.389442473599   -0.171112597086
H      4.229871209078   -1.893414576101   -0.102700564215
H      5.297837568687    0.388994039001   -0.251238218968
H      3.810950336030    2.399599456121   -0.204380740162
C      1.515814775930   -2.433791430224    0.031628086962
H      0.914347229076   -2.507802981219    0.952363372860
H      0.807556115675   -2.541973900293   -0.805491132317
H      2.226191995684   -3.272779176117    0.007965663111
