77

C      1.617717354465    4.038908363912    2.198557153386
H      0.478917828590    4.359681706219   -3.749680827423
C      0.899462073656    5.291242837003    1.694283407924
H      0.207342239490    5.666652269344    2.465194368792
H      1.639067207010    6.076250957611    1.481930296449
C      0.164523294625    4.877676086148    0.420908695572
H      0.416165306701    5.442535171992   -0.484192315097
C     -1.306030748695    4.662121433752    0.567433044521
O     -1.851028332898    4.371438099833    1.616795854429
O     -1.962814435524    4.810773148257   -0.596775633717
Pd     1.018163791678    3.029643557098    0.170872535182
C     -0.427310333117    2.463587040626   -2.273418830440
O     -1.057794821896    1.622315963913   -1.603884132604
O      0.593935525330    3.113081838877   -1.864484689257
C     -0.873665573478    2.754807751734   -3.714869906496
H     -1.972806348678    2.775926843997   -3.712496458823
N     -0.432557892632    4.084764773862   -4.099303885571
C     -1.309457183498    5.065363935768   -4.468557874749
O     -2.493093363520    4.851584663178   -4.690239171080
O      0.040823375068   -0.099194902790   -0.119641802834
H     -0.374814596049    0.714491622411   -0.599936193900
C      0.854590405895    2.909865391089    2.596539862181
C      1.455708190977    1.782783511516    3.212116642069
C      2.845106557009    1.771889856683    3.410926342248
C      3.606655784109    2.883538675726    2.982846872915
C      3.020636393567    3.989618852349    2.386614730557
H     -0.236487977221    2.984589929933    2.574778331392
H      4.690258175715    2.866522899136    3.128494731830
H      3.634921007510    4.842740435663    2.087089226245
C      0.593284570477    0.629972474513    3.658080889832
H      0.892622002284   -0.311800930823    3.168218725569
H      0.678429758803    0.459617487881    4.744836395835
H     -0.465095311362    0.806840030328    3.422602577904
C      3.523037912788    0.599037084076    4.072835960504
H      3.123067777945    0.419483013593    5.085043949342
H      3.363670335982   -0.332016840144    3.503165447750
H      4.607029733561    0.758732482200    4.161868743905
C     -3.374149028252    4.499458089149   -0.627654054583
H     -3.463645112741    3.444969055204   -0.937796847557
H     -3.773423474693    4.590386368988    0.391995123124
C     -4.069573481450    5.429630055160   -1.601471956630
H     -3.673392094224    5.325463526030   -2.622808821045
H     -5.144987508696    5.190388804639   -1.627951993338
H     -3.963937061451    6.479058331610   -1.282633406007
C     -0.715567831108    6.461378103766   -4.564676209038
H     -1.200781356351    6.997130388595   -5.391628430340
H     -0.944484533598    7.004913016989   -3.633246617591
H      0.374869363122    6.460835519787   -4.711277753807
C     -0.432019384045    1.637764888636   -4.732593376746
C      1.099535183903    1.483074478948   -4.743502962281
H      1.404272043337    0.748296839491   -5.506322892171
H      1.599237395672    2.435068689212   -4.984513191234
H      1.486038844769    1.134956402313   -3.772507769074
C     -1.088653295422    0.294937315908   -4.362284293137
H     -0.772196257575   -0.065663555232   -3.374268278194
H     -2.186906999307    0.382096748122   -4.344079533213
H     -0.824028843473   -0.469137965502   -5.111522397360
C     -0.914138205283    2.051249063521   -6.136303463950
H     -2.001029883838    2.225056219102   -6.151431093080
H     -0.424229308746    2.976052114164   -6.474924037161
H     -0.680686107148    1.257836698862   -6.864786467625
N      2.032107869191    1.077000906308   -0.024635794996
C      1.345232301696   -0.090717387794   -0.033697525222
C      2.027138659710   -1.330372138786    0.074954708370
C      3.405323125577   -1.348228600126    0.145895124331
C      4.114752923816   -0.128436382607    0.114963652595
C      3.372821035570    1.047859809366    0.030744272767
H      1.429350698623   -2.242448929370    0.075205835815
H      3.950995819689   -2.290598477340    0.215463392331
H      3.891624845625    2.008556762515    0.019501607728
C      5.594803075546   -0.024541003636    0.188058382996
O      6.210165246895    1.017550195865    0.218601161276
O      6.188287347031   -1.233572479122    0.223286336248
C      7.614133595761   -1.235720114732    0.292175167256
H      7.963117495572   -0.720659638532    1.200038871262
H      7.917873229682   -2.289515024517    0.311186491370
H      8.048253634117   -0.728511052929   -0.582627182520
