31

C     -4.239112736497    0.137028032469   -0.001343921098
C     -2.781024600165   -0.005108753925   -0.000818774949
H     -2.215066673283    0.931634100262   -0.001464625736
C     -2.069913637116   -1.151566527732    0.000331503179
H     -2.543420383024   -2.135851668888    0.001010399424
C     -0.594212490615   -1.220787771482    0.000778780432
O      0.029428580751   -2.259907087336    0.001754707078
O      0.002313382759   -0.006996843903   -0.000012891841
C     -4.795691658050    1.430686484253   -0.002778998511
C     -6.175881882591    1.659295558482   -0.003410415644
C     -7.052148674194    0.548944327639   -0.002559454746
C     -6.501227253622   -0.743367896966   -0.001108535794
C     -5.126050428212   -0.955738545817   -0.000503839919
H     -4.118941990685    2.290585892584   -0.003439923251
H     -7.174590893497   -1.605237269964   -0.000436286793
H     -4.741504468681   -1.977633285556    0.000630923046
C     -6.716662672803    3.067945691147   -0.004978479249
H     -7.347987262250    3.260235314321   -0.889198498135
H     -7.348535850055    3.261996185900    0.878462499161
H     -5.904704339323    3.809359362159   -0.005466156835
C     -8.546835707839    0.743652673124   -0.003181738992
H     -8.882773516365    1.314164665515    0.879696523067
H     -8.882254494831    1.312564114520   -0.887290261531
H     -9.077337117756   -0.219375864256   -0.002463712500
C      1.436308316375    0.002718519263    0.000331638183
H      1.800261837069   -0.545178951219    0.885237242986
H      1.800684052893   -0.545905890673   -0.883956666592
C      1.897088268361    1.445862569478   -0.000159445846
H      1.530540065831    1.977661117542    0.891657873757
H      2.997425377773    1.490323597961   -0.000003863460
H      1.530826186751    1.976959981898   -0.892511552024
