74

C      1.578765363897    4.031365094272    2.276480056296
H      0.543787960029    4.325971424556   -3.723560031017
C      0.872773600281    5.291175192596    1.774130476526
H      0.163976842795    5.655877791021    2.535125184198
H      1.617256821335    6.079018523017    1.590360773664
C      0.165370592335    4.897453519664    0.478624689193
H      0.437761130169    5.475801705495   -0.411912636045
C     -1.308034458687    4.685401097130    0.590593189318
O     -1.876773564556    4.380120260180    1.623335456803
O     -1.940807345797    4.854820445915   -0.584176641819
Pd     1.018925304582    3.048008626561    0.221760283469
C     -0.410092850137    2.483385858187   -2.220372507952
O     -1.057220727633    1.667687552253   -1.539235585003
O      0.613366921686    3.136133093742   -1.815500557244
C     -0.831627877641    2.742561162132   -3.676392862750
H     -1.930138068219    2.782492969287   -3.690625011697
N     -0.361343229198    4.053658777666   -4.091465020166
C     -1.214099238961    5.035920900170   -4.508842174732
O     -2.395922447698    4.834783109410   -4.751350284296
O      0.003444754440   -0.042549765555    0.047394307093
H     -0.400028459798    0.744097291835   -0.461716603168
C      0.806616911391    2.894622233965    2.632153407386
C      1.391941330656    1.754883242215    3.240081899789
C      2.775024630305    1.740870322260    3.477321764252
C      3.544952432413    2.864386618711    3.098997658464
C      2.975244385283    3.981147161715    2.506801205974
H     -0.283628054720    2.969599427121    2.584728386759
H      4.621885940485    2.851517605411    3.290634760740
H      3.594586726696    4.844071224820    2.247951135641
C      0.518677847900    0.593450587399    3.639044062911
H      0.834928121714   -0.338360051950    3.141600373735
H      0.570695245339    0.405388454358    4.725090203042
H     -0.531654460958    0.772063862438    3.372219352030
C      3.435795509076    0.552805418918    4.129329393210
H      3.001225409724    0.340848144071    5.120691697640
H      3.301959461863   -0.361134035171    3.526275790644
H      4.515150514771    0.714610323613    4.262753744266
C     -3.350121713832    4.542041165617   -0.646287211317
H     -3.433253856005    3.478646320844   -0.926650752317
H     -3.779426060507    4.663234821137    0.358093673957
C     -4.015084807991    5.444179508845   -1.666557935092
H     -3.591766293209    5.310089904401   -2.673468109254
H     -5.090124644757    5.207006538469   -1.716136085089
H     -3.914805379907    6.502415493259   -1.376328486925
C     -0.595729851772    6.419439322455   -4.632735845385
H     -1.051400417709    6.936114444430   -5.488212304247
H     -0.839277858591    6.995795964188   -3.725064683037
H      0.497889798301    6.397788406621   -4.751409538418
C     -0.395968701067    1.589785973143   -4.655826516242
C      1.131307515158    1.398601352544   -4.629154844124
H      1.434906606392    0.640490331642   -5.369381573042
H      1.658437866468    2.333534437167   -4.878805188843
H      1.487272892720    1.062460185977   -3.642422473761
C     -1.092850587905    0.273311850650   -4.264975384607
H     -0.812015562222   -0.063418441722   -3.258049836701
H     -2.188888162490    0.385951673540   -4.280118270090
H     -0.826164413178   -0.518558467625   -4.984135679936
C     -0.837734298459    1.976880306412   -6.080216476956
H     -1.918708947515    2.180372024375   -6.122875089251
H     -0.315226634981    2.877997251170   -6.433789397756
H     -0.612084506600    1.157173732350   -6.781633106118
N      2.019467625388    1.098583634316    0.006794911024
C      1.321169079979   -0.051870796118    0.045250983144
C      1.996696852421   -1.293522407641    0.113993825239
C      3.379197833355   -1.317285529115    0.092011572861
C      4.114331676709   -0.115864510723   -0.000961236828
C      3.368273207386    1.056920942431   -0.035104412088
H      1.396889187913   -2.203464422885    0.158524737563
H      3.905423674078   -2.275980159550    0.131068394337
H      3.867685317442    2.028271534893   -0.090012796605
C      5.620095260601   -0.103113011135   -0.062970130590
H      6.012839739640    0.924326230152   -0.080043052487
H      6.064853452121   -0.618773365731    0.804361898066
H      5.989604342576   -0.615765316726   -0.967080718499
