18

C      0.007690501239    0.010126950644    0.000044447661
H     -0.539123129967   -0.936390551120    0.000080105309
C      1.405433797216    0.010147431567    0.000142997200
C      2.138685388191    1.205355169935    0.000110769945
C      1.441028260009    2.437160864359   -0.000037361627
C      0.038898412186    2.422965022238   -0.000151832313
C     -0.679937259010    1.224234466384   -0.000108857251
H      1.944456289243   -0.941944164867    0.000255258356
H     -0.500452874029    3.374870465916   -0.000276019198
H     -1.772906560762    1.242038806351   -0.000199043777
C      3.647552148421    1.175834020410    0.000313188017
H      4.066106974267    1.688399684706   -0.882857529643
H      4.065792529473    1.686993634126    0.884462129784
H      4.027838339017    0.143920874044   -0.000424076890
C      2.191654255244    3.746423934273   -0.000097311301
H      2.845984190929    3.842022391156    0.883437459040
H      2.845637022187    3.842110888578   -0.883884132883
H      1.502211422135    4.603239014430    0.000070715479
