62

C      1.573701904979    3.905114294916    2.480258638617
H      0.188622984555    4.602851991105   -3.750307320292
C      0.909867063703    5.223917667335    2.079628114851
H      0.220833857761    5.555161517847    2.873398778655
H      1.681184151908    5.996310413452    1.947690959268
C      0.178581730403    4.953933173329    0.765764423326
H      0.474619532343    5.581096326499   -0.083491545004
C     -1.303807953637    4.817368792923    0.869858613718
O     -1.893771024210    4.471748421486    1.877978108111
O     -1.925160629035    5.109683622099   -0.286134951328
Pd     0.991720491162    3.114229982757    0.362193949777
C     -0.533295985196    2.605492867534   -2.040186625508
O      0.440536384194    3.322888344376   -1.629088188988
O     -1.035191984471    1.632175012540   -1.453814972170
C     -1.093785913956    2.979058479438   -3.416718663013
H     -2.185614271240    2.871092165731   -3.390057158486
N     -0.783191838008    4.326253346009   -3.831207759650
C     -1.728753261609    5.316012663864   -3.819022766702
O     -2.922744715373    5.095521382228   -3.680841122412
O      0.126523948697   -0.041914631934    0.061807068735
H     -0.330555248479    0.730179770614   -0.436844054617
C      0.758865212020    2.777487054744    2.761803754302
C      1.299271949497    1.575582336573    3.282080612277
C      2.683064516606    1.489522044377    3.503824101510
C      3.495763255391    2.605855593729    3.202840640574
C      2.967854114986    3.784901441531    2.698825237253
H     -0.327772859977    2.896770898817    2.720193656660
H      4.572496228640    2.535028081696    3.381842833737
H      3.619625920505    4.639672288458    2.498936404191
C      0.382090970866    0.423466287801    3.601360510026
H      0.617044021997   -0.460574583355    2.985707746108
H      0.475188458146    0.113128161857    4.655732821631
H     -0.667826600596    0.685103776728    3.412133694489
C      3.299449685119    0.229916101671    4.057202372745
H      2.875024580786   -0.029999441443    5.041661150015
H      3.108598387633   -0.631824806388    3.395749130355
H      4.387775080269    0.331667683490    4.175630802557
C     -3.361997445372    4.956695632124   -0.341292559582
H     -3.576792190832    4.821737211989   -1.409504951031
H     -3.639492397565    4.049318098269    0.214970374068
C     -4.077573058386    6.177073572244    0.213705956370
H     -3.772560607121    7.088522782439   -0.324283669737
H     -5.165584768713    6.057116361491    0.085795067079
H     -3.870120471162    6.306887249628    1.286191732874
C     -1.187226138428    6.726619696064   -3.979239461947
H     -1.910153504140    7.322117305552   -4.552778831930
H     -1.097587494419    7.178320180408   -2.977605281068
H     -0.203236991384    6.762019873464   -4.470400713540
H     -0.707319338207    2.237731864616   -4.139348670019
N      2.059788106777    1.221671816804   -0.007206449488
C      1.438598569116    0.024429781226    0.011907878052
C      2.183097967329   -1.179320523781    0.007394773755
C      3.569743014621   -1.152235891797   -0.068538841681
C      4.193193830480    0.113923522859   -0.137526883826
C      3.405954202408    1.250924754879   -0.100916038089
H      1.625263854877   -2.116965328064    0.034255159068
H      5.278444284774    0.205802549354   -0.214650801053
H      3.857977159628    2.245421666347   -0.137259008312
C      4.386938160208   -2.416864202283   -0.099979627963
H      5.113551926417   -2.436411911869    0.729018439771
H      3.754907712213   -3.312944068633   -0.025027295863
H      4.967400599225   -2.483665582169   -1.035102296899
