77

C      1.381035779871    2.799432171770    2.235188414691
H     -0.647190602105    4.511252829544   -4.539810936998
C     -0.572514189433    4.636333977142    0.683311279592
H     -1.196437482035    4.693741001507   -0.215492213979
H     -1.052363992126    4.328707546938    1.615571259014
C      0.686513005663    5.201701320169    0.722174168185
H      1.208234492399    5.335976419238    1.672013994103
C      1.273776943851    5.967734632838   -0.424839076921
O      0.670300546350    6.401007639157   -1.374832697888
O      2.596494415035    6.151857679988   -0.237291144116
Pd     0.926154487534    3.040078709329    0.296755077592
C     -0.624990894554    2.476060360367   -2.140422997317
O      0.339898231545    3.209808162486   -1.781025965188
O     -1.088748141167    1.499840790782   -1.498512799615
C     -1.284668281680    2.763677722627   -3.502658497709
H     -2.327152061535    2.431959179403   -3.390971832340
N     -1.296935458195    4.175353658713   -3.839324569316
C     -1.949012483405    5.084275381516   -3.058822428586
O     -2.582455791557    4.741955613699   -2.067653450740
O      0.028969984135    0.033947057082    0.148062927824
H     -0.429422260507    0.758534245256   -0.474793755287
C      0.486109824775    2.069240594842    3.029139656452
C      0.732770049023    1.827260679841    4.391458220642
C      1.915474902348    2.332082883200    4.979856929264
C      2.804667175015    3.057508133690    4.176782020800
C      2.550493193898    3.296021165358    2.820257018152
H     -0.424400245747    1.653473293713    2.586875069029
H      3.724394333098    3.450048228239    4.622176792912
H      3.275680589430    3.867154192612    2.234683871382
C     -0.256452064742    1.032956596661    5.209384903671
H      0.205198531738    0.127579032619    5.639750188592
H     -0.645366503494    1.618704168653    6.060143219224
H     -1.115026614919    0.714044315631    4.600945735560
C      2.216707358783    2.094248931126    6.439617745155
H      1.432075579183    2.512359482848    7.093638400583
H      2.277059780241    1.017687433239    6.675381180776
H      3.173000288331    2.553401542871    6.730472529680
C      3.292633461276    6.910179375654   -1.242316358650
H      3.225301224139    6.372033165129   -2.202021477915
H      2.778792094545    7.875516499963   -1.377003954654
C      4.726501790025    7.089684937564   -0.789684091470
H      5.230037664840    6.118192381887   -0.667204382895
H      5.284803194119    7.674030134881   -1.537460787810
H      4.772772042456    7.624410584961    0.171421918350
C     -1.828656369321    6.534122096004   -3.487070039532
H     -1.612793721588    6.649532567104   -4.560165313621
H     -2.765980454732    7.051261278899   -3.241449032773
H     -1.015873936334    6.991723745516   -2.903551227202
C     -0.601692474438    1.980585781224   -4.639370176715
H     -1.123744716047    2.244221861231   -5.577879042936
H      0.433634197139    2.355521653537   -4.738389817268
C     -0.562801799506    0.446707476905   -4.508091912124
H     -0.003353920805    0.197812946046   -3.589432074045
C      0.199177192431   -0.153720569434   -5.697206016918
H      1.216075964775    0.263951943005   -5.781849004532
H      0.292998050021   -1.247092105341   -5.597873694944
H     -0.324313188084    0.049126278540   -6.647844030377
C     -1.960156885119   -0.172120719363   -4.374581868497
H     -1.898534466605   -1.272516455077   -4.360038085441
H     -2.449108511200    0.142994623271   -3.441751849161
H     -2.605620210104    0.112514161415   -5.224336213587
N      1.993815102182    1.207886532374   -0.044501589672
C      1.332291062472    0.055829493335    0.098332432753
C      2.035460063155   -1.189860294167    0.219000173252
C      3.397116562415   -1.209733343842    0.123076949382
C      4.116915227577    0.001194553459   -0.107184068024
C      3.364954156905    1.213277135680   -0.187380730447
C      5.525907175223    0.042675367221   -0.254050850592
C      6.179154625800    1.239656802380   -0.477836438160
C      5.432743452994    2.436254581559   -0.561266928903
C      4.056662788149    2.428298198845   -0.417437175684
H      1.437713728607   -2.089752682692    0.366899161614
H      3.948053120753   -2.150787762380    0.205495193204
H      6.086876766237   -0.893605549451   -0.188906477866
H      7.265215922266    1.263540502318   -0.592107117622
H      5.948020205522    3.382761070768   -0.743867166913
H      3.481960110816    3.354476239167   -0.486563948565
