23

N     -0.521874515598    0.851987188116    1.158602436020
C     -0.404875908322    0.378930693986    2.368227820132
O      0.053833111393   -0.767150881443    2.752041655913
H     -0.193792290906   -1.633992528619    1.693647547070
C     -0.580056663014   -1.326114147488   -0.197690964760
O     -0.510342251361   -2.161563270077    0.817761694228
O     -1.033482315594   -1.647719404972   -1.284065148292
C      0.007954551544    0.091176605183    0.030427114711
H     -0.276804041026    0.629882779003   -0.891520312967
C     -0.869143082962    1.294961948172    3.497865334028
H     -0.025002484857    1.492271437243    4.182061050375
H     -1.259626685647    2.244489445706    3.106670939460
H     -1.644943071374    0.786077336127    4.096228474206
C      1.570650687050    0.027084039622    0.042865108820
H      1.852648847420   -0.446073454113    0.998620160355
C      2.141645504437   -0.818432291677   -1.102583277523
H      3.245961166942   -0.781513191865   -1.105404918959
H      1.840784451250   -1.873995162490   -1.022109400497
H      1.789246494505   -0.451590396329   -2.082457603076
C      2.154830299231    1.444663062969    0.015609661534
H      1.955434009819    1.930033369575   -0.957672780291
H      1.694750889182    2.065630891611    0.797360716472
H      3.249483357965    1.433702014989    0.164768553159
