72

C      1.433391121961    2.863294812544    2.206766281884
H     -0.263997668338    4.445605252385   -4.424464184989
C     -0.645969168319    4.607349426306    0.619171246090
H     -1.212076609438    4.664666544738   -0.315764893854
H     -1.169108446575    4.244359612300    1.507204087700
C      0.574517061035    5.237517842903    0.753727479990
H      1.022068536393    5.371501368469    1.739618669239
C      1.196012262010    6.062613722054   -0.330927931044
O      0.655665621653    6.430466804335   -1.344805665232
O      2.464799220386    6.377734629889   -0.005844601551
Pd     0.949036863034    3.100972484946    0.270108608502
C     -0.575280404235    2.500975309479   -2.177500131637
O      0.371287550464    3.257553654777   -1.813910739606
O     -1.050060036704    1.544519225477   -1.520644540450
C     -1.230286991453    2.777884741222   -3.551844536054
H     -2.300967190956    2.586108355954   -3.375203476916
N     -1.116835645012    4.163222468242   -3.954636055316
C     -1.838114018664    5.134695353186   -3.307956610923
O     -2.659553731875    4.861054073371   -2.444806232119
O      0.063622895551    0.118070417192    0.204711553520
H     -0.397119099013    0.804356283512   -0.429648350996
C      0.671025002296    1.967515961268    2.969126299959
C      0.951996291799    1.722178303456    4.324152791157
C      2.036559798817    2.389883543835    4.939005167913
C      2.794533556219    3.280675103658    4.169080802493
C      2.502849426429    3.526014403305    2.821176922219
H     -0.153614840990    1.420421933921    2.503835049114
H      3.635220040396    3.804804447568    4.634806800697
H      3.114383706413    4.245924521906    2.270071251401
C      0.103735978823    0.749152490281    5.106450226507
H      0.706440726837   -0.082034578080    5.511200692229
H     -0.378723990311    1.234541765203    5.972337919039
H     -0.688695229160    0.314972814468    4.480058471430
C      2.371575710504    2.150320791470    6.390925190384
H      1.528079054174    2.408865485047    7.054027634591
H      2.607722045047    1.090152945432    6.586942628722
H      3.239021047524    2.749050784928    6.705472597881
C      3.189008108859    7.196770040522   -0.941056227450
H      3.249001687594    6.665571798991   -1.905089030847
H      2.617109148339    8.121954320839   -1.118365511429
C      4.558558319750    7.478574164991   -0.360006377906
H      5.120904737783    6.546017801330   -0.198125373899
H      5.135301715834    8.112214274650   -1.051510295969
H      4.477486270935    8.004573050551    0.603627444120
C     -1.548693190214    6.558922792528   -3.739840447663
H     -1.196181696716    6.623560954516   -4.780365729143
H     -2.464082902571    7.153444263944   -3.619985803335
H     -0.776390120649    6.968130859985   -3.071784080329
C     -0.737077848609    1.823557700824   -4.643450731259
C     -0.644257621027    2.246229461772   -5.979388067169
C     -0.226357857732    1.368781047012   -6.985172679729
C      0.102200926807    0.047565286686   -6.675912859544
C      0.000149666593   -0.388339908441   -5.351440659843
C     -0.417162170434    0.486938067880   -4.346241873012
H     -0.918867257101    3.268996112187   -6.243183224580
H     -0.163644813853    1.723467371783   -8.017536100325
H      0.429231846109   -0.639276483267   -7.460830264861
H      0.244300734868   -1.422761958087   -5.095023957095
H     -0.510051473092    0.131860082244   -3.319205123861
N      2.030147002599    1.280980435935   -0.107296968882
C      1.369225928604    0.111795898090    0.061113362364
C      2.072205665756   -1.112298485064    0.098877435066
C      3.440335208145   -1.105519133884   -0.103529618496
C      4.098205602706    0.107822141570   -0.353498946141
C      3.367119022260    1.292537586237   -0.346730786524
H      1.501062606591   -2.026862189911    0.259970120123
H      4.002808322468   -2.042744054512   -0.090013943379
H      5.171389028242    0.137374747295   -0.545847854518
C      4.020357753853    2.623205152370   -0.593079593708
H      3.468296244929    3.186923161362   -1.361101262644
H      4.020956800770    3.229937549836    0.326108365546
H      5.060667235656    2.495808090175   -0.922726492003
