77

C      1.207249782407    2.777434952469    2.263979635920
H     -0.603885540122    4.393719461236   -4.529888924544
C     -0.520761736434    4.788580991797    0.655172198760
H     -1.111902565979    4.879911847700   -0.262289085429
H     -1.058614261672    4.575895279315    1.582477126675
C      0.792154155365    5.217045448895    0.723074286006
H      1.288721817897    5.328973379680    1.689914206073
C      1.529898262463    5.838233229800   -0.429080511999
O      1.030110419433    6.388705932683   -1.378733786203
O      2.857329516961    5.715787603706   -0.243731111516
Pd     0.824076627164    3.056624503305    0.320318885084
C     -0.667359010278    2.472612958803   -2.101198117582
O      0.292203309138    3.227889333991   -1.774177365987
O     -1.080378899753    1.489763198836   -1.432124719947
C     -1.387580862926    2.750102020580   -3.433793610222
H     -2.445657003343    2.519899403719   -3.242099198602
N     -1.299788462760    4.140943925936   -3.838270601925
C     -1.839377055246    5.132901548636   -3.071160513957
O     -2.503934616628    4.883208217612   -2.072668389026
O      0.321066459743   -0.148047471913   -0.193082097992
H     -0.253271102801    0.627123523697   -0.611853293938
C      0.230817266429    2.113593545110    3.018186578659
C      0.424843984332    1.814371214313    4.377678580947
C      1.634797965844    2.196454221935    5.002720887803
C      2.602436792550    2.861720535110    4.238966336620
C      2.401703915395    3.155753436783    2.884317392803
H     -0.708579671920    1.803219325468    2.549117263790
H      3.541730215135    3.161467550397    4.714401660755
H      3.185529769259    3.679243020190    2.329566489339
C     -0.649288913290    1.092623649891    5.154352453404
H     -0.280135009654    0.138417199424    5.567937929223
H     -1.001410395200    1.689401818509    6.013316984379
H     -1.520179054847    0.868460706319    4.521647159214
C      1.880678538260    1.895370575966    6.461113329184
H      1.121382274972    2.364829989102    7.110064941557
H      1.840199192353    0.812019112113    6.668044295848
H      2.866853570009    2.260123060622    6.783855354185
C      3.718341854831    6.235582758433   -1.275226183089
H      3.451292841630    5.754746253351   -2.230192050644
H      3.519803125579    7.313945773172   -1.388496959463
C      5.153482419728    5.958205834256   -0.877597768912
H      5.348729332168    4.878630658488   -0.781540235446
H      5.833903480234    6.361780230407   -1.643805452969
H      5.395126946178    6.440552691679    0.082262346223
C     -1.544436920561    6.550922527720   -3.518019048647
H     -1.318683990442    6.626144214936   -4.592579597847
H     -2.408538032160    7.184197006016   -3.276153546153
H     -0.678329325029    6.910765475395   -2.940934393245
C     -0.854696718167    1.858767347863   -4.572738293264
H     -1.404181663300    2.142915616862   -5.488954174143
H      0.204407673639    2.124287100483   -4.748924052223
C     -0.958233620605    0.333476820848   -4.385677892310
H     -0.375801828171    0.058211421727   -3.489809530917
C     -0.330104612225   -0.376634677633   -5.592571853372
H      0.716829704218   -0.067182289834   -5.747771262501
H     -0.339903713395   -1.470319791767   -5.459033741864
H     -0.884542786546   -0.150744428135   -6.520174797058
C     -2.399675664841   -0.136856237819   -4.154085789104
H     -2.446077039408   -1.236705973210   -4.100159452976
H     -2.800838638095    0.255674815922   -3.208763771741
H     -3.062095718401    0.183264843646   -4.977745224575
N      2.067180631455    1.354333143052   -0.074603420426
C      1.600957537106    0.083570457550   -0.161212688542
C      2.513738975636   -1.003716737991   -0.207111770106
C      3.870915238225   -0.760305678273   -0.234535625734
C      4.337678720042    0.573227887764   -0.215516846473
C      3.389231614481    1.585394874421   -0.120677068705
H      2.099578088750   -2.011735177040   -0.245219694535
H      4.585993670731   -1.582864449224   -0.286402216929
H      3.714503797894    2.626027490841   -0.072482779104
C      5.769041261896    0.962787359715   -0.282043944658
O      6.171661299327    2.105244423266   -0.312348477159
O      6.586344191282   -0.106304346758   -0.308972909712
C      7.985676863501    0.167598315221   -0.377933598184
H      8.312630483572    0.752447489926    0.495020904298
H      8.487498095752   -0.807603607758   -0.392862775701
H      8.228327638784    0.736622331319   -1.288129592209
