71

C      1.379953720292    2.814777236998    2.224777563806
H     -0.708005713484    4.573685951912   -4.527783076928
C     -0.605655593576    4.634348110411    0.679423827718
H     -1.245171617134    4.674500654386   -0.209372118019
H     -1.069102762170    4.344282872923    1.625631479428
C      0.654691988560    5.196853662711    0.685409651089
H      1.192545411093    5.346267428439    1.624054217123
C      1.228356679468    5.939064003122   -0.484467683448
O      0.606598101931    6.389582913163   -1.414558308581
O      2.560027059829    6.080934065791   -0.340404777135
Pd     0.882849886981    3.027344734448    0.294726615885
C     -0.668109527860    2.477875627233   -2.161844606144
O      0.295209501046    3.204089160038   -1.778774575756
O     -1.135551938454    1.488078231540   -1.547708965711
C     -1.313906715451    2.794009161089   -3.524782319339
H     -2.352275648905    2.442781042276   -3.436030102863
N     -1.344141442880    4.213288981939   -3.827126406539
C     -2.017864220933    5.094774720229   -3.034269725565
O     -2.642040343704    4.723103710315   -2.047691208074
O     -0.019019242155   -0.021329868105    0.071244517432
H     -0.476603954843    0.710263137823   -0.531646018472
C      0.530905844439    2.068381575208    3.052832239650
C      0.828693362477    1.843253146806    4.407701650158
C      2.018564914841    2.379892392269    4.952628042604
C      2.863350376238    3.119762928617    4.115533646302
C      2.556884526842    3.342406102669    2.766960058658
H     -0.383173071631    1.627593850197    2.643076599059
H      3.787246926221    3.537992391292    4.527781405709
H      3.245448486588    3.931671527074    2.153958858186
C     -0.112920784609    1.032061639959    5.264158522484
H      0.385313838300    0.142416947771    5.686341094699
H     -0.488076381922    1.615782006536    6.122437042211
H     -0.982728871856    0.686648805067    4.687013191360
C      2.373599579730    2.159978366545    6.403042095000
H      1.601747403550    2.565224411746    7.079927171660
H      2.466113150440    1.086852319242    6.643896720246
H      3.328270856219    2.642798407697    6.658792595600
C      3.249366205485    6.799863175624   -1.378015915032
H      3.094059438372    6.275963590563   -2.335183374914
H      2.794378015338    7.798609540042   -1.479351972594
C      4.714454892211    6.879722222512   -1.003810076082
H      5.158191228454    5.875606165153   -0.920019065761
H      5.268298683388    7.436631052859   -1.775514827335
H      4.848296787560    7.397763744920   -0.041693242467
C     -1.935539904343    6.552858702511   -3.443734109098
H     -1.733798006165    6.687061213593   -4.517418529589
H     -2.882420264550    7.043933223352   -3.182039699384
H     -1.127265390798    7.022053864855   -2.863430464547
C     -0.602878541397    2.051054629994   -4.671087581385
H     -1.116520287869    2.328719467174   -5.610274783929
H      0.427057626061    2.445890497552   -4.746094992881
C     -0.539530890177    0.515272295152   -4.576890460004
H      0.012220558948    0.252940949873   -3.657246118400
C      0.247989720551   -0.042788747124   -5.770025560818
H      1.258487972081    0.394197863635   -5.831172446408
H      0.359528126990   -1.136498598650   -5.696056346253
H     -0.266624686448    0.174338641494   -6.722351067102
C     -1.927579460360   -0.130237450514   -4.476994468832
H     -1.847152177963   -1.229438738338   -4.489281004588
H     -2.433157781727    0.152868150337   -3.542767097675
H     -2.567219178829    0.164891465585   -5.327573183359
N      1.937542316134    1.197379209296   -0.029495062879
C      1.286725520942    0.011007100404    0.025931072274
C      2.023288207556   -1.199394847496    0.058414548066
C      3.403782514595   -1.163834509834   -0.009909152913
C      4.060346281498    0.075257000288   -0.114033931062
C      3.285935256823    1.222311416981   -0.111252446122
H      1.461627520237   -2.132102887101    0.120834639662
H      3.977542739510   -2.094209003857    0.007051732552
H      5.146567452109    0.147446715571   -0.180464905084
H      3.744956379355    2.212090429068   -0.160294240448
