62

C      1.566555394198    3.875202096409    2.452183756284
H      0.162876100974    4.645978565263   -3.770664140245
C      0.903124146732    5.207418952098    2.089037880331
H      0.215633287465    5.516799543549    2.892610542737
H      1.675807676605    5.981393802472    1.977517985919
C      0.170342510692    4.976273204649    0.769434614112
H      0.460923214943    5.629462580462   -0.062096203623
C     -1.312678445915    4.825608321604    0.872286300910
O     -1.895653936710    4.447947150777    1.872426579087
O     -1.937491833631    5.146739942825   -0.272408135721
Pd     1.001850443279    3.162189581473    0.316781181597
C     -0.505115392564    2.621139181835   -2.100527766274
O      0.421170380851    3.381816625104   -1.664562188160
O     -0.953351972651    1.604715062839   -1.536427605977
C     -1.090861709131    2.984354600671   -3.476038451938
H     -2.183092810033    2.911276981932   -3.376981012882
N     -0.806624001975    4.357557482522   -3.841753033984
C     -1.766060860556    5.331980611271   -3.804407384020
O     -2.956440302084    5.090828223928   -3.663886793775
O      0.180989792528    0.017038431969    0.035553447223
H     -0.277332725221    0.770009986207   -0.519658580746
C      0.751074366644    2.745493649724    2.725660022929
C      1.290547894868    1.534730202970    3.223493718286
C      2.677420506063    1.440954468769    3.430067282135
C      3.492196651945    2.557197916554    3.133256474570
C      2.963155244870    3.746193009332    2.653527785727
H     -0.335331932967    2.866994326056    2.687453574154
H      4.570842304288    2.478177312612    3.295392645953
H      3.616669214661    4.600919860920    2.459283228688
C      0.371951361147    0.381776431030    3.538439280070
H      0.577975911667   -0.490421987048    2.895801672078
H      0.490546464362    0.044856997649    4.581756925275
H     -0.680142986057    0.658054928816    3.385103880151
C      3.293443238835    0.175774766865    3.971215039751
H      2.903666557912   -0.063146207002    4.975348778755
H      3.060149101765   -0.691803765869    3.331937886593
H      4.387111969737    0.258805999146    4.045040357707
C     -3.375673102627    4.995048174609   -0.326692089478
H     -3.593117297984    4.884515752417   -1.397149196649
H     -3.650763008410    4.074715565932    0.209088283225
C     -4.088319944810    6.201687405936    0.260705945753
H     -3.784740323044    7.126370787363   -0.255001251892
H     -5.176679648712    6.085181561777    0.133182735070
H     -3.878022612389    6.304831972292    1.335555570413
C     -1.247485944171    6.754161617708   -3.934548673812
H     -1.983340170926    7.351940789548   -4.488948476784
H     -1.157895243115    7.182681497306   -2.922773062588
H     -0.267489001721    6.816488941896   -4.430949822424
C     -0.613574877588    1.981674515840   -4.535997854690
H      0.476926825574    2.050559071899   -4.685261978351
H     -0.855342197432    0.956415276187   -4.220614256878
H     -1.106491735207    2.184695802956   -5.498332229988
N      2.109285331728    1.277954196839   -0.076318591897
C      1.482917386994    0.088201487270    0.015020801932
C      2.264187280430   -1.099130608659    0.131538928969
C      3.646069628870   -1.035302930225    0.063697665482
C      4.252308973672    0.218754235431   -0.104596626352
C      3.450235321154    1.349179742055   -0.161032127405
H      4.245111170628   -1.944024966305    0.133364876924
H      3.890126962946    2.343343678291   -0.259138695044
Cl     1.456105580325   -2.618938647205    0.354575565242
Cl     5.986251739008    0.362455204496   -0.210483258000
