61

C      1.538789319235    3.955502511872    2.288715531971
H      0.743489031795    4.207115820859   -4.088725213480
C      0.807192026008    5.215713193742    1.821795415664
H      0.085455046227    5.539249224938    2.588857489386
H      1.534572758311    6.025063346923    1.667067671663
C      0.118021058594    4.845683642590    0.511325717760
H      0.383672297257    5.452409177248   -0.362155583491
C     -1.352063255176    4.591397496969    0.602051703919
O     -1.923806502410    4.247492788723    1.620388190774
O     -1.969587780001    4.771749664809   -0.576565544500
Pd     1.020010958609    3.034278936427    0.205928064311
C     -0.342571947759    2.487895199844   -2.297810079505
O     -0.922647408924    1.549413994255   -1.715132653476
O      0.612780882093    3.186613432702   -1.829292447231
C     -0.780094312260    2.804494490206   -3.726823047448
H     -1.876209030099    2.876458522112   -3.754077058889
N     -0.239834183071    4.030849091336   -4.256899090354
C     -1.040820145962    5.076937725221   -4.624669869432
O     -2.258876634633    4.994263817113   -4.672099240400
O      0.155220878802   -0.119212560926   -0.218819728334
H     -0.274094400729    0.688141032428   -0.734137146085
C      0.788336245658    2.799296439642    2.628728623101
C      1.395062657398    1.663219186817    3.220587042910
C      2.779868572488    1.670695995309    3.453292100347
C      3.531052746364    2.808913074760    3.079426530919
C      2.938273236362    3.924336384773    2.507148904719
H     -0.303084700396    2.853905614134    2.579195399750
H      4.610879644774    2.806620458870    3.251793208137
H      3.542984438898    4.799033116782    2.253853370760
C      0.543058840894    0.483532453400    3.613415902360
H      0.872256065470   -0.440468098990    3.109113796202
H      0.603422294330    0.287082654883    4.697364526829
H     -0.512099819914    0.647585126072    3.355327483983
C      3.462610354199    0.492586145573    4.100841770555
H      3.051778355413    0.291340340410    5.104636226267
H      3.319254103914   -0.430886716594    3.514961156017
H      4.543650951503    0.660788009741    4.207191740467
C     -3.378347352896    4.463024129976   -0.667567026446
H     -3.459735722740    3.407153024301   -0.976368041977
H     -3.823298934497    4.558149905099    0.332948935002
C     -4.020025095484    5.392879818112   -1.677596723292
H     -3.553767971539    5.300463476164   -2.670155005009
H     -5.089507136687    5.145674026649   -1.774288514164
H     -3.942203800757    6.440952445872   -1.346927125284
C     -0.311136554896    6.364020317096   -4.971036701187
H     -0.759390942628    6.789303607835   -5.879946094436
H     -0.470925636604    7.088797923203   -4.156649568982
H      0.770450283275    6.231479306116   -5.121491965942
H     -0.503809850049    1.930452172489   -4.345286242351
N      2.101041697037    1.111491923775   -0.031521559937
C      1.445583466022   -0.077761775631   -0.076672543012
C      2.158680540902   -1.302911719511    0.055913360808
C      3.530486824537   -1.288682228337    0.184899761260
C      4.180134033271   -0.042756845529    0.186917977676
C      3.436332117825    1.124154783559    0.078878701336
H      1.586189223585   -2.230454837970    0.027070978081
H      4.118588698260   -2.202616321741    0.274163348485
H      3.937070646950    2.092593715866    0.098005308492
N      5.632680233916    0.038341702124    0.330801119332
O      6.138129844740    1.151088223527    0.374747827863
O      6.248254224522   -1.014088428856    0.405700902593
