65

C      1.539282840575    3.962700663679    2.298325806624
H      0.712061547692    4.197519138488   -4.051402221726
C      0.807597727309    5.224871027020    1.838240222320
H      0.087118918068    5.545717480693    2.607769322946
H      1.535184523077    6.034698807279    1.686091963439
C      0.116022857322    4.860908950245    0.526805475943
H      0.382141519726    5.471186622827   -0.344063447997
C     -1.353417465114    4.611245547546    0.618043623666
O     -1.927305738947    4.265918913582    1.635024367281
O     -1.972594177206    4.796736978415   -0.560147055617
Pd     1.013217442891    3.045372998967    0.213708172303
C     -0.378762086875    2.502653721832   -2.265308875114
O     -0.968973160828    1.587085765149   -1.661431996034
O      0.593087490972    3.195705834901   -1.818098936427
C     -0.817648532602    2.803081463719   -3.698335427740
H     -1.913065076477    2.882278597837   -3.726212358432
N     -0.266663046074    4.018949864757   -4.243595898835
C     -1.058102677726    5.062208930446   -4.636710696544
O     -2.275748707467    4.983838065870   -4.704456397219
O      0.129538805047   -0.096785127616   -0.148279616281
H     -0.299867288552    0.700021487045   -0.651944274957
C      0.788625416789    2.804627925037    2.630959181755
C      1.396172800366    1.662421937713    3.210064523811
C      2.781598133857    1.666061729439    3.436919851049
C      3.532283781381    2.807254847227    3.072662671061
C      2.938967889033    3.928567370023    2.513075583583
H     -0.302864305340    2.860656444802    2.585429443187
H      4.612764959327    2.802395494326    3.240850439472
H      3.543921629129    4.804387223734    2.264308560618
C      0.544793239053    0.478379081508    3.590639638028
H      0.868900825069   -0.437327428774    3.068456589746
H      0.611636087834    0.264911642327    4.671069242558
H     -0.511474454904    0.648021651834    3.341073615502
C      3.466048387332    0.477488417930    4.063084285312
H      3.048377284165    0.248663050969    5.058063204758
H      3.334507186000   -0.430966222325    3.451450309652
H      4.545055792632    0.651011688518    4.182023203379
C     -3.378188316369    4.478669045049   -0.651403745975
H     -3.453567489088    3.417418936816   -0.943039330946
H     -3.828440574761    4.587840597185    0.345440848583
C     -4.020956762878    5.389115172549   -1.678520445356
H     -3.552958554725    5.282804566929   -2.668975007592
H     -5.089420507115    5.136755953997   -1.773651503891
H     -3.947362770948    6.442927331867   -1.365418678592
C     -0.318128826763    6.343619169340   -4.984138574180
H     -0.758680501441    6.768366825304   -5.897002988245
H     -0.476768729468    7.072302803818   -4.172954953714
H      0.763360826070    6.202914812009   -5.128001092784
H     -0.547337349974    1.919644789977   -4.306102826633
N      2.086675259286    1.130350948693   -0.039649826832
C      1.432223535916   -0.056441944119   -0.065014654222
C      2.149741805898   -1.277501162982    0.025807355595
C      3.528214760290   -1.257252355967    0.091683271547
C      4.202938418848   -0.017650148080    0.074396308663
C      3.427462583733    1.138517772989    0.010735982445
H      1.578141212880   -2.206187981108    0.014510934795
H      4.100708038585   -2.184611106889    0.146060397939
H      3.919094484768    2.113619303855    0.013298841740
C      5.679739034903    0.126194232544    0.140207611208
O      6.267228641926    1.184185028372    0.172906046373
O      6.306266665729   -1.066675957839    0.165139083186
C      7.731866436520   -1.030208639846    0.225717227672
H      8.072202612983   -0.510609077349    1.134291050804
H      8.064453594028   -2.075395582584    0.237247705131
H      8.146978492641   -0.506715688210   -0.648759192755
