71

C      1.576269266333    3.853162803144    2.429761620407
H      0.202646909145    4.695135680526   -3.648889557796
C      0.900838963555    5.173945219731    2.053853171499
H      0.207434716082    5.482555382285    2.852587552404
H      1.665141787147    5.955715267237    1.938862002078
C      0.174487673532    4.924822064158    0.733499468224
H      0.472118142577    5.567056628470   -0.103813326381
C     -1.309274681180    4.781758092136    0.829558222617
O     -1.899307697766    4.398825801628    1.823429857883
O     -1.927660747634    5.117928206228   -0.315285123775
Pd     0.996439043156    3.099965070702    0.299531787804
C     -0.504612066973    2.629267794093   -2.143426105149
O      0.444070393833    3.350669651256   -1.687715396157
O     -0.965796143040    1.601245762204   -1.611169148804
C     -1.112843634892    3.064950292121   -3.484762219523
H     -2.203019072917    3.051922009858   -3.342670343035
N     -0.763520031033    4.434049551934   -3.811029639635
C     -1.696638115827    5.436383220644   -3.799454063728
O     -2.899262325913    5.226872779439   -3.735693377393
O      0.189112176374   -0.085287122044   -0.169691948037
H     -0.265510269188    0.711792176251   -0.660796252264
C      0.771532891197    2.717274232287    2.707485883897
C      1.324708240541    1.514789252119    3.212352932355
C      2.712278272460    1.433652831654    3.415099680720
C      3.515658317803    2.557383556193    3.114250624525
C      2.973763720578    3.739476386428    2.632219412039
H     -0.316240028612    2.828997886718    2.672188485013
H      4.595827720651    2.485293269069    3.267601091855
H      3.618439007052    4.599891790654    2.433618964523
C      0.416711642177    0.356457214507    3.537228400195
H      0.643254705140   -0.522792950190    2.910965038593
H      0.530447467327    0.036149419844    4.586317227061
H     -0.637591764263    0.616757622773    3.371055145270
C      3.346003723253    0.175724391185    3.952779054688
H      3.028839951981   -0.021646031045    4.991445966898
H      3.051840713623   -0.706903929865    3.362030647144
H      4.442729928165    0.239854102735    3.936874265938
C     -3.366817459672    4.981789394502   -0.376099331101
H     -3.582594525503    4.896082952291   -1.449305709555
H     -3.652830995938    4.053283079661    0.139651572065
C     -4.070535837032    6.183287258578    0.232329007480
H     -3.757114133640    7.114752520430   -0.264866581275
H     -5.159452188460    6.078988890625    0.099236689224
H     -3.862632184511    6.263613488755    1.309500535585
C     -1.130545501159    6.845279693158   -3.852682975586
H     -1.818970516825    7.484806835576   -4.421068755175
H     -1.078841176363    7.235753645505   -2.823016119939
H     -0.125356921942    6.892600743280   -4.297538971399
C     -0.771451194586    2.044719765128   -4.605293421862
H     -1.079206776637    1.065247117469   -4.201838013361
C     -1.591457863714    2.327789837034   -5.868049718617
H     -1.398147084968    1.564328848938   -6.638841935500
H     -2.671728248741    2.332789089989   -5.655028403032
H     -1.332808804478    3.310479819585   -6.294650708642
C      0.730311531201    1.987680963285   -4.911464371774
H      1.095013895240    2.954229573246   -5.298455012191
H      1.326635519264    1.733700280166   -4.020398568638
H      0.941944275425    1.227770104962   -5.680515770564
N      2.097564597785    1.209949490227   -0.067601556031
C      1.487647094171    0.001642922214   -0.088877992924
C      2.251471607504   -1.191875022656    0.003817202768
C      3.626944190384   -1.118056259997    0.087474203612
C      4.249004645197    0.145328274429    0.067698583337
C      3.439038563047    1.269807725488   -0.017081616337
H      1.718247918760   -2.142856052340   -0.014521963629
H      4.230075979900   -2.026550352122    0.149619723662
H      3.878274224099    2.269253790005   -0.030921463486
C      5.734581660097    0.290092936921    0.230075449663
F      6.087769621864    0.370299447921    1.535496215027
F      6.397510045766   -0.759479758649   -0.282781934971
F      6.200297043743    1.402773042490   -0.361664450772
