73

C      1.622229132812    3.931207482434    2.378579298250
H     -0.008977786114    4.681131503816   -3.636731943647
C      0.942884285169    5.251352045842    2.007433031710
H      0.282630795928    5.579456978062    2.826490832157
H      1.708560966865    6.024567234659    1.850356678410
C      0.165335035704    4.985622378564    0.719317174011
H      0.426704072809    5.619472370136   -0.136429006312
C     -1.310984833575    4.838326736487    0.879596916002
O     -1.859010780332    4.489034500294    1.909503022343
O     -1.981891676463    5.124851557768   -0.251341573537
Pd     0.970498714794    3.149831470050    0.282326156770
C     -0.619191774855    2.626118097547   -2.069996794259
O      0.366403599293    3.344024968140   -1.696608964952
O     -1.136050401016    1.693425805145   -1.430450831503
C     -1.191236536958    2.963883899462   -3.466158981866
H     -2.282372853027    2.844265731008   -3.390059589943
N     -0.957541520508    4.354983113989   -3.790663198694
C     -1.963580451792    5.284601281464   -3.728410440789
O     -3.143504744955    4.982873358898   -3.636978238589
O      0.056779053075    0.032667580900    0.103240354329
H     -0.406354493550    0.795967147603   -0.394091132442
C      0.820896569507    2.801357095483    2.689969070343
C      1.382899257705    1.598418988045    3.185230563193
C      2.774837374715    1.514493830825    3.350278239976
C      3.573235644865    2.633335893924    3.020884273607
C      3.024317780678    3.812878157890    2.541970899746
H     -0.266589021352    2.918919401324    2.691398321190
H      4.656335891570    2.563344167594    3.155952777450
H      3.666513940902    4.669033070433    2.318622838721
C      0.480339114372    0.441738500969    3.530773351029
H      0.638403957609   -0.411224805861    2.849510661419
H      0.662739986710    0.076259124799    4.554798646251
H     -0.577869850023    0.725829186043    3.450856403744
C      3.416974634901    0.254824971220    3.873550866482
H      3.038993178228   -0.006013534837    4.876545747140
H      3.196895816377   -0.606283295672    3.220632735264
H      4.509535380587    0.357283721212    3.940908768554
C     -3.418362565984    4.951744801863   -0.244970189354
H     -3.678605835559    4.813429332686   -1.302596532423
H     -3.657874856895    4.038947903395    0.319651159950
C     -4.127600229372    6.159531269641    0.344547786537
H     -3.861055425350    7.078166394778   -0.201747350341
H     -5.218083611408    6.022711624330    0.263359528742
H     -3.875990435952    6.288918883145    1.407495385686
C     -1.502541060092    6.731416496144   -3.758484632712
H     -2.268590170836    7.339678869160   -4.257215438360
H     -1.411007600269    7.083367519774   -2.717661249538
H     -0.532839804856    6.866247470088   -4.260665473335
C     -0.662472826462    1.986360360552   -4.521738351703
C     -0.096658815369    2.443391844122   -5.719371024483
C      0.361411807340    1.540090811514   -6.684572117648
C      0.257971769463    0.164698151473   -6.467445087181
C     -0.310213707121   -0.300452272641   -5.276672864520
C     -0.767454395011    0.599973893036   -4.312455546098
H     -0.026864652143    3.516866921308   -5.902706234171
H      0.797867593731    1.917841372001   -7.613241778010
H      0.613586038657   -0.541572427829   -7.222264901422
H     -0.403004152306   -1.375011237769   -5.097144202480
H     -1.207600343498    0.233133598242   -3.383227147541
N      2.009541287616    1.248210107250   -0.120599475173
C      1.364395203200    0.080591474751   -0.017761162586
C      2.092261832271   -1.155301597888   -0.000438718028
C      3.469619633235   -1.119367433298   -0.174891804774
C      4.111099497052    0.123056089543   -0.345045006452
C      3.351259769402    1.274651595805   -0.305050543059
H      4.053543858238   -2.040154094995   -0.195167833206
H      5.189601042542    0.178145909594   -0.500364575104
H      3.801842911795    2.263354294201   -0.412400635815
O      1.342505560629   -2.262454703373    0.177075797899
C      1.975834279746   -3.522523114704    0.168171193642
H      2.719318356839   -3.614645440607    0.981096967763
H      1.186116379739   -4.269651636027    0.320580868722
H      2.477270820867   -3.720925641722   -0.796450733169
