78

C      1.388139694485    2.809235922866    2.246308751402
H     -0.871445739025    4.554730417553   -4.648003409847
C     -0.576758323051    4.654742570394    0.729771878719
H     -1.220652959289    4.709458634001   -0.155620046526
H     -1.032686508723    4.350555037900    1.675120587767
C      0.683575082823    5.218096365041    0.734949304644
H      1.230446497799    5.353776727331    1.670532166508
C      1.239808456930    5.984491465916   -0.427803128023
O      0.607052705686    6.441416168953   -1.346875499700
O      2.572622728060    6.141922765163   -0.291680365567
Pd     0.910595477659    3.053653515097    0.314410730944
C     -0.647540471714    2.500690054035   -2.138853301615
O      0.300893069088    3.239732025005   -1.752808086951
O     -1.094507232043    1.487148009561   -1.547484272419
C     -1.302321726711    2.811444140241   -3.499394720607
H     -2.334291255597    2.436077844461   -3.407197513406
N     -1.331696106969    4.224273819611   -3.809397318875
C     -1.975666901232    5.110811372053   -3.000482618507
O     -2.531829246218    4.748552270714   -1.969999215121
O     -0.014509353069    0.067425007666    0.148886457730
H     -0.464974975894    0.778440504471   -0.507089398505
C      0.507293039699    2.069611796019    3.047473083231
C      0.769211799674    1.826681870844    4.406694613123
C      1.953586080874    2.339579897731    4.984744809464
C      2.829150227922    3.073535574464    4.174586230507
C      2.559590661438    3.313150903800    2.821197030749
H     -0.403834806203    1.647289146298    2.612768771091
H      3.750352016965    3.471947713754    4.611673746234
H      3.275200331073    3.890315530112    2.229772509824
C     -0.205499869424    1.022586245438    5.232482184361
H      0.267735348415    0.120274079521    5.656698238169
H     -0.591184371656    1.603446897625    6.088072532521
H     -1.067150663851    0.697721790519    4.631568043793
C      2.270932503924    2.100860484601    6.440950910580
H      1.489579479912    2.511485756341    7.103617288761
H      2.341858876230    1.024275041473    6.673706703571
H      3.226495688589    2.566725012303    6.723462261447
C      3.240977706711    6.899028529231   -1.315984310149
H      3.120528554092    6.376155681245   -2.278880507811
H      2.743036674904    7.876940358210   -1.415575389974
C      4.696701481486    7.042141233948   -0.924152885830
H      5.184875261132    6.058847662555   -0.839518057810
H      5.233925701304    7.627320980962   -1.686599210890
H      4.796123240983    7.559949075457    0.042189212513
C     -1.933048017454    6.562389022109   -3.434901189276
H     -1.761082601416    6.686537556857   -4.514914773319
H     -2.880623563865    7.041892517138   -3.154497988185
H     -1.118930973955    7.052694620517   -2.880282098073
C     -0.569592668350    2.017496002841   -4.601386897107
H      0.488892135663    2.325623926535   -4.614805432703
H     -0.591838641596    0.959481202371   -4.295978235164
C     -1.168260088373    2.174299360347   -5.983295943296
C     -2.435438380698    1.644564290536   -6.282436883357
C     -0.480203000162    2.860677645237   -6.995878095552
C     -2.996873219078    1.800659837808   -7.550921994608
H     -2.987666663666    1.100561995419   -5.510578271867
C     -1.039613174207    3.020109926788   -8.268909049682
H      0.515001890176    3.266440388426   -6.788676285727
C     -2.301090554204    2.491386451987   -8.549871985871
H     -3.982777655120    1.378725977553   -7.763314870661
H     -0.484174980697    3.556238913858   -9.043047681978
H     -2.740676098070    2.612517074198   -9.543197918734
N      1.962807796050    1.216670670029   -0.043504754797
C      1.287951866795    0.071258522187    0.095701704753
C      1.978760738124   -1.182306905373    0.208546618570
C      3.339920593142   -1.216441667530    0.108633454041
C      4.072281315837   -0.012275758119   -0.117653631488
C      3.333264301543    1.208320783296   -0.189736200667
C      5.481271847627    0.014897894913   -0.267872712158
C      6.146823153073    1.206017622472   -0.486742984598
C      5.413171446733    2.411093132422   -0.561699381320
C      4.037423564136    2.417224957088   -0.414802938424
H      1.371954456965   -2.076567486505    0.353838744007
H      3.880963836041   -2.163782278086    0.184841262602
H      6.032335160938   -0.927688216130   -0.209132694635
H      7.232829577423    1.218852659119   -0.603387769694
H      5.938329438688    3.353059424354   -0.739699690552
H      3.472590823866    3.350005639496   -0.477411116793
