75

C      1.368391987003    3.931429956407    2.516374419762
H      0.892461726918    4.255630929757   -3.855598564036
C      0.605187248822    5.180276073452    2.074346182102
H     -0.178726417909    5.423183978868    2.809794446795
H      1.298519525993    6.031428493051    2.015086842557
C      0.018096601377    4.859967625312    0.701566570612
H      0.316614392992    5.527709686494   -0.115030999172
C     -1.443659210320    4.559821534855    0.680092516981
O     -2.070631321071    4.130387560812    1.631417553865
O     -1.993494313250    4.808217231468   -0.521769064939
Pd     1.013728070185    3.100037772915    0.350721158841
C     -0.295769792045    2.624400124555   -2.171691775988
O     -0.864251075115    1.671700337188   -1.603690635828
O      0.654603703836    3.322328154746   -1.688084390642
C     -0.774581775559    2.996718175824   -3.582361177369
H     -1.832749305996    3.282991282738   -3.481098149816
N     -0.085597134360    4.158079842952   -4.101739488532
C     -0.760605671805    5.236639291258   -4.597265340790
O     -1.973595055326    5.244536413534   -4.753863806089
O      0.315660719240   -0.062190563677   -0.156193229593
H     -0.140843002817    0.734839840951   -0.608815214351
C      0.659060721124    2.719420624922    2.722960620389
C      1.284756658085    1.573611253792    3.275608115408
C      2.647107792461    1.631775350032    3.608379135706
C      3.356579710696    2.832360771838    3.378154579053
C      2.746733400852    3.955359793789    2.840460742821
H     -0.428269072282    2.724496673438    2.602395109218
H      4.417176124047    2.874324329410    3.642426103065
H      3.317158764096    4.876934797919    2.697184200813
C      0.474880415498    0.325674361916    3.515437813671
H      0.894186591553   -0.537354074645    2.972057111301
H      0.465176064429    0.051158297251    4.584129950153
H     -0.564910106951    0.453402526244    3.185362162520
C      3.349423460175    0.438665683126    4.205023485945
H      2.863320923873    0.106546622994    5.137689519959
H      3.330539105557   -0.422465018250    3.515880885143
H      4.401027380375    0.663107908767    4.434188151569
C     -3.381583546524    4.469601198512   -0.721277766680
H     -3.419282189194    3.417673403916   -1.052053290087
H     -3.903235217827    4.535717324364    0.244271005536
C     -3.966997139049    5.407614857466   -1.758495348065
H     -3.425497194063    5.352610461664   -2.715491918073
H     -5.020118882627    5.140709459024   -1.942645746327
H     -3.937538046558    6.449451856175   -1.401599182210
C      0.097736597284    6.443262296924   -4.940883761201
H     -0.207729393354    6.824181542946   -5.925863015281
H     -0.104018436538    7.239123445158   -4.206305528313
H      1.176630960216    6.229536524041   -4.947721315101
C     -0.733235428840    1.773868756767   -4.537409698176
H     -1.338261216956    0.982037830459   -4.072304306684
H     -1.236976205497    2.075932198916   -5.468478902062
C      0.655596540679    1.259692426461   -4.842288099280
C      1.388398669142    1.763299590175   -5.930137952537
C      1.258902577704    0.283436059826   -4.030210752535
C      2.682986886011    1.309294569677   -6.199153766196
H      0.932309957702    2.516571580849   -6.578291086731
C      2.553189064549   -0.172553364147   -4.296550423958
H      0.702974879405   -0.119885400335   -3.179765027840
C      3.270777326942    0.339216720776   -5.382029660677
H      3.232658565736    1.710835422897   -7.054894740675
H      3.002261858777   -0.934057377376   -3.653298045767
H      4.281295931496   -0.020255105299   -5.593504034197
N      2.198557025854    1.265580738789    0.057800104850
C      1.624087425814    0.052812315216   -0.039707050649
C      2.392248142921   -1.147613947483    0.004521515738
C      3.772409741457   -1.019532506085    0.096255746755
C      4.370713798260    0.250745724415    0.142510720483
C      3.543351997594    1.359979711893    0.124939129239
H      4.393604288262   -1.919754779974    0.118226670481
H      5.453720334163    0.370600046801    0.195165570280
H      3.949399608968    2.372923622116    0.174896754866
C      1.686695105387   -2.472563643901   -0.074761345852
H      0.963319659747   -2.589123747450    0.748741326573
H      1.102120423730   -2.553653788158   -1.005477706550
H      2.402095741651   -3.306660364544   -0.033956686396
