63

C      1.563929510771    3.866865733842    2.474212916286
H      0.187077405935    4.638407196148   -3.771031407285
C      0.899503592629    5.194542259067    2.102656316019
H      0.205478051136    5.504795520513    2.900485204523
H      1.670486045350    5.970921970234    1.994335131484
C      0.175993617185    4.956783435903    0.778520259617
H      0.474834880935    5.605612237392   -0.053401526945
C     -1.306619315892    4.813807929176    0.871849061773
O     -1.900595977189    4.445493900768    1.869450750523
O     -1.923210852431    5.128942843904   -0.280760420900
Pd     0.996105599240    3.129878588075    0.336733687443
C     -0.527779243500    2.632220954781   -2.067976334964
O      0.434081658491    3.360188299824   -1.648189450875
O     -1.018789404952    1.646898893921   -1.492088099234
C     -1.090046924262    3.009587433193   -3.442899259071
H     -2.181556262208    2.898038547191   -3.415877054201
N     -0.784101847840    4.359529313816   -3.851927041441
C     -1.731636329571    5.347227642420   -3.829481676762
O     -2.924698681502    5.123212310484   -3.688710636763
O      0.117859522775    0.007527212067    0.076410103969
H     -0.333617462800    0.764448906334   -0.453525137708
C      0.750611194959    2.732465225727    2.732728243824
C      1.291667442806    1.520346133342    3.228074387310
C      2.675954266795    1.432434916100    3.448095791364
C      3.487396760305    2.555756799671    3.170594006340
C      2.958260838360    3.744164391195    2.691057868687
H     -0.336069480969    2.850609506281    2.690643725667
H      4.564212675404    2.482161818797    3.347527074349
H      3.609036753256    4.603611841873    2.508818749968
C      0.375815120306    0.358072959589    3.515038669548
H      0.560649514628   -0.481510616893    2.823999322921
H      0.516709897666   -0.027052488638    4.538433757751
H     -0.678182687580    0.644816930348    3.397770689741
C      3.295904266688    0.163536537499    3.975920894313
H      2.877177455533   -0.113565023650    4.958166962983
H      3.102509594232   -0.686408337853    3.300350890289
H      4.384839824280    0.263931609402    4.089563742624
C     -3.359375666215    4.973690351575   -0.345398683954
H     -3.569491239105    4.860081156243   -1.417063564907
H     -3.637049468914    4.054143452227    0.190449591311
C     -4.080451179112    6.180231841580    0.232395413324
H     -3.774638083925    7.103982421697   -0.283771976774
H     -5.167555269041    6.060875032292    0.096415719429
H     -3.878619266678    6.286982433859    1.308491927711
C     -1.193505016751    6.760058560063   -3.981211728306
H     -1.921055317221    7.359282184939   -4.544896130862
H     -1.097829013633    7.203172505204   -2.976297941436
H     -0.212761629292    6.801120564833   -4.478374437779
H     -0.701831513237    2.272452216938   -4.168733562425
N      2.065730864873    1.241003716964   -0.059073025809
C      1.426706724943    0.066715893885    0.011713157762
C      2.166659875565   -1.162398810549    0.055094674995
C      3.549387300721   -1.113154494048   -0.063005745990
C      4.185781693180    0.136209629071   -0.201445346716
C      3.413718960935    1.280270818705   -0.186944318298
H      4.142437844295   -2.028374024201   -0.062061460619
H      5.269375687893    0.202134559978   -0.310553641467
H      3.859433164887    2.273828819810   -0.268075325963
O      1.421048925414   -2.277443613412    0.198882702027
C      2.066385137030   -3.531073315986    0.213681972418
H      2.776955857143   -3.617961164856    1.056138549733
H      1.278504569442   -4.286280164974    0.332064482684
H      2.608992534593   -3.722654324936   -0.729894855299
