68

C      1.538489563546    3.959186157379    2.299071169082
H      0.669222152693    4.221458858155   -3.919569255501
C      0.809862527940    5.222681430626    1.837530067934
H      0.087458392844    5.543945029659    2.605039470003
H      1.538949131193    6.031689871894    1.688221357675
C      0.121871382189    4.860625752489    0.523556050071
H      0.393582700048    5.470191064244   -0.346123179669
C     -1.349053460257    4.618024578352    0.609205030701
O     -1.928420638330    4.272952756862    1.622989389544
O     -1.964115559420    4.811020240698   -0.570493160823
Pd     1.017984381934    3.043659781218    0.213698740881
C     -0.401322243975    2.505245892193   -2.249039338057
O     -0.982295434482    1.590994131012   -1.632215966579
O      0.585549659762    3.187463065202   -1.816887352241
C     -0.884155857528    2.823119876684   -3.670728510725
H     -1.968129628166    2.999814543219   -3.604742947558
N     -0.296602401331    4.048817278670   -4.174726288702
C     -1.056199524388    5.085055062148   -4.635813367157
O     -2.268107208461    5.007453015055   -4.781815595453
O      0.141807960182   -0.102380178867   -0.146008380066
H     -0.293838491653    0.697246210041   -0.638251550647
C      0.784890535285    2.802525404519    2.630135582682
C      1.388817509198    1.659111611022    3.210361066252
C      2.773801076539    1.660176308659    3.440384748786
C      3.527476731292    2.800064020186    3.078306659405
C      2.937581429387    3.922557868762    2.517425883147
H     -0.306382180959    2.860333528366    2.581246150526
H      4.607515334631    2.793254461276    3.249206848106
H      3.544742215746    4.797326414707    2.270331755835
C      0.534446741736    0.476327852979    3.588117859607
H      0.856598533992   -0.439056913648    3.064137774757
H      0.600085141570    0.260464769866    4.668124443730
H     -0.521258370044    0.648954759599    3.338189010701
C      3.454567577105    0.469971678611    4.067423890436
H      3.034246420225    0.241461008054    5.061355391126
H      3.322472367768   -0.437907037854    3.455047822573
H      4.533652572760    0.641255381328    4.188811307894
C     -3.372589926783    4.507205725131   -0.663852909676
H     -3.459749138746    3.443814866396   -0.944262658854
H     -3.825382756691    4.631517908841    0.330098202785
C     -4.002213515746    5.414801607902   -1.701768938303
H     -3.537113369995    5.292852669689   -2.691987827088
H     -5.074000304203    5.176144043088   -1.794495952773
H     -3.914367591509    6.470857595948   -1.400301935960
C     -0.293949288718    6.362074296311   -4.951849580259
H     -0.662181704692    6.765007074907   -5.905867218354
H     -0.518113319547    7.108089813573   -4.172560063510
H      0.795817161191    6.222754893212   -5.007285938758
C     -0.646306040103    1.621012058734   -4.598279690776
H      0.431529515265    1.428694827401   -4.727836229896
H     -1.114283225776    0.720586886486   -4.175237095366
H     -1.083202564209    1.819854715315   -5.588035735663
N      2.095064820524    1.131490813349   -0.038999257100
C      1.444685268792   -0.057325970720   -0.066526921396
C      2.166422199065   -1.276297762660    0.018125210035
C      3.544949695645   -1.251678204457    0.080857802973
C      4.215443370936   -0.009763995451    0.066446863886
C      3.436000648290    1.143951608667    0.008326274586
H      1.597898909338   -2.206843009777    0.005022615620
H      4.120661499084   -2.177293427532    0.130661875507
H      3.924443653872    2.120633919029    0.012566221918
C      5.691959898868    0.138863040318    0.129253363330
O      6.275818149168    1.198753861345    0.164518240709
O      6.322515807030   -1.051928609822    0.148153863182
C      7.748167312879   -1.010918626371    0.205247121079
H      8.089054095502   -0.493596197376    1.114908114656
H      8.084249792024   -2.055024342715    0.211994096658
H      8.159253455583   -0.482763190843   -0.668319083001
