26

N     -0.536093629161    0.832902186334    1.124495154787
C     -0.409479127510    0.393306662163    2.342346426923
O      0.038376700538   -0.751972937267    2.752055354707
H     -0.201088511099   -1.619316244217    1.740173824860
C     -0.546740392432   -1.400819611264   -0.182945749054
O     -0.501029655603   -2.189754479776    0.862851587572
O     -0.927591762145   -1.779455569629   -1.283103500981
C     -0.018998092677    0.046682919995    0.006804052446
H     -0.343249952270    0.557708299285   -0.913818141764
C     -0.845987031561    1.341840197822    3.454534895836
H      0.003034870488    1.524697126043    4.136509457669
H     -1.205811606111    2.295394794142    3.044407398077
H     -1.638650587632    0.869315321113    4.060709875040
C      1.533646946429    0.036579114323    0.022210433627
H      1.854193698866    1.095177169175    0.051439389067
H      1.853660188353   -0.414146306916    0.976005343690
C      2.250616761234   -0.682580273463   -1.135987107840
H      1.993858509774   -1.756021795549   -1.075565365716
C      3.772152716070   -0.564555949940   -0.967790997173
H      4.097258122807   -0.938121488138    0.017774632436
H      4.313568221792   -1.136195148294   -1.742151216437
H      4.097714235652    0.488830951774   -1.043995437015
C      1.805524866590   -0.189016667944   -2.519260690637
H      2.398811221247   -0.665270997342   -3.320221815482
H      0.747085965240   -0.432576064660   -2.690308652710
H      1.937087457549    0.904665069735   -2.612611410956
