71

C      1.418117858034    2.840173397130    2.339832741755
H     -0.867624712895    4.667642761303   -4.402741961926
C     -0.586757298343    4.605770526219    0.784580508614
H     -1.275532130031    4.596507339929   -0.066478056040
H     -1.006555314443    4.411267268924    1.774598804072
C      0.683848664778    5.139093734129    0.677891685144
H      1.272743248702    5.348863371201    1.572800754378
C      1.209167495657    5.777172667819   -0.571263705069
O      0.557416570742    6.098818596984   -1.536351103517
O      2.534055144963    5.985055707401   -0.466646026162
Pd     0.826343102946    2.939119557087    0.441276623784
C     -0.806208574946    2.347463271097   -2.206919008768
O      0.117005668654    2.974406608923   -1.671115980667
O     -1.364590085196    1.278302376967   -1.741699956003
C     -1.341211319469    2.757755966585   -3.583269483991
H     -2.347484881291    2.317455330152   -3.650742762729
N     -1.450367011597    4.196107480997   -3.722187374764
C     -2.188240920628    4.935616531809   -2.843664965530
O     -2.754433448577    4.406835265930   -1.894713487764
O     -0.248179969612    0.277457122513    0.242241104604
H     -0.913327159734    0.897892943919   -0.873408326068
C      0.613086829011    2.119317028662    3.229334433317
C      0.969938429729    1.969706506054    4.580278339808
C      2.170960030794    2.553057669122    5.048238679903
C      2.969830893610    3.261708009308    4.142208182152
C      2.607902234068    3.412357562899    2.797152563034
H     -0.302661628877    1.639898917349    2.871293420070
H      3.903275779337    3.711952885652    4.494240209672
H      3.262002740338    3.975126769205    2.125402618000
C      0.080523466243    1.184075517356    5.512702627440
H      0.613694594755    0.324353629356    5.953440113476
H     -0.269110845431    1.801531290450    6.357968228408
H     -0.805342912491    0.796369583854    4.989666295289
C      2.588505006276    2.410972540261    6.491563393063
H      1.835580345896    2.833174597242    7.179167994896
H      2.713840007812    1.352720472279    6.778445748429
H      3.542062582248    2.924022152805    6.684450897755
C      3.185325938367    6.613205042184   -1.585071026076
H      3.044394652295    5.981168010006   -2.477068255324
H      2.688282657317    7.575548125226   -1.789147749464
C      4.648692671479    6.791410488683   -1.239693546706
H      5.132726823726    5.820998007875   -1.050299108203
H      5.173468110349    7.280188668253   -2.075176949469
H      4.768642856957    7.418480439980   -0.342902742416
C     -2.245017431086    6.425941800972   -3.108561926933
H     -2.163186575731    6.669783903887   -4.178677892845
H     -3.190367413715    6.817077896424   -2.710629255261
H     -1.409877917643    6.899543405764   -2.571294293267
C     -0.444741129450    2.203549152425   -4.707461836470
H     -0.867732812335    2.559764790344   -5.664781789680
H      0.550754639131    2.671310941866   -4.605354637421
C     -0.276974060657    0.674226056391   -4.779368760691
H      0.165175834604    0.331281720528   -3.826881578789
C      0.709608480361    0.318603299531   -5.899879547718
H      1.683149978553    0.815530047794   -5.757371349168
H      0.889998888100   -0.767277963869   -5.938462064107
H      0.318389734170    0.625824931802   -6.885326158399
C     -1.610473890773   -0.061961828941   -4.963328577227
H     -1.443091293723   -1.145232614327   -5.073907652566
H     -2.278364493939    0.077812355983   -4.100903718444
H     -2.135120888544    0.287023317680   -5.870106484389
N      1.869595373989    1.105596765042    0.177788737331
C      0.996009693502    0.053014086110    0.158601602778
C      1.575881529098   -1.261978731383    0.045538861133
C      2.942795108002   -1.438052968489   -0.032196994698
C      3.778862828979   -0.304903784804   -0.002923062186
C      3.204706648200    0.948960430233    0.111758276865
H      3.367088877840   -2.439594681018   -0.115565148310
H      3.820488750738    1.848970821962    0.158266880411
Cl     0.498899184456   -2.625296495533    0.015658396645
Cl     5.514377761786   -0.478192364287   -0.099198865139
