74

C      1.592739699592    4.021828307122    2.264151305236
H      0.539094557998    4.330515925026   -3.728058635631
C      0.887275171664    5.282847539105    1.764323009596
H      0.181682032810    5.648797695263    2.527704210758
H      1.632507846280    6.069388790320    1.578044684731
C      0.174914692079    4.890298030508    0.471142322473
H      0.445118998844    5.468454793903   -0.420175867519
C     -1.298363990148    4.680610954422    0.588025814532
O     -1.864264475276    4.376176983895    1.622603697054
O     -1.934827137278    4.851087472145   -0.584704787332
Pd     1.024912162804    3.039470111858    0.210791486472
C     -0.409858529835    2.482317797529   -2.229411834995
O     -1.055877681121    1.665253210949   -1.548653398442
O      0.615490622218    3.132410308539   -1.825587316852
C     -0.835519335767    2.746466424120   -3.683299436655
H     -1.934078192348    2.785876043343   -3.694420409416
N     -0.366905759217    4.059335140954   -4.094700958130
C     -1.221247261365    5.042944970951   -4.505533212516
O     -2.403558325328    4.842178384943   -4.746029471767
O      0.013259768873   -0.059962486192    0.012431337037
H     -0.390992734900    0.734860191307   -0.484056985842
C      0.819823799567    2.886231700007    2.621701890591
C      1.405323094312    1.745103290814    3.226833197459
C      2.789151553663    1.728527074271    3.459273846384
C      3.559763519624    2.850895194527    3.079010813369
C      2.989923769434    3.969037006891    2.489568939279
H     -0.270439728665    2.963164930181    2.577988126785
H      4.637452850935    2.835579400971    3.266048494059
H      3.609920166116    4.830912007963    2.228820937433
C      0.531657553521    0.584219129274    3.626516487957
H      0.841491721236   -0.345822784199    3.121602961957
H      0.591097374149    0.390154413214    4.711084384077
H     -0.520154838343    0.767354226253    3.368534555085
C      3.450255311009    0.538605085683    4.107397440265
H      3.021687233428    0.328647808539    5.101829953379
H      3.309106702794   -0.374852372603    3.505405257709
H      4.531070719719    0.696621104325    4.232938980754
C     -3.344711194218    4.540175569851   -0.642426136417
H     -3.430062272363    3.477916931492   -0.926366509517
H     -3.769918045898    4.658217535010    0.364049202805
C     -4.012810833323    5.446627792792   -1.656811535490
H     -3.593545477241    5.315664479491   -2.665815210083
H     -5.088277235746    5.210672500851   -1.703011434735
H     -3.910358714282    6.503711797328   -1.363185907735
C     -0.604059508659    6.427401350161   -4.624317895811
H     -1.063991579554    6.948819721401   -5.474571364488
H     -0.843541703711    6.998233557114   -3.712088233445
H      0.489024640809    6.406930780312   -4.748133999772
C     -0.401838707704    1.597598737154   -4.668130305629
C      1.125828464693    1.408805144476   -4.648111798998
H      1.427641245308    0.653220417651   -5.391651613658
H      1.650438315507    2.345239405784   -4.897378590840
H      1.486412493303    1.070673324978   -3.663760637208
C     -1.095027130548    0.278717041540   -4.278812875100
H     -0.809031736534   -0.061332688798   -3.274445562670
H     -2.191290359609    0.389728989461   -4.288481281158
H     -0.830452011086   -0.510146935322   -5.002056575878
C     -0.849866739177    1.988671889716   -6.089467192370
H     -1.931441733161    2.189904469866   -6.127344504516
H     -0.330700812612    2.892197400049   -6.441805699638
H     -0.625030775677    1.171959770691   -6.794634864090
N      2.022343278824    1.090136277159   -0.007709366404
C      1.330010237144   -0.066462285275    0.020297104497
C      1.998921595458   -1.311630885279    0.086192249648
C      3.386643243806   -1.368952083101    0.075151676445
C      4.088375506160   -0.144644996499   -0.000767492302
C      3.371034313546    1.037476913056   -0.036428116093
H      1.384555747869   -2.213034059802    0.117321862468
H      5.179561903452   -0.119870359000   -0.028734794954
H      3.882534363355    2.002173864486   -0.081591642978
C      4.126096933092   -2.680086545055    0.118163998156
H      4.823982205025   -2.710759773744    0.971045642025
H      3.438870345392   -3.533468548600    0.204117801198
H      4.730277397126   -2.816928182177   -0.794077341299
