74

C      1.642093140924    4.012015670042    2.253690190711
H      0.516816396702    4.331501425455   -3.867062390410
C      0.955526905741    5.288319140754    1.767740653711
H      0.276636021830    5.672062728741    2.546490468906
H      1.714713666564    6.056614258160    1.562708113069
C      0.204274241450    4.911491041484    0.492167688205
H      0.468091092964    5.481340572772   -0.406314035717
C     -1.270847642598    4.738614284883    0.643489807511
O     -1.819653821862    4.444639137311    1.690392394904
O     -1.929244449614    4.929728182712   -0.512951677159
Pd     0.995934958324    3.037497426652    0.214190908935
C     -0.494063215973    2.538856672207   -2.209204681560
O     -1.164261264656    1.739412215116   -1.528123560436
O      0.556484223794    3.149820724835   -1.815431699116
C     -0.905838192547    2.795251647096   -3.665518024335
H     -2.002550818095    2.831985833072   -3.700864448312
N     -0.437752712577    4.094595116914   -4.113400037885
C     -1.288010924625    5.089448095390   -4.500716212446
O     -2.491602890213    4.921581387434   -4.639921036148
O     -0.121695968578   -0.017706576619    0.007320989808
H     -0.507699178705    0.791625296890   -0.483926615430
C      0.851561778989    2.894191487221    2.628243518957
C      1.425158057524    1.740323926294    3.221112577662
C      2.812691586820    1.693055100578    3.424740441616
C      3.599474008843    2.798179306949    3.027306883177
C      3.042143651346    3.928149135389    2.448860653443
H     -0.237419841401    2.996544259078    2.610290324593
H      4.680244934223    2.759210821717    3.191697461327
H      3.675375455253    4.775798882765    2.173763876496
C      0.535004051177    0.599160616454    3.640718614927
H      0.827446436807   -0.342423742803    3.146886945552
H      0.598550902496    0.417608161254    4.727316984237
H     -0.515440614956    0.796445316996    3.387605373883
C      3.461561417434    0.489180024562    4.059326122490
H      3.040118044185    0.279723584724    5.056801121415
H      3.301572730385   -0.418166469507    3.452698322580
H      4.545918056772    0.629786280915    4.174398199549
C     -3.347891802929    4.657551577162   -0.539745056280
H     -3.468188225756    3.597196719531   -0.817935881796
H     -3.748562003445    4.790579054208    0.474980843129
C     -4.010482691232    5.578564916630   -1.544441236835
H     -3.611591563701    5.433750935763   -2.559800097504
H     -5.092374457106    5.370521910669   -1.570861097632
H     -3.875214105757    6.633297226031   -1.255577868637
C     -0.637733948176    6.444215554762   -4.732270445329
H     -1.123102613994    6.926809877899   -5.591541177343
H     -0.819545526030    7.077395288290   -3.848506745620
H      0.447249746917    6.384553950696   -4.904901746007
C     -0.397481323071    1.673267078119   -4.602781047711
H     -0.710419758966    1.955522032345   -5.623537066651
H      0.707372417670    1.699005352987   -4.600666955305
C     -0.870169800255    0.236684014361   -4.311107090048
H     -0.509655738533   -0.046995968585   -3.307071546143
C     -0.242354373980   -0.728784940669   -5.325725039395
H      0.858492813078   -0.664758427601   -5.320905777858
H     -0.518786240025   -1.772783365178   -5.105902310263
H     -0.583417583586   -0.504302807296   -6.351350229774
C     -2.399007413416    0.110964444737   -4.298525180559
H     -2.703155104316   -0.940397633698   -4.167398919492
H     -2.840505639687    0.685762790406   -3.471732844243
H     -2.837605966002    0.469042948902   -5.246336318160
N      1.928259016901    1.055737262220   -0.021122442043
C      1.196145832938   -0.073043579732    0.010766561176
C      1.804898598014   -1.360464005173    0.077072641775
C      3.192674195469   -1.412696784889    0.054704448321
C      3.951250058942   -0.233085264131   -0.029871458454
C      3.275067021804    0.974053710161   -0.061098230891
H      3.692619479763   -2.385112519475    0.088166318739
H      5.041325430863   -0.256439338477   -0.066467315363
H      3.810303355016    1.925205530395   -0.110491888886
C      0.930301799590   -2.581201351258    0.137400608343
H      0.275130743370   -2.558981810700    1.023583541402
H      0.259207584428   -2.626537562940   -0.735450415889
H      1.532628756440   -3.500597628792    0.168992209173
