62

C      1.373068083565    2.812219766720    2.236024355287
H     -0.574294062817    4.447902051493   -4.572045018107
C     -0.620475220440    4.624660612862    0.653152826052
H     -1.225318479012    4.675217826716   -0.258779469891
H     -1.117648364771    4.323354239557    1.578564537340
C      0.636399276886    5.191573195059    0.711023833406
H      1.138849368858    5.333879858702    1.669845089823
C      1.251055622853    5.944857514869   -0.430077550950
O      0.669098197824    6.376613793410   -1.394109124990
O      2.570201741584    6.119495543529   -0.216992357671
Pd     0.887084510893    3.025564247542    0.303063792195
C     -0.644971405119    2.437091090246   -2.158995035453
O      0.294869113867    3.189852512485   -1.768637223234
O     -1.075020796065    1.416047161971   -1.575369821253
C     -1.327186892602    2.774690404912   -3.493356332370
H     -2.373812560628    2.452436732307   -3.395579635255
N     -1.266325793623    4.160192662409   -3.892475066098
C     -1.903893541450    5.117677815448   -3.155365389651
O     -2.583298547453    4.825152251506   -2.179987010562
O      0.054112779414   -0.037302766896    0.084685475561
H     -0.414514575553    0.665323905701   -0.544379719461
C      0.527149315975    2.046400927121    3.049387004624
C      0.813036111804    1.817388338288    4.406187019809
C      1.987539704053    2.369795354262    4.968256262317
C      2.829611845941    3.128793262123    4.145592650275
C      2.534963791855    3.355303692492    2.795067621651
H     -0.373680252460    1.591792832189    2.625762134329
H      3.741615933922    3.559594653160    4.571264892009
H      3.219796197314    3.960670982743    2.193839810138
C     -0.124791466936    0.985001503469    5.246363034712
H      0.383359500512    0.101245666659    5.669121427896
H     -0.520144262682    1.556866271662    6.103589424089
H     -0.981548983770    0.628487015498    4.656594391337
C      2.329409725892    2.146378014621    6.421329954705
H      1.543387147030    2.534757348129    7.091793710280
H      2.436544266082    1.073381912434    6.656741979974
H      3.273106663952    2.642979454068    6.691148891944
C      3.294694415707    6.854027408088   -1.218634778489
H      3.207958982615    6.322488473782   -2.180381189259
H      2.817690607001    7.838806267052   -1.350659872635
C      4.734003878246    6.977944902048   -0.764644625604
H      5.200950962387    5.987495979482   -0.649888403694
H      5.313690339491    7.547052032453   -1.507957018275
H      4.799317419949    7.504032476770    0.200182873692
C     -1.710850843683    6.548434267092   -3.617860541257
H     -1.458423341213    6.624816849587   -4.686485158877
H     -2.632966384083    7.109679769351   -3.415354737747
H     -0.898308484577    6.989024540401   -3.021249809476
H     -0.862894725290    2.154350212829   -4.276379365067
N      1.984231058018    1.222547896669   -0.020236131632
C      1.359986510918    0.025764619392    0.034911555262
C      2.130755224108   -1.162557989950    0.063694799283
C      3.507900746880   -1.088404597554   -0.005435848759
C      4.155030836150    0.162974385030   -0.109953872752
C      3.332614165317    1.281031300162   -0.104612237137
H      1.597882815641   -2.112126790506    0.125476951003
H      4.102078657736   -2.007191819862    0.010388430884
H      3.762909351983    2.284363166258   -0.154148393454
C      5.654252219153    0.280239049514   -0.206560739084
H      5.973219822087    1.331977893893   -0.254158852318
H      6.150252312134   -0.180647266327    0.663862581642
H      6.040936119198   -0.227763784233   -1.106064100663
