75

C      1.369941035094    3.899351636588    2.525490673907
H      0.901398319205    4.238303384499   -3.865841976223
C      0.611916560987    5.156909875309    2.097445833776
H     -0.172719839021    5.393309802633    2.834275353971
H      1.308536715491    6.006160027795    2.050437078522
C      0.026913199437    4.855933479832    0.719268397548
H      0.326011461001    5.535418692230   -0.087483576399
C     -1.434680072709    4.555652047674    0.691327487593
O     -2.064057336964    4.117084259235    1.636853461786
O     -1.981935473652    4.815726030296   -0.509168567252
Pd     1.032234492778    3.105894512987    0.349372385977
C     -0.283071073845    2.625296509007   -2.164361045977
O     -0.842844557908    1.672149997161   -1.589675000682
O      0.664969495966    3.332250703936   -1.687562122961
C     -0.770327580377    2.989625804230   -3.574334384548
H     -1.825596548588    3.284451800914   -3.466502190688
N     -0.077661532424    4.142322511293   -4.108469650727
C     -0.749651926814    5.220160284483   -4.609611739346
O     -1.963349476360    5.233069868339   -4.760201988203
O      0.372638967198   -0.069415105196   -0.164801254068
H     -0.099701173312    0.722318264175   -0.604237474768
C      0.655023884555    2.687668591662    2.714501959192
C      1.272971235858    1.531909277227    3.254111361085
C      2.634643661816    1.579972321546    3.592051538602
C      3.350109986537    2.780455267311    3.380913717926
C      2.747068017977    3.913310502182    2.855922148405
H     -0.431466826345    2.698321342844    2.587646954806
H      4.409701054093    2.814636881724    3.650443784419
H      3.321819279173    4.834456940338    2.727667155087
C      0.456598936926    0.284396421980    3.473250758648
H      0.858967720228   -0.566688667144    2.899173856681
H      0.460371232794   -0.018493257522    4.534162803706
H     -0.586752654648    0.429497743663    3.162117004445
C      3.328947363820    0.375496994246    4.175230089964
H      2.844245728402    0.040606743888    5.107720269085
H      3.297034324704   -0.480467826692    3.480171457896
H      4.383663500348    0.588198326514    4.401656077997
C     -3.369752429510    4.479117568775   -0.713393259103
H     -3.408929367040    3.426043385805   -1.040359600691
H     -3.895501129976    4.549675949315    0.249672770820
C     -3.948662912776    5.414963392295   -1.756131270262
H     -3.404919925678    5.354221237005   -2.711519429606
H     -5.002210650851    5.151100319547   -1.942221812103
H     -3.916446660707    6.458115126423   -1.403328227168
C      0.113030060512    6.419471432152   -4.967877376261
H     -0.194447169920    6.792469875644   -5.955232257280
H     -0.082248737166    7.223171772270   -4.240129729142
H      1.190921954256    6.200749798278   -4.976768152824
C     -0.746827046998    1.759120653083   -4.519776279770
H     -1.357643796128    0.977569043681   -4.045171181824
H     -1.252476045353    2.059452639859   -5.450421325375
C      0.634129811976    1.226186360422   -4.828478799510
C      1.372037253743    1.722654041056   -5.916321482947
C      1.223791684132    0.237045340984   -4.021928221787
C      2.658488523938    1.249329961886   -6.190790641014
H      0.926067696192    2.485391797487   -6.560408218309
C      2.509695700348   -0.238810440810   -4.294494800934
H      0.665004216461   -0.161567860892   -3.171240988801
C      3.232588989423    0.265999509609   -5.379693093409
H      3.212088520589    1.645513456450   -7.046523335680
H      2.946587531515   -1.011419466882   -3.656133594464
H      4.236178406838   -0.109548738751   -5.596452727067
N      2.238756123987    1.290723443798    0.035006656471
C      1.679410501771    0.071424507101   -0.070300916053
C      2.489451709050   -1.089294115827   -0.054276703305
C      3.864205076206   -0.957639123855    0.018751323115
C      4.458154808571    0.321541513224    0.072791249880
C      3.583484629567    1.402101591774    0.082239520562
H      1.997955380403   -2.060740188208   -0.122090991459
H      4.495225402890   -1.851754428856    0.019557690667
H      3.969215271459    2.423650753329    0.140095872830
C      5.953056869084    0.507454597947    0.115406486302
H      6.223205387549    1.569615461759    0.210110591172
H      6.403585745316   -0.031399525203    0.965521175961
H      6.432112123310    0.123014564454   -0.800805416704
