74

C      1.682657980559    5.931108266817   -1.003243442179
H     -2.790620222800   -0.044953893576   -0.524035399185
C      1.337642033536    5.452152381154    0.343324668983
H      2.290759464583    3.453032708532    1.108954445766
H      2.080149587216    5.652934979269    1.121375885070
C      0.085701316311    5.040658703869    0.790626191182
H     -0.787324955357    5.052427790217    0.133148480816
C     -0.199070625649    4.950431304429    2.258322847755
O      0.606010903450    5.127564499280    3.146760085212
O     -1.486240263942    4.638353641216    2.437354839377
Pd     1.068935073262    3.159895860981    0.262645990301
C     -1.846037350802    2.920581835470   -1.094316115911
O     -1.955118716144    4.090679449044   -1.436240157170
O     -0.752796643732    2.378218081014   -0.646883694093
C     -3.035797789694    1.935072244635   -1.273289452451
H     -2.810722901874    1.405694037752   -2.214693496341
N     -3.050974978770    0.893474658747   -0.249244942146
C     -3.199750641782    1.147348226897    1.086300186730
O     -3.405717397896    2.269892282506    1.522017495558
O     -0.047532960523    0.203674064306    0.353208874043
H     -0.456873220150    1.070308580404   -0.031018915572
C      2.944649944793    6.525021237491   -1.199774284550
C      3.343852804722    7.043732524272   -2.435467667117
C      2.448828915457    6.963235314983   -3.528986246743
C      1.193118848420    6.365041510951   -3.332660080445
C      0.800104169569    5.853503193126   -2.098448546083
H      3.633982917173    6.589322482060   -0.352268521001
H      0.500433899284    6.300460964691   -4.176487938591
H     -0.180882242245    5.383237089475   -1.988769902261
C      4.702496409538    7.680838727868   -2.594614790935
H      5.305635417454    7.168896934952   -3.363781151792
H      4.622657770810    8.734775628254   -2.911167294473
H      5.269621979175    7.657050229317   -1.652822067836
C      2.832112582605    7.510265182904   -4.880146130084
H      3.053529716090    8.590346300278   -4.832485378729
H      3.741239128325    7.023629894292   -5.273311222718
H      2.027506979901    7.364269977590   -5.614910380534
C     -1.972852583090    4.392050411017    3.767903359340
H     -2.757060103863    3.636483177588    3.623839219014
H     -1.155133048032    3.969940129810    4.371642648097
C     -2.515737792627    5.662134424594    4.401240087828
H     -3.300326398867    6.109235323362    3.771252555763
H     -2.955710056754    5.430844953757    5.384910675392
H     -1.715584665016    6.403155885406    4.550321567641
C     -3.052278951635   -0.067868450711    1.989025012372
H     -3.535034777920    0.143264729661    2.951449008682
H     -3.492382968206   -0.974895952808    1.546087901713
H     -1.980228319334   -0.257867200467    2.158483016100
C     -4.394226571389    2.648725342437   -1.420445164712
H     -5.181301108189    1.896277163595   -1.234469659718
H     -4.474071285148    3.394670274572   -0.617436116545
C     -4.662207647506    3.316704964977   -2.783680390092
H     -3.799462918775    3.964975888455   -3.004788153402
C     -5.906550244376    4.209035550533   -2.690966946660
H     -5.783085494405    4.985457573218   -1.919228530588
H     -6.110621773653    4.715090129283   -3.648977720969
H     -6.802542895181    3.618243440069   -2.429935284623
C     -4.814682832012    2.298614583244   -3.922331585300
H     -4.981668053003    2.805576948170   -4.886813250791
H     -3.921775671619    1.663466788666   -4.045406923845
H     -5.676305059989    1.630268746377   -3.746225279449
N      1.971317724362    1.235630261560   -0.128072905339
C      1.242142366940    0.117201127778    0.107961314874
C      1.841517209167   -1.161613312181    0.103992216262
C      3.182609006851   -1.272202706495   -0.208846061251
C      3.911422182092   -0.117760402078   -0.525754458100
C      3.284349698951    1.125039898572   -0.475351038949
H      1.211691334084   -2.023402234803    0.326008804077
H      3.665508453880   -2.252592834415   -0.228585543316
H      4.963471584063   -0.177462156048   -0.806563016880
C      4.050001905309    2.376413525749   -0.802460959149
H      3.479393480755    3.020665264093   -1.488426663335
H      4.241139381353    2.966377405627    0.108401976145
H      5.016670637309    2.130351700508   -1.263379128179
