68

C      0.121340807544    4.946276811244   -2.744835047107
H     -2.835496648554   -0.045656580352    0.113380753803
C     -0.123809202342    4.839701253594   -1.301006799020
H     -1.106919344327    4.404398456854   -1.096931042617
H      2.366300274612    3.778273599263   -0.884945668001
C      0.483698912400    5.320444088025   -0.131461886995
H     -0.139425265519    5.232576961923    0.764741116498
C      1.634599712459    6.255104660798    0.038409660712
O      2.322563517793    6.773430222693   -0.813254692015
O      1.818062808824    6.491766686746    1.354054491699
Pd     1.108336295643    3.221890987520   -0.249427324880
C     -1.795318470215    2.809935683956    0.925364162582
O     -1.876238802100    3.928228351154    1.407609306094
O     -0.699923371779    2.257896583251    0.490026679627
C     -3.077475298473    1.945239355042    0.836989932326
H     -3.867423436403    2.655395202395    0.550139381704
N     -3.015585268712    0.907925886580   -0.178034572282
C     -2.974836144030    1.203910699572   -1.508769754613
O     -3.057258209956    2.355540412096   -1.918846606284
O      0.139414884681    0.219140830851   -0.639242492109
H     -0.327417548576    1.033569816536   -0.195598484463
C     -0.845269432120    4.329124432814   -3.572272979835
C     -0.764466002887    4.358482147168   -4.966601351968
C      0.320775826609    5.032275279121   -5.575005105626
C      1.281102457342    5.644826807479   -4.752900133421
C      1.200045568522    5.609576463825   -3.363447020667
H     -1.680654579144    3.800001010885   -3.104383654217
H      2.119907993304    6.168399383243   -5.220804523364
H      1.953696754313    6.102138057088   -2.751830554722
C     -1.826700049147    3.680330344137   -5.797302322556
H     -2.355839096239    4.398340867392   -6.447486243827
H     -1.395536565745    2.913882946248   -6.464098064039
H     -2.573247216778    3.191230296862   -5.155539262757
C      0.446174266400    5.094255056984   -7.075341598740
H      0.510408110255    4.085519673530   -7.518509674253
H     -0.432191655021    5.579087913692   -7.535016252713
H      1.340649988281    5.655330802661   -7.382150202760
C      2.869657697358    7.401681316332    1.708402762358
H      3.826667408706    7.011850850481    1.323019632474
H      2.693607490456    8.365875237446    1.203928426854
C      2.878779201667    7.543713283904    3.216494217712
H      3.062458556001    6.573945198249    3.704226170103
H      3.673068722658    8.241958656552    3.523574884077
H      1.915554988271    7.932932164871    3.580311218289
C     -2.785826533439    0.017957046213   -2.437809025838
H     -3.224646735890    0.255407450175   -3.415365179118
H     -1.705543952750   -0.156177682406   -2.567247787926
H     -3.237259197215   -0.905351149400   -2.043667518645
C     -3.405047298230    1.343636933554    2.204875521907
H     -4.367696479670    0.809101173562    2.179181246290
H     -2.619199097045    0.639254840883    2.526458519309
H     -3.467914703255    2.145633607578    2.953257510858
N      2.098733041774    1.308024457959   -0.067697352646
C      1.435531236908    0.207415934229   -0.437377209570
C      2.106246307908   -1.042983360446   -0.643723228834
C      3.443983977685   -1.140398279502   -0.394902058799
C      4.162561400788   -0.007159826003    0.087179836977
C      3.443935451073    1.218303990282    0.249376689763
C      5.541853428976   -0.063056688062    0.409589776929
C      6.200595417097    1.049839686461    0.894199644273
C      5.486801623577    2.255127615267    1.073409726887
C      4.142181410106    2.340667684672    0.759286684240
H      1.503208448741   -1.885640611975   -0.983122508008
H      3.972177095975   -2.086364190571   -0.542542032150
H      6.072857317970   -1.008605232922    0.270416229159
H      7.262954016871    0.999812724881    1.143148122023
H      6.000847108101    3.135009241698    1.468158840144
H      3.594574707313    3.272432237871    0.905164434179
