29

Pd     1.193850856379    3.076168569866   -0.614822188315
C      0.286598591809    5.738552007656   -0.534584588798
O      0.740456000744    4.821151126734   -1.373056931879
O      0.109669960567    6.892451563345   -0.836422140832
C      0.023475040150    5.202517272523    0.880430187079
H     -0.951455707125    5.589321614343    1.210617696429
N      0.066529072185    3.741464439740    0.882888711922
C     -0.734440752970    2.970124151977    1.618754479264
O     -0.855107304413    1.733039215644    1.475886962302
O     -0.007280798599    0.070376566865   -0.102723026984
H     -0.384074608910    0.882148431912    0.475200412562
C     -1.560364962728    3.628004681440    2.714653979412
H     -1.937972228618    2.831869804386    3.367519593756
H     -0.980650724408    4.352571127947    3.304068587772
H     -2.422426626835    4.157294484392    2.276582017575
H      0.790455078270    5.635104765762    1.549884371433
N      1.981528672435    1.225372714967   -0.046177831810
C      1.285722464782    0.056317946861   -0.104502061174
C      1.987405956428   -1.177856279851   -0.181763571345
C      3.362751729483   -1.191539611901   -0.125403609102
C      4.064115382764    0.027073733211    0.011376759890
C      3.332729956438    1.199558444672    0.044630846773
H      1.395928082223   -2.090303158426   -0.261612112608
H      3.908599578768   -2.137030920347   -0.170181401536
H      3.833254744613    2.166487192072    0.133831668490
C      5.564510951551    0.035450075284    0.122490958131
F      5.977251396482   -0.585165676590    1.242119763210
F      6.132223043931   -0.611174073524   -0.911079267040
F      6.058452904530    1.283614367045    0.145398814039
