78

C      3.657055023473    4.959606582920   -0.646447026893
H     -3.131770295206    6.008283522733    0.370987324159
C      2.746689085333    5.310242102647    0.510517768005
H      3.281971022336    5.972557602805    1.216344384218
H      1.876654465670    5.889464543330    0.165068550304
C      2.258221213778    4.091472556492    1.289316075755
H      3.077157304197    3.421300952542    1.587068989881
C      1.418065299039    4.441681518997    2.489881867417
O      0.900507949840    5.520674101506    2.685007817621
O      1.296360917242    3.398313718081    3.335906348634
Pd     0.944402900555    2.989176868100    0.173245531902
C     -1.488906442856    3.542250918603   -0.219090065655
O     -0.598679273361    4.392542459860    0.084457106604
O     -1.176246585339    2.364304286801   -0.567286616313
C     -2.959592527102    3.963107394985   -0.156714624965
H     -3.498728150265    3.089848013011    0.240791199099
N     -3.135282148374    5.071777186279    0.757720630086
C     -2.793454949904    4.918860506101    2.076645434400
O     -2.570274499691    3.813464198765    2.551467949975
O      0.048753142765    0.094875533374    0.340268030248
H     -0.382662296087    0.960218037929    0.112184186910
C      5.031344339813    4.764537120548   -0.442300355505
C      5.900265338921    4.375710983500   -1.471054630906
C      5.377274315450    4.180011816731   -2.770611967121
C      4.007637253934    4.392327869801   -2.980781522694
C      3.155415585531    4.773856481478   -1.941227360795
H      5.444267324915    4.916406687834    0.560493962587
H      3.597050739734    4.252796589433   -3.985428578839
H      2.090594634085    4.928142101156   -2.137065882302
C      7.362485483193    4.145122814275   -1.183046779740
H      7.611461567013    3.074291808769   -1.267804257463
H      8.013686489945    4.693818190778   -1.883476250194
H      7.621339230808    4.461284879925   -0.161964010600
C      6.271171201075    3.748046966242   -3.906942157116
H      7.073551709166    4.481234708805   -4.099018475692
H      6.770803827849    2.789089724022   -3.687042755416
H      5.701436451048    3.624832103577   -4.839776835850
C      0.405678635064    3.562609506664    4.456860792916
H      0.674490268948    4.487740650500    4.991716449290
H     -0.620912744935    3.677206807486    4.072558886854
C      0.540225861186    2.340361691168    5.341750622770
H      1.572771899651    2.224215190270    5.707568748602
H     -0.126635994402    2.434782302064    6.213200930713
H      0.260729527310    1.425520969662    4.796567797969
C     -2.662403410527    6.191566328617    2.884475312842
H     -3.072269239074    6.023636068029    3.889947084972
H     -1.583873923289    6.400070164485    2.985735713084
H     -3.158397477557    7.058209221500    2.422836444517
C     -3.486270343828    4.289172841448   -1.569948524841
H     -2.895731996945    5.122118219345   -1.987478891740
H     -3.278807293575    3.409514189892   -2.199703702102
C     -4.960734032721    4.629374286478   -1.614166592931
C     -5.931111315173    3.638373050837   -1.390893441262
C     -5.393590241520    5.938856023539   -1.869819446211
C     -7.292034282383    3.949129297464   -1.416659359574
H     -5.616644394069    2.608541597077   -1.196871021909
C     -6.756021813928    6.254853541867   -1.897121318816
H     -4.654070539429    6.722860625160   -2.059866833164
C     -7.709870963828    5.260486223170   -1.668791941691
H     -8.031455002052    3.163134979494   -1.242142012685
H     -7.071334089001    7.281655203525   -2.100309717376
H     -8.775168622826    5.503815000710   -1.690382533107
N      2.068243442210    1.247916100316    0.178945768070
C      1.364187205489    0.091960286359    0.281813296824
C      2.021033321072   -1.157009317033    0.335335384116
C      3.396513597788   -1.205773681260    0.236572507139
C      4.120906065388   -0.006363273065    0.079082941858
C      3.409423865557    1.190652344102    0.060076309860
H      1.407432195289   -2.052094497390    0.439994522966
H      3.926321458761   -2.158643866393    0.267135464361
H      3.939313006523    2.137640880521   -0.057081424462
C      5.601377451533    0.041773959078   -0.067805518031
O      6.246747276380    1.053562127432   -0.218696481180
O      6.152092929920   -1.185236943517   -0.013586650770
C      7.572703884248   -1.249340989674   -0.143826742570
H      8.064183679743   -0.665690631513    0.648940657960
H      7.839444557186   -2.309730762372   -0.058402337611
H      7.893362908757   -0.852650655367   -1.118992670047
