74

C      1.479816569264    4.019352533335    2.583293437007
H     -2.140321322006    1.748884541095   -3.377732959763
C      0.667517568761    5.253554253484    2.197257764146
H     -0.033752645899    5.514831262290    3.006710585596
H      1.346630871645    6.104072939426    2.042580532809
C     -0.063390888425    4.900344046495    0.902494361348
H      0.108389527887    5.570168117620    0.052171627065
C     -1.503759853900    4.550893123797    1.070440429667
O     -2.004680150963    4.163802060446    2.110846703919
O     -2.216863512776    4.688705738334   -0.064079203311
Pd     0.923388939942    3.157869234908    0.438618166110
C     -0.349268836647    2.821702021898   -2.139777180255
O     -1.032323067073    1.932793425923   -1.585915529551
O      0.585701869202    3.480124250812   -1.582466564554
C     -0.642537497879    3.182841318846   -3.608763034581
H      0.280402812933    3.021551576365   -4.191738626389
N     -1.634016059139    2.245224537595   -4.105586971591
C     -1.552243266413    1.692921891229   -5.353072337185
O     -0.754158005250    2.068948246269   -6.197732375353
O     -0.074686716754    0.182215578981    0.033550852098
H     -0.448839463518    0.981284688045   -0.478367600762
C      0.813055694813    2.788478103366    2.821335962101
C      1.504822762190    1.649842630285    3.311142079227
C      2.885961174903    1.733471166127    3.542083791892
C      3.547812454477    2.954508188101    3.280799969633
C      2.875387068146    4.070562068182    2.807948166540
H     -0.280247598662    2.773921614827    2.804673968066
H      4.624146615106    3.017118966604    3.463821190613
H      3.414802037228    5.005189789880    2.633552444408
C      0.740157513954    0.385029459820    3.604998628063
H      1.154450734643   -0.475083532617    3.053608078488
H      0.792565955340    0.125533276476    4.676490565704
H     -0.318129317848    0.481914547656    3.327672115165
C      3.656970970771    0.550625907809    4.071581927989
H      3.258091345138    0.207629583576    5.041165660868
H      3.595617037129   -0.309766764433    3.384095025504
H      4.720081029214    0.793354757405    4.210969969970
C     -3.588761214067    4.259362084258   -0.005119009718
H     -3.613018874175    3.199166786984    0.293854214070
H     -4.105629995281    4.829228874575    0.783835377264
C     -4.223316180267    4.472320272048   -1.363139494688
H     -3.720159445783    3.869725693861   -2.133629832248
H     -5.282554083645    4.172509455098   -1.328350602093
H     -4.175432504709    5.530362419096   -1.663901182068
C     -2.558747814498    0.587896389327   -5.640052746110
H     -2.022334690806   -0.276809078066   -6.057674885448
H     -3.136543321378    0.272054818861   -4.759111354631
H     -3.256440170722    0.940670279201   -6.415726523060
C     -1.027127244172    4.696927438835   -3.761069908022
H     -1.600919236005    4.986436774560   -2.863582758104
C      0.231370116043    5.572700314689   -3.822101679512
H     -0.041616972057    6.639868180339   -3.861602898844
H      0.878497094586    5.411221899251   -2.949872134506
H      0.815841296691    5.344241108062   -4.729988486846
C     -1.909543636068    4.947745246898   -4.990091293855
H     -1.402908504167    4.625244378022   -5.912684373576
H     -2.865356347888    4.407108230568   -4.926711585154
H     -2.135803008439    6.023090881464   -5.075726155178
N      1.967673450521    1.248067256014   -0.021084302320
C      1.242030638076    0.134052285688    0.009189800577
C      1.850552462782   -1.163113837211    0.043784235569
C      3.212222096136   -1.266494244866   -0.025915828690
C      4.011782752910   -0.091650490310   -0.146418772363
C      3.336657226513    1.169058305012   -0.147613707625
C      5.423953692503   -0.128965293689   -0.272752622763
C      6.150745371804    1.037915303295   -0.407629125441
C      5.480710944757    2.283069092835   -0.421562425288
C      4.105773341106    2.351418649058   -0.291378682923
H      1.192596451404   -2.031118170474    0.098169550526
H      3.698189178487   -2.246154685631   -0.013828805746
H      5.925897964817   -1.100412811213   -0.269705511465
H      7.237588290480    1.002038265535   -0.511750386547
H      6.056004247001    3.204362996789   -0.542975983634
H      3.586074461903    3.310894843036   -0.311426069681
