74

C      3.980705325219    4.921126691315   -0.222643127918
H     -2.912241718352    4.993445770331    1.379605718149
C      3.086580000683    5.170514825289    0.973984201448
H      3.681362393832    5.632668105687    1.783488016434
H      2.297435218754    5.893488290508    0.724077518027
C      2.442154544484    3.894751658140    1.523701403261
H      3.186356039503    3.106230791786    1.697044859749
C      1.667109121067    4.106358047917    2.787649934922
O      1.127560669870    5.137538670558    3.136423795941
O      1.614631698174    2.979579346818    3.540447195193
Pd     1.042518336746    3.107020114695    0.223535790659
C     -1.696357329721    2.960678487886   -0.898842290541
O     -0.579470204163    2.284417490836   -1.015214848891
O     -2.347463225737    3.418761130303   -1.810845538165
C     -2.197634858116    3.163451589972    0.570952902822
H     -1.565037561929    2.568012061756    1.251653272701
N     -2.095625675911    4.574192431192    0.945442880860
C     -1.018613924639    5.350402988602    0.785943345440
O      0.064861912525    4.949624569003    0.305956200475
O      0.025669187306    0.175648122125    0.160157143260
H     -0.325696324091    1.056088041014   -0.277157549311
C      5.344357615529    4.637855743662   -0.052557023964
C      6.194658308703    4.342426434136   -1.127327910977
C      5.663167871003    4.333788237626   -2.437851643454
C      4.304205150567    4.631837768092   -2.611667613688
C      3.470398964236    4.921004275726   -1.528390531388
H      5.763697694392    4.642101870995    0.959033029776
H      3.886335581698    4.636385335809   -3.622761448572
H      2.415210335182    5.149542938754   -1.701449999089
C      7.645876338896    4.014510643761   -0.881063877033
H      7.862477697078    2.964850822126   -1.141447620121
H      8.318931011248    4.645294394207   -1.485477427054
H      7.912573105673    4.152721902470    0.176853521909
C      6.536171412697    4.006378350183   -3.624006311549
H      7.375843535735    4.715781197444   -3.722717922711
H      6.984912163879    3.002608627875   -3.531462429412
H      5.963120288222    4.033681575337   -4.562378042507
C      0.865818994236    3.049955267786    4.761964880043
H      1.233086357902    3.898616222041    5.361353734233
H     -0.191255748593    3.260633925620    4.525526110055
C      1.026741515906    1.731469420892    5.490929733414
H      2.086055849306    1.534481901073    5.717131179098
H      0.470134811876    1.755364841385    6.440932428204
H      0.643237480843    0.894012295941    4.887518624742
C     -1.113522230290    6.787344235423    1.222978383347
H     -0.427917478634    6.906210969864    2.076711705730
H     -0.753066306575    7.431773413498    0.408320605713
H     -2.130445601213    7.089039511177    1.509361391239
C     -3.665121492313    2.707238601615    0.678912914433
H     -4.223517646311    3.218656802474   -0.119821898912
H     -3.687343565460    1.631283096792    0.442834218819
C     -4.301973735489    2.959067510928    2.028502035941
C     -3.932082802945    2.204057714373    3.155769260533
C     -5.263078864329    3.970252783175    2.191946860867
C     -4.500995731090    2.455824857333    4.405616463190
H     -3.195384038047    1.402111818559    3.049281603203
C     -5.833762230725    4.227005479470    3.444503303006
H     -5.584177515381    4.551313798068    1.321774857548
C     -5.452717676104    3.471476383007    4.555063142554
H     -4.205238808322    1.853103978769    5.268312631089
H     -6.583956576161    5.015243829868    3.547981119550
H     -5.899069035607    3.666824594168    5.533262809535
N      2.052075017623    1.287106814000    0.083390262030
C      1.326136215094    0.133080852018    0.150663555422
C      1.973818353624   -1.127792993945    0.211021842748
C      3.345548941808   -1.200424233439    0.115298933184
C      4.058480047512   -0.000640834415   -0.035457699771
C      3.390361832676    1.215354837953   -0.041241251352
H      1.346592619385   -2.015043586423    0.299183151990
H      3.883861159397   -2.148260209387    0.134122807878
H      3.946895017754    2.147673463116   -0.143038501894
N      5.516044275456   -0.027690869832   -0.177891782781
O      6.095044753485    1.040318741792   -0.303745570773
O      6.057942317376   -1.121931802419   -0.159659913525
