68

C      1.570740107832    4.002128598746    2.382114301978
H     -2.264254520048    1.674077200540   -3.348055967551
C      0.770160152910    5.230209447548    1.949885700174
H      0.080099418217    5.535372779305    2.753215778948
H      1.458176399404    6.063654540934    1.749850190707
C      0.024134058508    4.825003057207    0.680046766783
H      0.207676428659    5.441068030975   -0.207591630327
C     -1.420680773175    4.503619045867    0.865198077608
O     -1.925934595125    4.170766340913    1.922019669785
O     -2.127560619178    4.597809609284   -0.276848346116
Pd     0.981691182746    3.046948207144    0.316475232454
C     -0.332487959552    2.614360554140   -2.237068582530
O     -0.982926946416    1.707584316899   -1.670953506758
O      0.620761460448    3.272554636134   -1.716238100452
C     -0.668733951613    2.980681332022   -3.691003664361
H      0.176950469362    2.619415903428   -4.306977079389
N     -1.869314762724    2.258685704785   -4.079524890946
C     -2.200973199848    2.047794842254   -5.386911065785
O     -1.583944121864    2.547800046050   -6.314817074290
O      0.114155744276   -0.065957556744   -0.214048532750
H     -0.306041474932    0.752628964145   -0.667336717879
C      0.886046925726    2.806876836145    2.727297288996
C      1.568403489542    1.688003197017    3.271610094811
C      2.958727519801    1.753235540892    3.448129460142
C      3.641161337631    2.932931335949    3.070892317713
C      2.976968122703    4.030630539941    2.545666296405
H     -0.207559978972    2.815583782289    2.736859967148
H      4.726304178998    2.976013682359    3.198547477243
H      3.531653079976    4.935062096747    2.282977211374
C      0.787873067742    0.461474995841    3.668848213339
H      1.134960033783   -0.432367278535    3.123661407457
H      0.906171234234    0.239085970807    4.743011408949
H     -0.284295560837    0.584057484029    3.462689948356
C      3.721381859376    0.591867932449    4.033936756108
H      3.356736390789    0.336173367841    5.043167580256
H      3.606588310990   -0.316917323586    3.419345095191
H      4.795346080344    0.813880362304    4.109493774161
C     -3.506979554869    4.193308201491   -0.209765609496
H     -3.546738511353    3.130668644721    0.080182130385
H     -4.006756880825    4.765669145571    0.587900479156
C     -4.145971959644    4.429769960082   -1.562161264194
H     -3.657714303026    3.830105912793   -2.344798304325
H     -5.209729837924    4.146583924825   -1.523685667835
H     -4.084213529216    5.491008054635   -1.849306157400
C     -3.417191571323    1.161282872526   -5.616382903867
H     -3.135963063022    0.347516234122   -6.301500753692
H     -3.837867314564    0.734685528903   -4.694116675599
H     -4.193802161904    1.755141292231   -6.122755766368
C     -0.776479462379    4.496273905341   -3.900158846800
H     -1.552161397753    4.929248386195   -3.251596663341
H      0.182940638944    4.975552564215   -3.660913414236
H     -1.024114384398    4.694921188987   -4.951653948166
N      2.070782932459    1.153850032151   -0.006882453598
C      1.419439299636   -0.028600184446   -0.111511290256
C      2.133949986167   -1.252745770517   -0.085004381649
C      3.511741909682   -1.236877340096    0.003349096019
C      4.185185806139    0.000989033836    0.072396154468
C      3.410884729672    1.159597682608    0.064338376795
H      1.563251496849   -2.178919931538   -0.160561199019
H      4.083868213273   -2.165982294650    0.010281902360
H      3.901093567716    2.132969889476    0.130502682910
C      5.661060589658    0.139932139952    0.177130316494
O      6.244272541699    1.192549347647    0.307330863135
O      6.288789997142   -1.050314307347    0.117674254084
C      7.713366687181   -1.018875933198    0.207242019619
H      8.035943548787   -0.574343685465    1.160963810658
H      8.047002604495   -2.061594129818    0.140353334474
H      8.143075100756   -0.426504307102   -0.614550009112
