77

C     -1.483168742635    3.801817787222    2.002316967042
H      0.066724939230    4.597299376184   -3.457635931322
C     -0.173510522125    4.383394227687    1.651634781745
H      0.476083677795    4.488092571359    2.526064621602
H      1.666364938987    2.911159212986    1.592262424744
C      0.300479296337    5.063964096672    0.522210572530
H      1.261566782651    5.574733454786    0.637576023042
C     -0.439548083112    5.638322227362   -0.646602206040
O      0.125936964337    6.269669548652   -1.512741939225
O     -1.762818320204    5.460260651062   -0.598367214228
Pd     0.992681371343    3.008672757687    0.227981683571
C     -0.592932751260    2.446579163897   -2.365690485108
O      0.285455563506    3.170578758760   -1.809412712887
O     -1.194267542177    1.487243529802   -1.823227674744
C     -0.903601761277    2.759565851565   -3.832604715880
H     -1.981727920364    2.615629769121   -3.995448680042
N     -0.579863038080    4.151185527193   -4.102962778136
C     -1.075316426073    4.829395757940   -5.177560549396
O     -1.848044340172    4.323059885226   -5.978821962562
O     -0.135037130719    0.024175847698   -0.114328637748
H     -0.564462815337    0.755058652434   -0.736630018131
C     -2.326605363681    3.125260190505    1.101029590755
C     -3.541401169180    2.564320690609    1.501319284947
C     -3.955922122467    2.696732646334    2.850136619787
C     -3.112894515621    3.361891298200    3.751418091411
C     -1.887344199869    3.887675280213    3.346869399421
H     -2.017857908650    3.001880738740    0.064962777941
H     -3.417790758960    3.455971549627    4.797339697195
H     -1.241400068483    4.379538696526    4.079324814996
C     -4.388797007713    1.821006553506    0.497824306318
H     -4.619712854631    0.798976987682    0.841659933576
H     -5.358268430103    2.322882363683    0.333443044422
H     -3.874500398088    1.739119614689   -0.470045287471
C     -5.266853696448    2.116355642247    3.313574322039
H     -6.116115907849    2.528402776735    2.742540850778
H     -5.297525907802    1.022715603501    3.169883313260
H     -5.444088919839    2.321514257930    4.379124009508
C     -2.551487166938    6.068811521634   -1.642178242993
H     -2.282762837077    7.135001096086   -1.708317385312
H     -2.279571908692    5.599149210987   -2.599127544293
C     -4.014430436127    5.870423896755   -1.306658222824
H     -4.267181797022    6.337245794489   -0.342248107912
H     -4.638112817924    6.329971607740   -2.089090812197
H     -4.268454015558    4.801159792529   -1.250178250928
C     -0.582301059299    6.263434820045   -5.311864775747
H      0.217155103683    6.297612210533   -6.070123213500
H     -1.409771262164    6.885258231341   -5.681260854123
H     -0.193103844317    6.674178463235   -4.368649129363
C     -0.132576820820    1.805758943885   -4.782290886646
H     -0.368346381006    2.147413599953   -5.803884198528
H      0.947024797817    1.978252882537   -4.626918637362
C     -0.433287196632    0.299053069544   -4.678491664195
H     -0.160467002932   -0.041593845196   -3.664337738327
C      0.440830655129   -0.467429913261   -5.680861274816
H      1.513012519891   -0.265129769967   -5.521977527377
H      0.287896194212   -1.555466708572   -5.593226340616
H      0.198901110614   -0.179076518927   -6.718451384709
C     -1.919402202854   -0.022497002796   -4.885281198139
H     -2.085218295361   -1.112359231156   -4.897535439167
H     -2.536776263966    0.393244643035   -4.075512782295
H     -2.285858512523    0.383706282891   -5.843827696797
N      1.889759966117    1.124594344701   -0.093944818603
C      1.170184478774   -0.002588779937   -0.094595431635
C      1.821513431292   -1.293847580677   -0.046088841642
C      3.245033876833   -1.348825564374   -0.035846983023
C      3.960021089707   -0.113961760404   -0.084165005858
C      3.263193014708    1.060685890941   -0.107494251957
C      1.065708214058   -2.490988032338   -0.020888292850
C      1.708526545246   -3.714355700715    0.026480314133
C      3.121490013665   -3.775078807660    0.043277345545
C      3.877253388255   -2.617534159610    0.010561334775
H     -0.022339110542   -2.420181131825   -0.039063228146
H      1.125930852836   -4.638350026528    0.047631902896
H      3.619091621284   -4.747714459827    0.079060305825
H      4.969054746846   -2.666365761109    0.019073039320
H      5.051263961812   -0.103593846876   -0.094431482143
H      3.776246146171    2.023099900326   -0.129313312724
