78

C     -0.127364269348    4.042877287036    3.415071579442
H     -1.927404441212    5.514054711052   -3.425511556802
C      0.950789237663    4.422888838484    2.432074980929
H      1.834889888618    4.871412813754    2.909618349266
H      1.510778054091    3.367002102031    2.113258238941
C      0.586511336904    5.102729754375    1.174715002761
H     -0.462255354531    5.335680185429    0.968608563251
C      1.592933604971    6.053779436636    0.627624279057
O      2.744085306479    6.136423956789    1.006470259888
O      1.095928339664    6.814860058673   -0.368012067802
Pd     1.078620757639    3.262307260647    0.420122198168
C     -0.936778895780    2.929042308603   -1.615593611126
O     -1.315943004522    1.880629289906   -1.059866728726
O      0.166528922379    3.536265193149   -1.438749605721
C     -1.876827425769    3.520176844817   -2.686754783210
H     -2.855290235634    3.047742177479   -2.499574734477
N     -1.992810718745    4.962320950664   -2.578632679777
C     -2.287617873169    5.577617087347   -1.401616720420
O     -2.430446837872    4.951032802033   -0.357658434945
O     -0.081184729314    0.150583749718    0.230600214998
H     -0.529592968356    0.973966451159   -0.232119324835
C     -1.424030921421    3.705606051847    2.995041398886
C     -2.429179556637    3.365441903252    3.907430347728
C     -2.131886841091    3.351584927895    5.292382038654
C     -0.835598678966    3.685468897806    5.704876601914
C      0.158373258814    4.027111647874    4.784858998788
H     -1.671013258783    3.710605878577    1.929860976818
H     -0.597933632468    3.680326157242    6.772548885141
H      1.160135892176    4.287207050703    5.138665966841
C     -3.810230075048    3.019833088719    3.407744422844
H     -4.089246408785    1.984998010516    3.671124451215
H     -4.577979853678    3.674723171618    3.853834813174
H     -3.873198895268    3.120906985956    2.315186887927
C     -3.188226496538    2.984330604714    6.304076040604
H     -4.052080645019    3.669334148301    6.256531617620
H     -3.585332240882    1.970303719651    6.126573282740
H     -2.790823404189    3.015387716721    7.329031049891
C      2.035834378244    7.677951938413   -1.030729359454
H      2.458912306771    8.380537911176   -0.294327353152
H      2.872493501828    7.067045650294   -1.406309974690
C      1.318796465696    8.398357611827   -2.153344261373
H      0.508563934451    9.036516701779   -1.767738963742
H      2.028771898184    9.040463392490   -2.697713342777
H      0.885681858831    7.680149742894   -2.866539550797
C     -2.381232456364    7.091187516283   -1.444336332123
H     -3.216842890453    7.411469574004   -0.806878403344
H     -1.452089037594    7.498201940845   -1.016364187248
H     -2.514161888847    7.496855694009   -2.458378236214
C     -1.370676604558    3.118933509568   -4.088262305029
H     -0.342649272479    3.496079235037   -4.206702020591
H     -1.315690876776    2.018614051155   -4.105404300815
C     -2.240211977382    3.612217069870   -5.225600408422
C     -3.520385426870    3.072296660507   -5.440431045536
C     -1.797388653100    4.632248156669   -6.082845887964
C     -4.331593154377    3.539991347725   -6.475768204474
H     -3.883346673696    2.271583583947   -4.789333812818
C     -2.608329864163    5.104727528849   -7.121467172495
H     -0.796228744368    5.052267712479   -5.944709064934
C     -3.878850261530    4.560536540469   -7.320031768038
H     -5.322349523798    3.103773211747   -6.628052916959
H     -2.241329061140    5.896697974847   -7.779658219884
H     -4.513638075313    4.925097255312   -8.131599060299
N      1.929369657620    1.277322336021    0.076487765671
C      1.218356015242    0.125512779913    0.177464683315
C      1.885383352332   -1.126728036161    0.247663122548
C      3.260067316986   -1.177547193581    0.163842910292
C      3.988369462815    0.022727303701    0.008302674316
C      3.269209782520    1.214419820919   -0.022954749491
H      1.271412238194   -2.022260337974    0.348839547408
H      3.790242328093   -2.130276022621    0.204709971534
H      3.807332367593    2.160755233844   -0.120228047399
C      5.467426454708    0.086928171258   -0.110818765954
O      6.104686917909    1.106207759669   -0.248128534973
O      6.034947683544   -1.135032478066   -0.048582374379
C      7.457144041904   -1.174238448209   -0.155019194864
H      7.926737359128   -0.598923573126    0.657297953160
H      7.740366854640   -2.231796680414   -0.085764951673
H      7.789883448421   -0.751623365068   -1.115258546340
