71

C     -0.177241311804    3.992242131308    3.354140985617
H     -1.458449683648    5.501863341158   -3.374019615661
C      0.956591259468    4.374435048199    2.437603953209
H      1.823026383254    4.794162164788    2.970667380584
H      1.519282451685    3.320735041382    2.119257505907
C      0.669282818392    5.089345814959    1.178705610659
H     -0.361292487823    5.368284653732    0.941627942870
C      1.734092289889    6.013717927292    0.698223739983
O      2.875567389188    6.024835095018    1.114222477459
O      1.305817599165    6.840237781782   -0.276455644087
Pd     1.144975224900    3.252111165306    0.407832821264
C     -0.844005894143    2.923432009766   -1.645355645372
O     -1.210721427178    1.880853899201   -1.069164829150
O      0.253410853058    3.545250021412   -1.462557331584
C     -1.819732209325    3.514940951171   -2.687983531444
H     -2.802337881646    3.130589937389   -2.373694749297
N     -1.859927484047    4.965205343297   -2.616190324454
C     -2.161535304213    5.609972346764   -1.454514924814
O     -2.468466448491    5.004220443183   -0.434321853344
O      0.004144044832    0.142874791934    0.226432952938
H     -0.443996272848    0.962152889707   -0.244116150308
C     -1.463111024588    3.715308908583    2.862887037494
C     -2.520023174038    3.375172051900    3.714722417046
C     -2.287160101324    3.296603648592    5.109791158391
C     -1.001079744031    3.569905779465    5.593373615751
C      0.044597189756    3.913875241813    4.733779737232
H     -1.662815743149    3.767295131524    1.789275007180
H     -0.813271567645    3.514557217175    6.669470755097
H      1.036607904537    4.126298907910    5.142738662089
C     -3.886405646706    3.097712136524    3.138327004566
H     -4.204320228550    2.058961841874    3.333413015831
H     -4.654754443000    3.750455140402    3.586227387621
H     -3.897400903178    3.258846932695    2.051265731353
C     -3.399977029800    2.925180675735    6.057139184943
H     -4.237191464988    3.641838033750    6.000929331737
H     -3.822162002204    1.934312815224    5.817934052301
H     -3.048988746291    2.899162958537    7.099012303221
C      2.301187361386    7.707117589055   -0.849927196165
H      2.742227216475    8.322147619853   -0.049082099011
H      3.114208803068    7.087134273487   -1.261152605147
C      1.646209893027    8.556308470942   -1.918801084670
H      0.850349899508    9.188678777821   -1.495828913268
H      2.397260371829    9.216138100662   -2.380500121728
H      1.208263275580    7.928881433771   -2.710278309317
C     -2.064878954733    7.123906414350   -1.489863582320
H     -2.873325427234    7.542487907251   -0.875089268769
H     -1.104675186979    7.415813475430   -1.036706291512
H     -2.120937359616    7.541957799236   -2.506186975861
C     -1.559169103431    3.013451627376   -4.145810406150
C     -1.553601936546    1.472525103420   -4.159274624899
H     -1.465051748261    1.108087729691   -5.195254499877
H     -0.715668733597    1.056717870721   -3.581492324212
H     -2.481573784665    1.063852019117   -3.730503614957
C     -2.708762306654    3.504657159846   -5.049540866744
H     -3.680045464328    3.124155691254   -4.695001648372
H     -2.774828550608    4.603164145036   -5.083088839070
H     -2.562752743899    3.148393400102   -6.081946349608
C     -0.210826305620    3.524885810789   -4.690875835785
H     -0.178603398432    4.623956864288   -4.779823090410
H      0.625952484951    3.221709738319   -4.045133445414
H     -0.035343178985    3.120460176502   -5.700648740966
N      2.011792537120    1.269416166665    0.053039919024
C      1.301749769593    0.126701721800    0.154698894005
C      1.998723343876   -1.120020375392    0.208166690383
C      3.378016453131   -1.155678384345    0.113385905802
C      4.073235535551    0.055330677416   -0.036696642478
C      3.357135368136    1.240970501082   -0.058848397168
H      3.909337704072   -2.107538556831    0.143956398837
H      3.868765976351    2.200805812173   -0.155769334890
Cl     1.084595943553   -2.584034284830    0.376212454956
Cl     5.809740008959    0.070786848521   -0.179892868791
