75

C      3.992377689822    4.865053532445   -0.188981478440
H     -2.988571984369    5.073365066214    1.068921562017
C      3.069086854490    5.078850795588    0.991882051984
H      3.648792952589    5.512233502529    1.827956538149
H      2.295415376381    5.818699886680    0.743108939717
C      2.392010268906    3.797488569271    1.490776118566
H      3.116633102896    2.990656333509    1.658781408483
C      1.597017549544    4.001204911660    2.741692806716
O      1.067119110739    5.035334203432    3.098807517489
O      1.510142646678    2.862619858633    3.475766885716
Pd     0.989344459132    3.061111025425    0.156865780541
C     -1.757122133856    2.950439205839   -0.964293630167
O     -0.633615604926    2.300068026141   -1.112586675774
O     -2.454747448976    3.389837267136   -1.854908474246
C     -2.201699281865    3.168175913885    0.521348966666
H     -1.497633718760    2.637645573117    1.186046503263
N     -2.126277301750    4.599831331485    0.826458929079
C     -1.040916888805    5.364150158148    0.659447249645
O      0.062474605745    4.932845315377    0.263971719548
O     -0.059114808285    0.143398814943    0.108686566352
H     -0.393393035329    0.997928070339   -0.340659284409
C      5.355826817283    4.591660015189    0.002254465678
C      6.236697128368    4.358151435869   -1.063883558978
C      5.738279408311    4.396889603884   -2.386912938550
C      4.377517201776    4.673432232996   -2.580073210585
C      3.514765745724    4.905563556653   -1.506228030984
H      5.750864477298    4.566369790041    1.023456688909
H      3.982586772346    4.710956976010   -3.599594244616
H      2.459640031308    5.120782083882   -1.694608786794
C      7.696768481969    4.080473443481   -0.799147971061
H      8.009293239290    3.104059183489   -1.207877660320
H      8.347261553194    4.836491783099   -1.271872549034
H      7.916110193871    4.078620474341    0.278630250069
C      6.649058281043    4.156502939141   -3.565928057009
H      7.470271024544    4.892993924671   -3.605480751017
H      7.125143258788    3.161732631254   -3.520613779579
H      6.097995176677    4.219580952996   -4.515553593459
C      0.731012911308    2.924292912797    4.676131598076
H      1.109846381067    3.741007600308    5.312377321980
H     -0.311113913169    3.180441377080    4.418903265597
C      0.823518534035    1.579449417558    5.368454102559
H      1.868500462546    1.337316970683    5.616947943275
H      0.240961178510    1.594417734702    6.303085077880
H      0.428419568787    0.776048955096    4.727583652566
C     -1.148881613992    6.828217159725    0.996299832981
H     -0.503163607119    7.003456321195    1.871273021464
H     -0.750748662219    7.419806286423    0.159571763968
H     -2.175392571142    7.150375289037    1.220158071010
C     -3.628547340154    2.638129582927    0.770746771633
H     -4.295055919442    3.241839522028    0.126258834829
C     -3.733715029786    1.175349514437    0.317249306642
H     -4.740838408433    0.775017745048    0.503735739479
H     -3.538934671844    1.075851771255   -0.760143966936
H     -3.012389695849    0.538499996568    0.856693467478
C     -4.053971110884    2.811818715903    2.244626339575
H     -3.446872340369    2.130432085643    2.868386913058
H     -3.799093346537    3.828009185152    2.593170976916
C     -5.541899810558    2.573487242797    2.514028050403
H     -5.845251733416    1.539817878226    2.287430016241
H     -5.785391616372    2.760822830703    3.571861574766
H     -6.170645187206    3.243392577769    1.903686372252
N      1.977096348073    1.240298874904   -0.006982036062
C      1.252808420047    0.108978610702    0.066238563223
C      1.898946780709   -1.169719823166    0.097722636998
C      3.279788030397   -1.224077914866   -0.024182362330
C      4.002848786032   -0.025611318571   -0.172789134820
C      3.327725216735    1.176035897638   -0.156597880580
H      3.802944586404   -2.180675307305   -0.025932420964
H      5.086443598607   -0.037123338517   -0.296749544500
H      3.849303246770    2.126197933440   -0.263692185768
O      1.069140181209   -2.224265929751    0.227656622876
C      1.619537142094   -3.522149307734    0.247418984036
H      2.313914507943   -3.660365567882    1.096289523307
H      0.776676379800   -4.216671948886    0.358822397033
H      2.154205457568   -3.754316136521   -0.691663272957
