73

C     -0.122200303919    3.945601939796    3.358591101095
H     -1.692592185574    5.537908534232   -3.475880882643
C      0.995081190186    4.302510437530    2.411366334460
H      1.884637222899    4.700676616636    2.922121028460
H      1.516704567368    3.235439754716    2.075096287286
C      0.685544258344    5.034693244982    1.166621756368
H     -0.346153987490    5.332372429034    0.957279111091
C      1.751465273501    5.942890434839    0.664694651121
O      2.902991501527    5.939600021917    1.053840736684
O      1.314549224798    6.777213893230   -0.301814623508
Pd     1.098805995100    3.189579542144    0.371578396037
C     -0.939057115913    2.943369842188   -1.638241836501
O     -1.352924617120    1.929229256718   -1.054735168272
O      0.184299224184    3.523612259382   -1.478419271323
C     -1.881359971525    3.561110221439   -2.706212543149
H     -2.876080495936    3.163727489026   -2.454960526444
N     -1.902929765162    5.015128930316   -2.635236398885
C     -2.144998598477    5.673384373868   -1.468901873199
O     -2.370033703696    5.077915066843   -0.421949743484
O     -0.156287887368    0.126692336569    0.239155122272
H     -0.582185709356    0.948947787408   -0.211196623540
C     -1.410868381298    3.636641524360    2.894687017880
C     -2.453700711813    3.317996206007    3.771593289533
C     -2.204065724040    3.297680523847    5.165821151772
C     -0.915668438058    3.603226641108    5.622555528883
C      0.116413562027    3.923157343623    4.737194787982
H     -1.620212152970    3.644801708851    1.821519560041
H     -0.714657716448    3.592262783556    6.697732459470
H      1.111138628389    4.160740102456    5.125099397084
C     -3.823243193479    3.000399946795    3.224112419933
H     -4.131368543858    1.971106285712    3.476497285471
H     -4.592696288707    3.670510466919    3.643927696779
H     -3.845935201285    3.102930959626    2.130160765296
C     -3.301783714094    2.952080833079    6.140467697683
H     -4.149285331933    3.654714907078    6.064109192205
H     -3.713354456311    1.946504708783    5.948331361645
H     -2.939101549268    2.974551254561    7.178498383884
C      2.312398745869    7.621798631949   -0.899883560537
H      2.778689535683    8.237374915195   -0.113611942793
H      3.108607895666    6.986187047719   -1.320399760308
C      1.652728274437    8.472246975083   -1.965231176033
H      0.878661506884    9.125581746851   -1.533615899772
H      2.406729901652    9.111605074306   -2.450528948505
H      1.185047780274    7.844285006537   -2.739100068385
C     -2.082061832686    7.187996575833   -1.531510212730
H     -2.895750321428    7.600615700773   -0.919134297883
H     -1.126972330457    7.503066270780   -1.083812282672
H     -2.148687688280    7.591581559010   -2.552906216097
C     -1.499088115866    3.104713506986   -4.103962646310
C     -2.394729744774    2.351502076547   -4.876010397486
C     -2.048743962229    1.934327647626   -6.164976159129
C     -0.801773887687    2.269439683439   -6.699127010109
C      0.099807056425    3.018312658050   -5.935173055615
C     -0.243645952583    3.430903778809   -4.645589116268
H     -3.371529467205    2.088326348674   -4.461656464628
H     -2.757930226063    1.346551027833   -6.753564899843
H     -0.530645439728    1.944662924746   -7.707056762236
H      1.080922868127    3.275381572085   -6.343229464457
H      0.469775843361    3.991224022695   -4.036771744881
N      1.879341316858    1.191684881229   -0.012620740706
C      1.143703662958    0.078549985528    0.109986411516
C      1.777989231157   -1.211963630308    0.127243611850
C      3.154243717966   -1.284269985750   -0.026320689802
C      3.893866327003   -0.095611833309   -0.192927264957
C      3.225642230929    1.109651000896   -0.178761311748
H      3.665411016935   -2.247448618946   -0.030743401768
H      4.976459824701   -0.124034329641   -0.325051015517
H      3.754534416112    2.058770917971   -0.290956573718
O      0.941927915199   -2.257790704304    0.284819796971
C      1.479861393748   -3.559766888522    0.308199155033
H      2.191800936917   -3.695090809515    1.143088903670
H      0.633381800234   -4.245128980751    0.446639156377
H      1.992330027709   -3.809127811736   -0.639150994317
