47

C     -0.633822491806    4.299798304230    0.663483660222
C     -2.079522794396    3.822225141823    0.805809179538
H     -2.356077635094    3.802518929028    1.869509951360
H     -2.759996023058    4.514067179376    0.283105072894
C     -2.118932070701    2.420175812254    0.207215682500
H     -2.462340426716    1.617841772877    0.871798601881
C     -2.714799870881    2.311485417262   -1.154344335291
O     -2.787677294343    3.221343692582   -1.961105837047
O     -3.164277193876    1.071428407236   -1.412676296512
Pd    -0.103999383846    2.110113329954    0.041540345529
O     -0.104707866785    0.040185170795   -0.030459557045
C     -0.074668637712    4.443346295266   -0.632230658836
C      1.195322638145    5.040703809684   -0.833714306037
C      1.927127536909    5.485020133309    0.278409699108
C      1.385638285930    5.300158579226    1.571380431320
C      0.143780559335    4.717912833240    1.771068696704
H     -0.711958382448    4.249919229420   -1.499849480366
H      1.961730938040    5.640909630077    2.436440540928
H     -0.258236743922    4.611468136080    2.781907971237
C      1.717458092317    5.224639299546   -2.235992361569
H      1.901854067963    6.288391976516   -2.463204074348
H      2.678394293912    4.702794559122   -2.383512334182
H      1.008439804750    4.836975280870   -2.980691777547
C      3.260377832536    6.168292507318    0.106834653136
H      3.985643107310    5.522860837413   -0.416208466111
H      3.166755602746    7.086358596894   -0.497901852540
H      3.697130152195    6.448537370663    1.076118213995
C     -3.676127181353    0.822961818377   -2.729692603378
H     -4.509581504554    1.516600194770   -2.929478087568
H     -2.888659231767    1.047803753424   -3.468122558450
C     -4.113974973813   -0.625733755496   -2.794659760518
H     -4.900356275764   -0.832624603521   -2.052293854890
H     -4.513716580996   -0.854479502415   -3.795092925963
H     -3.267350187701   -1.300061938531   -2.594742593269
N      1.883885740320    1.054733767466    0.021964277298
C      1.183633269125   -0.110985491164   -0.016198229628
C      1.850951096810   -1.361846526409   -0.034700076030
C      3.234755693635   -1.355775936063   -0.001803705134
C      3.943643668147   -0.141210321314    0.048136935446
C      3.229184589360    1.057926873190    0.059878850091
H      1.263027617385   -2.279838304876   -0.069248816948
H      3.782945020634   -2.302411813570   -0.012488951316
H      5.034205106137   -0.128319049362    0.078208638037
C      3.916477351471    2.394044273302    0.114039179399
H      3.665617525781    2.990356637328   -0.777820478827
H      3.574615833720    2.968292176737    0.989525995173
H      5.008502830980    2.283610909532    0.166052758398
