75

C     -1.546696370015    3.728609665406    1.978106233724
H      0.337286375274    4.654544501952   -3.409884068684
C     -0.216193496705    4.306796372225    1.709144317445
H      0.394935968136    4.368278013182    2.614893814646
H      1.614132198198    2.812245848930    1.668859487814
C      0.315422160929    5.025518715550    0.630102041366
H      1.275585452282    5.519590908963    0.808432961080
C     -0.364849412607    5.652696002746   -0.548061843228
O      0.245250119415    6.311079227394   -1.362081966837
O     -1.690669774708    5.486740824809   -0.566696483131
Pd     0.993480611494    2.973178216979    0.285812362990
C     -0.485519426125    2.524713049811   -2.388325584615
O      0.363998224777    3.227418477409   -1.767841454637
O     -1.120318530697    1.552057804948   -1.920839481913
C     -0.729055858907    2.900104364522   -3.865139978452
H     -1.811356912539    2.831675922213   -4.053973524995
N     -0.303688244610    4.263017143813   -4.094864924194
C     -0.872239945281    5.056974595770   -5.054678271750
O     -1.749129698865    4.657128567203   -5.802437900763
O     -0.172423777324    0.029117181191   -0.188315832757
H     -0.558908327017    0.773649292301   -0.815730803762
C     -2.355273092877    3.096729781170    1.014614852841
C     -3.592452371618    2.535137808384    1.337808098570
C     -4.066592422636    2.621412439666    2.670607674551
C     -3.258661858124    3.242019859191    3.633712999761
C     -2.010631315376    3.768112852792    3.305364632948
H     -2.001179745871    3.009217041559   -0.010378254150
H     -3.609807722394    3.300077196477    4.667681204039
H     -1.393689869490    4.224038071467    4.084584574589
C     -4.400200618648    1.839822007087    0.269236620213
H     -4.656577051984    0.808313852897    0.563141284109
H     -5.356214168942    2.358532506480    0.080186340928
H     -3.842901930155    1.788289349615   -0.676731247886
C     -5.403043597349    2.039568524883    3.052028587166
H     -6.221413645710    2.483628476139    2.460244018411
H     -5.438619617053    0.952728113665    2.864524129204
H     -5.625965420863    2.205648219039    4.115803341035
C     -2.427512997381    6.140680342977   -1.620154144420
H     -2.126976688522    7.199654109042   -1.654416119431
H     -2.140170073077    5.684999459579   -2.579463810201
C     -3.905733265321    5.976742102601   -1.337007346663
H     -4.177114826121    6.431454599723   -0.371909915501
H     -4.490024122308    6.468700383409   -2.129982240833
H     -4.190570192167    4.914146534927   -1.310703519886
C     -0.303226443450    6.466448282088   -5.126296504259
H      0.542081189432    6.479543076482   -5.834219864736
H     -1.077589256641    7.139646928432   -5.517664343693
H      0.055433966171    6.825786318567   -4.149976577208
C     -0.040297868872    1.858363745527   -4.754265831653
C      1.203674731869    2.113969576464   -5.344173862260
C      1.833959377068    1.139881745722   -6.125043656549
C      1.228622087745   -0.104003841132   -6.321070492938
C     -0.012083164375   -0.367499431461   -5.730832412624
C     -0.641331978490    0.606400892750   -4.952788680509
H      1.673629020857    3.089097456910   -5.199905420386
H      2.802085414002    1.357043723810   -6.584470375654
H      1.718789380380   -0.864530899992   -6.934564561848
H     -0.495811791812   -1.336268773212   -5.882067128118
H     -1.606299971976    0.395221185290   -4.486196096767
N      1.870726916881    1.087848953809   -0.078852645689
C      1.132137044657   -0.025215327039   -0.136139403487
C      1.758148769439   -1.328602312868   -0.110563231218
C      3.179714562829   -1.410069192344   -0.062822407177
C      3.917369638082   -0.187907377579   -0.052839690235
C      3.242498111533    0.999764395306   -0.057884604668
C      0.981012349823   -2.511826154046   -0.144192976100
C      1.600646210188   -3.747555473173   -0.117225249241
C      3.011387576075   -3.834814012437   -0.063241376494
C      3.788020786346   -2.691073829110   -0.038846966470
H     -0.104613082673   -2.420355380199   -0.191049170139
H      1.001651789386   -4.660936005480   -0.141580636483
H      3.490565054242   -4.817142440235   -0.044412711088
H      4.878129470274   -2.760256220817   -0.002065378647
H      5.008501300822   -0.197570902549   -0.033814497251
H      3.772737507932    1.952807376147   -0.035614339310
