68

C      1.586988439316    5.845378582559   -1.223010020488
H     -2.708773727389   -0.274511494133   -0.729927324406
C      1.221431907773    5.435930860854    0.139731945613
H      2.204008418574    3.527115664654    1.051042234827
H      1.939666655080    5.700486249249    0.921520073510
C     -0.027801140570    5.008476864057    0.581163874133
H     -0.883317212548    4.954779733256   -0.096864504154
C     -0.348246344019    4.986166129655    2.044343170803
O      0.419372887520    5.261064918920    2.940470962899
O     -1.619627026901    4.605291825447    2.209330792017
Pd     1.014251919647    3.127106943145    0.203138763007
C     -1.854421835426    2.745985803650   -1.233024532788
O     -1.999938876297    3.897494337918   -1.612432526307
O     -0.748201497158    2.257496870933   -0.745772107532
C     -3.008845786825    1.721708376206   -1.409926872761
H     -2.791137065187    1.234226179076   -2.376913811288
N     -2.977342659268    0.650531143417   -0.419534722158
C     -3.080162753568    0.864252530899    0.927980024452
O     -3.288946813032    1.969515074682    1.403944561365
O      0.029027275610    0.008122605195   -0.146138209700
H     -0.403895113925    0.939491214018   -0.385128155978
C      2.847300937093    6.440309982267   -1.426575408659
C      3.266149769320    6.895086736848   -2.680325170530
C      2.392391736203    6.748583830331   -3.784239307613
C      1.137674530769    6.150749351607   -3.580238480734
C      0.726015666496    5.700970910095   -2.328486481608
H      3.520793809797    6.552837949794   -0.571572401514
H      0.462117467104    6.035346935526   -4.432492909595
H     -0.252269183839    5.227283701183   -2.212619547024
C      4.624316291112    7.530443204491   -2.848697686635
H      5.244891511143    6.977469509186   -3.574235326134
H      4.546057010248    8.563897850471   -3.227175912316
H      5.172460937844    7.563089068838   -1.896131303117
C      2.798185220379    7.224196824228   -5.155539833672
H      3.014318819267    8.306354154283   -5.162008863615
H      3.716697097746    6.721609089323   -5.504217522207
H      2.008280984433    7.034361002782   -5.896243570719
C     -2.123771720304    4.393724406317    3.539415788567
H     -2.833368849249    3.563046702100    3.423675775750
H     -1.291191676796    4.083013793583    4.188476044575
C     -2.795048447981    5.645464600468    4.079075691227
H     -3.595478765623    5.983514072292    3.402753720005
H     -3.243382494042    5.434774875746    5.063596294024
H     -2.067621590690    6.462361181937    4.202559232253
C     -2.879357883978   -0.374304536003    1.787803790072
H     -3.286563876196   -0.182710337906    2.788289098506
H     -3.362048866656   -1.264822695018    1.355699441317
H     -1.800175611904   -0.580754094923    1.872618780731
C     -4.371340115287    2.411028139199   -1.512775027413
H     -5.151115132312    1.673771606192   -1.758923232242
H     -4.622038444868    2.893916372605   -0.559107212265
H     -4.339752576270    3.181232726242   -2.294487973615
N      2.000199404664    1.221133063335   -0.013395739252
C      1.330817420431    0.038000408906   -0.084713181773
C      2.037634396507   -1.193011699658   -0.086172436643
C      3.414710603352   -1.197870902890   -0.053594591874
C      4.104285692444    0.032978553803   -0.018420277050
C      3.349620680431    1.200274023223    0.005401057954
H      1.450338710420   -2.110757270852   -0.130193449433
H      3.974757969443   -2.134104176094   -0.062658030965
H      3.861731733621    2.161044768855    0.047020517858
C      5.586129229794    0.155319309649    0.004403254922
O      6.189094143020    1.203539566956    0.028197457393
O      6.192280956131   -1.047646382586   -0.005173798268
C      7.619845324835   -1.034673033488    0.016377474777
H      7.992160325531   -0.533064647232    0.922345827659
H      7.935340363913   -2.085114894388    0.005071423545
H      8.018983275429   -0.505739260680   -0.862249421909
