41

Pd     1.178805105316    3.011715947235   -0.557672293153
C      0.280950608171    5.679031910626   -0.413322651442
O      0.646473273941    4.756845901812   -1.285297203718
O      0.023038806730    6.819099948044   -0.728426975492
C      0.239354922297    5.176970911628    1.049424882732
H     -0.682068523635    5.579025540723    1.494458959771
N      0.156546839722    3.708000555651    1.002264941139
C     -0.869346423610    2.989517317985    1.485165955700
O     -1.082165463950    1.795910923389    1.192145706006
O     -0.011695335074    0.008506283298   -0.164193448259
H     -0.436025255675    0.837981455244    0.295525431182
C     -1.846854204301    3.643980343904    2.453217392820
H     -2.434202260316    2.841427631098    2.915218214161
H     -1.352253176743    4.238549814334    3.231500733752
H     -2.534501550982    4.305905503140    1.901727015754
C      1.434448851131    5.746720221536    1.903985287854
C      1.198901632219    7.255495992704    2.116032857467
H      2.024549150504    7.687859995585    2.704295668086
H      1.125836877313    7.790825369168    1.159935091611
H      0.263373601585    7.435632600693    2.671437431300
C      1.470457209587    5.049298092035    3.275526928699
H      0.543322189023    5.225403047539    3.844497985621
H      1.613572035724    3.962577963682    3.178542288764
H      2.301135603795    5.449275893957    3.879015296677
C      2.790178950663    5.542336296013    1.202037562048
H      3.001629725912    4.474378152655    1.030928944657
H      2.831252374697    6.060372100186    0.231441791249
H      3.603107450531    5.943837726590    1.828282467979
N      1.970425255981    1.174009019619    0.024219319977
C      1.286897124201    0.003881565270   -0.055680144094
C      1.982326354378   -1.229837151567   -0.042597769816
C      3.360333166304   -1.270350389521    0.103236980051
C      4.040935712427   -0.036180031334    0.243721452107
C      3.317323498864    1.136382901649    0.200276986455
H      1.383746245089   -2.137799796836   -0.130787485412
H      5.122924166062    0.000514599535    0.382448325534
H      3.812354272516    2.105965450901    0.298914607380
C      4.117540060720   -2.570104160488    0.131153391852
H      4.679110935845   -2.674881459081    1.074066875588
H      3.447638439777   -3.435161926825    0.030222367811
H      4.855938278052   -2.607290635673   -0.686888026125
