65

C      0.168399130238    5.001701706691   -2.668581018399
H     -2.887090222090   -0.065247724515    0.090988301939
C     -0.106323769071    4.901846726040   -1.231035442976
H     -1.108235237846    4.505719480504   -1.042945496922
H      2.353245784172    3.783818836165   -0.730189991782
C      0.496901444612    5.345201027421   -0.043930844462
H     -0.150826224877    5.274635932759    0.835487327807
C      1.674162746868    6.242209500001    0.157159374192
O      2.401512662076    6.730068307472   -0.679485941691
O      1.825062073284    6.480959211116    1.474238744787
Pd     1.047363941643    3.227349348981   -0.197866318523
C     -1.937583433319    2.854577707252    0.795875640921
O     -2.058745255086    3.992884554005    1.212633820487
O     -0.809342944986    2.297760989560    0.451527057137
C     -3.190997480835    1.966021067628    0.658462071475
H     -4.008699335254    2.634865909791    0.354910392290
N     -3.073175150687    0.862564245298   -0.268841254322
C     -2.946091890990    1.080581666055   -1.611463639714
O     -3.020989009570    2.203624404488   -2.091973483844
O      0.034749402349    0.092244354410   -0.212165982320
H     -0.425668063999    0.999886552664    0.044493526204
C     -0.780719152889    4.375774602471   -3.509969708755
C     -0.670967463079    4.390600967424   -4.902049032995
C      0.423500948869    5.065225976824   -5.493564936725
C      1.365775611315    5.687599202439   -4.657636163068
C      1.259148600882    5.661416444715   -3.269621761738
H     -1.622798215812    3.845696933890   -3.055561260326
H      2.211928168524    6.209961960442   -5.113404838128
H      2.002441202450    6.154276516911   -2.645246727072
C     -1.711981097479    3.695991591351   -5.745838805071
H     -2.249932915904    4.407024574765   -6.396648947450
H     -1.259037387782    2.942779665286   -6.413026235361
H     -2.452479158218    3.187386365978   -5.112253394168
C      0.578186683760    5.116172960761   -6.991471480017
H      0.661005405335    4.104342833782   -7.424407878520
H     -0.295817639649    5.588101181223   -7.472251854918
H      1.473054413303    5.683428483940   -7.285350178688
C      2.910031860496    7.340141620319    1.857585041249
H      3.855850024749    6.904682508262    1.494962246444
H      2.791334035075    8.312283312239    1.351629210548
C      2.888170351783    7.478187184927    3.365711689323
H      3.015483416985    6.499680805977    3.853803873059
H      3.706651196261    8.137643934557    3.694099710367
H      1.935709298120    7.911521414983    3.707611384695
C     -2.675625647704   -0.156269816647   -2.448940042924
H     -2.987639287644    0.035306757082   -3.483245285209
H     -1.592854334420   -0.361232524392   -2.435960706144
H     -3.195242048863   -1.046825838880   -2.063232168197
H     -3.440393424688    1.570011417980    1.655180944104
N      2.009878894061    1.302403923256   -0.046074807497
C      1.337042167801    0.122144407166   -0.137820165619
C      2.040473593780   -1.110207079317   -0.164049051127
C      3.413961448636   -1.123311430507   -0.059638979776
C      4.103597173937    0.100900581914    0.070588733206
C      3.355181719906    1.272327988801    0.064758123568
H      1.451967633287   -2.023989354308   -0.252197623322
H      3.970281679538   -2.061763682539   -0.068887001054
H      3.868417644165    2.229786730476    0.146964484356
C      5.580731444728    0.212338128458    0.204020041790
O      6.183207510424    1.253844200573    0.324917178956
O      6.182328918443   -0.992700654905    0.175986297292
C      7.604979207563   -0.989880834170    0.298084526507
H      7.914187764116   -0.536906406978    1.252155006374
H      7.917560790915   -2.040391921639    0.255509453891
H      8.066145862755   -0.419764099748   -0.522459315545
