54

C      2.101726632670    2.985933372695   -2.482185721889
H      2.869334430397    2.210311232820   -2.536154285316
H      2.408472035735    4.033393388134   -2.513562072591
C      0.785880800985    2.637259181933   -2.661292042786
H      0.016063886758    3.398966766059   -2.804926545648
C      0.393187625781    1.216485791945   -2.946055722622
O      1.175320414560    0.299776326532   -3.049476293577
O     -0.929391842271    1.114181136616   -3.085243725262
Pd     1.096606263706    2.948120819851   -0.437524653588
C      0.217245583564    5.553584687722    0.232522129220
O      0.389359215614    4.768128720004   -0.810285415056
O     -0.106495837548    6.716974212858    0.137422791491
C      0.453199578390    4.880432008632    1.611562002976
H     -0.410203819212    5.200816861499    2.216439955258
N      0.437076602317    3.429521625195    1.429864566524
C     -0.333520050454    2.626465881516    2.170103505359
O     -0.596598926176    1.439017323689    1.866628327047
O     -0.013404806892    0.082294520894   -0.105483485947
H     -0.319362874328    0.752957203646    0.651442369628
C     -1.468874902636   -0.210771689252   -3.269170322561
H     -0.951187349246   -0.688482951002   -4.116132490084
H     -1.241358350656   -0.792701772722   -2.362496654712
C     -2.958166182889   -0.080349296142   -3.505547710875
H     -3.166632834269    0.518229070219   -4.405779068898
H     -3.401836521291   -1.078523217385   -3.644238547160
H     -3.452457450761    0.400184601202   -2.647582354590
C     -0.945424822629    3.149280013927    3.462504394949
H     -1.230811896441    2.282000212275    4.070635274964
H     -0.264835173253    3.797788704160    4.031147059131
H     -1.860458566179    3.722810753667    3.239911750854
C      1.713082518844    5.409423389575    2.312531626227
C      2.557774196960    4.541366410690    3.020062458267
C      3.676844231198    5.029274485130    3.704916923304
C      3.967913590731    6.394833636594    3.692463427908
C      3.126940294209    7.268234462983    2.994762023069
C      2.007691956600    6.784007563147    2.313767436995
H      2.332935888650    3.473510189414    3.038235931176
H      4.320817186971    4.335184037778    4.251910304954
H      4.841472773657    6.777978158962    4.226207803067
H      3.341989416746    8.340074701322    2.980778785495
H      1.352534838493    7.467348213610    1.770946240202
N      2.033323972197    1.114457652938    0.005810501528
C      1.294008493746   -0.021094938032   -0.049034658987
C      1.915486714872   -1.286474021503   -0.046792119030
C      3.289953022182   -1.358743556990    0.075772778113
C      4.033941968878   -0.177541124639    0.210664554451
C      3.384903526465    1.053099260432    0.171399385799
H      1.279366223107   -2.168507741859   -0.118834624281
H      3.792630117545   -2.329161852811    0.089368335766
H      5.116540998980   -0.207211716849    0.339749339922
C      4.154803338727    2.337648185542    0.308552826430
H      4.139416154892    2.923178037129   -0.624193574978
H      3.726557711666    2.977625053228    1.094203811966
H      5.204423331890    2.132337425419    0.558835416462
