69

C      1.171855479519    3.945710188089   -3.479721415181
H     -3.291283916064    2.214976070776    1.293524718876
C      1.718314860523    4.859258861336   -2.402637536116
H      2.465913708242    5.542471753197   -2.849278196266
H      0.925050636161    5.508127507946   -2.004062571467
C      2.399814556812    4.129550662322   -1.244662862347
H      3.137671835958    3.396380064121   -1.597036231073
C      3.004702366997    5.063245785456   -0.239544832526
O      2.669657658970    6.208841804773   -0.049514268259
O      4.009523674512    4.474043422806    0.468841701276
Pd     0.993626748731    3.097856949564   -0.173771856105
C     -1.380731131736    3.726372569413    0.481760248767
O     -1.031261265932    2.533903816812    0.763409275384
O     -0.577082696347    4.514616920368   -0.090994673501
C     -2.762046140855    4.221742774704    0.884817480290
H     -3.129565917076    4.882487523227    0.087600450433
N     -3.676155813875    3.095344652608    0.970665401892
C     -4.996976339031    3.216155204940    0.642178033218
O     -5.479503055796    4.264833451576    0.245340780443
O      0.087269156842    0.191720719594   -0.128338160720
H     -0.316595563362    1.067052339905    0.090114706025
C      2.026171104471    3.353426806640   -4.422629796134
C      1.560757634377    2.491595791744   -5.424478299818
C      0.176710764225    2.206135404883   -5.496642486410
C     -0.677900120197    2.802530248409   -4.560332541798
C     -0.196007391444    3.658318570057   -3.566070928433
H      3.097562314851    3.578407768875   -4.383127494498
H     -1.750907868658    2.595193031736   -4.613227538761
H     -0.887601037024    4.113007455394   -2.852531224027
C      2.523231864955    1.886136446021   -6.417179654350
H      2.503616208498    0.783118028878   -6.384515700026
H      2.273161665668    2.170721674069   -7.453749887890
H      3.556601233864    2.208563835065   -6.222421165795
C     -0.370120949909    1.288444719644   -6.562446296894
H     -0.155390094903    1.665788848117   -7.577223690176
H      0.076358731880    0.280706129024   -6.504030123684
H     -1.460459103027    1.176381288618   -6.472094221903
C      4.612271411299    5.269005312675    1.503114403648
H      4.972566280511    6.212976637514    1.063920503052
H      3.841021089683    5.536147289925    2.244321269174
C      5.738892858597    4.468806015550    2.124139038998
H      6.502080054570    4.211323113110    1.372956487516
H      6.224679540336    5.058251496134    2.917334554229
H      5.365097268393    3.535253912711    2.573366636818
C     -5.830952018679    1.957772189919    0.820351444797
H     -6.514950157263    2.105995114638    1.671062506038
H     -6.451931041634    1.818520482590   -0.076107840081
H     -5.233387303091    1.051640485768    0.998258545310
C     -2.697364695003    5.038200037139    2.178801145741
C     -3.451804405337    6.213904369464    2.293894368205
C     -3.442414711454    6.945806053496    3.484648400794
C     -2.680753790808    6.509476537048    4.572467092288
C     -1.930188066765    5.334357293359    4.465851950654
C     -1.939982113945    4.601366243995    3.276504918741
H     -4.061283521248    6.542540535404    1.449068573910
H     -4.034201279412    7.861601135228    3.562002196049
H     -2.671356158735    7.084162827273    5.502271464837
H     -1.331468353819    4.987579293525    5.312268661554
H     -1.350968262239    3.683235716115    3.200284752694
N      2.109131510756    1.349801536032   -0.062076000040
C      1.410660899529    0.191298912450   -0.087524074585
C      2.067533542860   -1.056590376000   -0.079976670084
C      3.449002120365   -1.094884434671   -0.007295053209
C      4.165618160122    0.109829066090    0.067235179649
C      3.459682995757    1.300887513222    0.036306112955
H      1.453741046856   -1.956934079368   -0.120402918838
H      3.970648765778   -2.055113396379    0.003592821055
H      5.253341227708    0.126964432350    0.145924402208
H      3.964548554638    2.265544747909    0.100576247124
