73

C      3.954988410336    4.904156563448   -0.192106178462
H     -2.968216936000    4.987894391533    1.261093087958
C      3.059044386179    5.131469391316    1.007528662392
H      3.651472301995    5.586574553790    1.822753538537
H      2.266076159058    5.853272761568    0.767025478200
C      2.421031576069    3.846063186288    1.542806189417
H      3.169847617921    3.061183299779    1.711946526666
C      1.642568873316    4.042744709398    2.807410178559
O      1.084262060220    5.063347052422    3.157923195955
O      1.612318860447    2.914296469678    3.559112124665
Pd     1.024599219009    3.060101896325    0.236611957335
C     -1.738163369829    2.891753669368   -0.877292744670
O     -0.600763750639    2.249968996203   -1.004134329709
O     -2.415291906632    3.315737329462   -1.787296491336
C     -2.219328043477    3.111238079029    0.596546404294
H     -1.562371295234    2.546370811404    1.277954402273
N     -2.120340296488    4.535161943350    0.938230110817
C     -1.043494061146    5.311103419712    0.773913917584
O      0.052324354965    4.900664231033    0.335303979974
O      0.043681474976    0.109661016054    0.084704068290
H     -0.321453025575    1.000452337623   -0.320880193802
C      5.321425140596    4.632411603042   -0.025942767343
C      6.174587462813    4.360423994119   -1.104660321717
C      5.643075524844    4.364261581705   -2.415153171111
C      4.281043616280    4.650631979544   -2.584901668679
C      3.444581451282    4.916541656737   -1.497798350882
H      5.740942284447    4.627138140824    0.985542386344
H      3.863094594979    4.664866117832   -3.595882133804
H      2.387233521192    5.137309267147   -1.667603036711
C      7.629151110797    4.044321144128   -0.862720287812
H      7.856225499580    2.999994276129   -1.135315244897
H      8.295598887401    4.688912059304   -1.459796083844
H      7.894785609988    4.172461552891    0.196685058661
C      6.519339139606    4.062840159381   -3.605812543763
H      7.350326171904    4.783577550306   -3.695517603263
H      6.980396513154    3.063517333661   -3.526785482578
H      5.945550022747    4.095549683898   -4.543559765095
C      0.872442939490    2.972068268210    4.786431558255
H      1.248194252828    3.811394674327    5.393997951542
H     -0.185007828287    3.191759511180    4.560731711739
C      1.031820570735    1.643776148944    5.497528311398
H      2.091878527868    1.438093545003    5.712213346930
H      0.483282512416    1.659015302727    6.452366051961
H      0.637837859783    0.816416645740    4.887088853646
C     -1.151733966014    6.761782766270    1.161630158850
H     -0.490294637146    6.909496842689    2.029973090024
H     -0.769572535851    7.381223472184    0.337690186144
H     -2.175786319471    7.072105719589    1.411583281260
C     -3.681425329503    2.683108301419    0.762809018512
H     -4.026178745149    2.981947067912    1.771431162022
H     -4.262427362418    3.259838806282    0.023726713971
C     -3.970453474235    1.184499285110    0.564883318450
H     -3.592264077773    0.901040299493   -0.434078574592
C     -5.486389314998    0.946212749014    0.564670598286
H     -5.988727458319    1.544527019051   -0.212103122983
H     -5.721241006781   -0.113562928796    0.377351706351
H     -5.930889959732    1.217708543657    1.538155404452
C     -3.277161838016    0.299034646577    1.609857448515
H     -3.550653104083   -0.758366667095    1.464863438005
H     -2.179755295385    0.354714635809    1.551024003318
H     -3.582162417493    0.581932650927    2.632781256855
N      2.054687700394    1.251640869966    0.065535891555
C      1.344460258769    0.086450316788    0.093067957152
C      2.007642219346   -1.167338030810    0.129107455563
C      3.381084305429   -1.220215191979    0.049077263817
C      4.079514077652   -0.007593006262   -0.061417618974
C      3.395512889434    1.199299581158   -0.044446343192
H      1.390533046404   -2.064143057580    0.186465913047
H      3.931554612903   -2.161215703315    0.050265895217
H      3.941601613877    2.140323930451   -0.117297927244
N      5.539063905983   -0.012068067209   -0.185799508042
O      6.106184675028    1.066460417992   -0.268379311910
O      6.094332202164   -1.099657509762   -0.196866006557
