48

C      2.048664032151    3.174324650765   -2.352943979552
H      2.881238524150    2.466729770396   -2.371173078359
H      2.268386120394    4.243749310538   -2.353532764072
C      0.774145245301    2.724858302061   -2.599894394626
H     -0.046134753151    3.425469674025   -2.773928009877
C      0.507416717557    1.279724845011   -2.904837989907
O      1.364940699964    0.429337810646   -2.985089619145
O     -0.797418274131    1.062911138371   -3.074010571886
Pd     0.971356524425    3.011462426746   -0.362813173529
C      0.145889566038    5.601729823320    0.381114572359
O      0.250270535409    4.834376907532   -0.689763186710
O     -0.080313568865    6.789110341109    0.327243958637
C      0.369109201210    4.884222025516    1.732181262914
H     -0.471469094403    5.197996678473    2.369613821335
N      0.342594861057    3.434617403249    1.517585253309
C     -0.373631107334    2.603557736854    2.274898678374
O     -0.634997914714    1.415112237635    1.963994623248
O     -0.080977373996    0.064459708778   -0.006246578820
H     -0.386039303427    0.738608813267    0.761667714761
C     -1.213152190839   -0.307749891179   -3.254866545853
H     -0.688241413702   -0.720909831303   -4.131264328308
H     -0.893385267750   -0.876741434011   -2.368295706713
C     -2.716425369951   -0.318884803458   -3.429199522170
H     -3.020192194554    0.273163923193   -4.306417141422
H     -3.066474956530   -1.353068715650   -3.572213653481
H     -3.217263050829    0.094062940216   -2.540477909916
C     -0.940175622182    3.090113068275    3.601977683959
H     -1.198469032664    2.206588398269    4.198553820177
H     -0.241750590342    3.726808614534    4.162297934437
H     -1.863749968176    3.666979645565    3.428967277014
C      1.672788341632    5.379447608177    2.372003217229
H      1.816705801546    4.936967783040    3.369932694523
H      2.540692389707    5.106697871406    1.749712302227
H      1.643932552234    6.474901059526    2.467088436643
N      1.918126825772    1.185039648520    0.036231014443
C      1.224525405380    0.036104772481   -0.007319159387
C      1.917194340512   -1.217992219849   -0.069345283323
C      3.301866468081   -1.222892651928    0.009790661698
C      3.990875932991    0.000285333802    0.134733344101
C      3.273750631720    1.176305685135    0.135286866839
H      3.860218130909   -2.159096499974   -0.011829459091
H      5.078471261439    0.022466747752    0.216110206143
H      3.761688491185    2.150318225667    0.202552206430
O      1.123025109103   -2.297923830217   -0.188333038578
C      1.719363362381   -3.574278739478   -0.273908154547
H      2.296309046783   -3.816507096558    0.636905175274
H      0.898345819159   -4.295361333014   -0.377882440746
H      2.384659399615   -3.655108171316   -1.152213543712
