71

C      3.596553475670    5.113407013397   -0.621959784000
H     -3.126226580745    5.683873249192    0.260296837509
C      2.677092834574    5.274214909024    0.569725626936
H      3.183054214687    5.891394495253    1.335673890006
H      1.773559841659    5.832285448539    0.284636575642
C      2.258769896396    3.957857613844    1.231023594234
H      3.115386276688    3.307227636637    1.456113251989
C      1.438938587606    4.168822780131    2.466399160266
O      0.783245255408    5.160645952007    2.715241356029
O      1.502826323267    3.108930755732    3.306294072697
Pd     1.000237958247    2.904319169460   -0.011353648821
C     -1.135701051276    3.610567098596   -1.010018137858
O     -0.261191363520    4.470977711195   -0.645126399280
O     -0.799046542599    2.447876800204   -1.340807031937
C     -2.622723260967    3.975060413386   -0.909488302996
H     -3.141534053306    3.005505028830   -0.852153488155
N     -2.865819261744    4.707784392756    0.325743906001
C     -2.413592854536    4.253533634486    1.527252851525
O     -1.900927890227    3.141565548362    1.651155984365
O     -0.168645008799    0.898960371607    1.997804951221
H     -0.446904110289    1.767239895829    1.625422805689
C      4.986539357875    5.020824939815   -0.451295885126
C      5.869763726396    4.849765764549   -1.526908262343
C      5.346118556689    4.768204106330   -2.838365018333
C      3.958193777767    4.865470114474   -3.010442127987
C      3.092325369576    5.035463270967   -1.927259656072
H      5.400986672400    5.092943820482    0.560020938065
H      3.544480534720    4.810343732425   -4.022011865647
H      2.014319680491    5.105395368885   -2.091946609378
C      7.357572484559    4.765981465725   -1.285652373708
H      7.779829723579    3.815905584237   -1.656058568347
H      7.901386226063    5.571747374316   -1.808294325186
H      7.595368713018    4.843056570461   -0.214588467244
C      6.258602506894    4.592500919670   -4.027588174654
H      6.978136176419    5.424694849052   -4.117817390703
H      6.859156000193    3.669492696130   -3.952087648174
H      5.686946728771    4.543041496693   -4.965925225378
C      0.653497801616    3.143430504211    4.464296356035
H      0.799359553489    4.101650029891    4.987988848393
H     -0.394763727079    3.103292494603    4.126500527079
C      1.002187772565    1.959713184084    5.342939467522
H      2.058322010585    1.994893448478    5.653181784023
H      0.375732343758    1.967664931412    6.248889871419
H      0.825411709547    1.012771517489    4.811361876532
C     -2.556517069858    5.198890483251    2.699050136560
H     -2.988828149198    4.650420163568    3.548480410869
H     -1.541647834083    5.520653048421    2.983431957201
H     -3.177526506707    6.079920027988    2.480838459186
C     -3.150221596902    4.727659571737   -2.154445689569
H     -2.856559723836    4.091483539452   -3.007658762786
C     -4.683090183491    4.811288455029   -2.145311363907
H     -5.052884642846    5.279156036312   -3.071481596905
H     -5.140068252170    3.812456478795   -2.064171195382
H     -5.053182391208    5.415341658978   -1.300255568795
C     -2.505862609947    6.106367891179   -2.358727897657
H     -2.809160431898    6.826117204293   -1.578490974461
H     -1.408135164392    6.049524875496   -2.345474936942
H     -2.821941505482    6.534405224932   -3.323063747141
N      1.727101603466    1.084324878969    0.643638375393
C      0.977587662571    0.416964558952    1.547596583530
C      1.380683895645   -0.838150358281    2.048046450003
C      2.556891935331   -1.395287768992    1.583512643767
C      3.311767063894   -0.711247965777    0.620697716394
C      2.873194320146    0.526312446786    0.158533061094
H      0.739549983747   -1.331346717543    2.778713642022
H      2.888929578403   -2.367502094659    1.956288433232
H      4.231893706307   -1.137680940754    0.219890420002
C      3.622261992243    1.273059713571   -0.906456368902
H      2.971144296290    1.459487827788   -1.775236996222
H      3.959969963272    2.258617203510   -0.552833882191
H      4.498378925130    0.700221212484   -1.239515740212
