65

C      1.540633180181    4.011114412442    2.455518898025
H     -2.203294223331    1.646455835676   -3.305926332281
C      0.750658549650    5.244001955308    2.017884756668
H      0.045070795347    5.543124928822    2.810077244440
H      1.443758578362    6.078405878615    1.839683825412
C      0.029118244278    4.851533490479    0.729555556693
H      0.230279916847    5.476032557017   -0.148395239034
C     -1.418984677711    4.532296422904    0.884710749693
O     -1.945264129237    4.194397405317    1.929910836056
O     -2.104257845930    4.633158026898   -0.270099260742
Pd     0.990131725294    3.072181373399    0.369412527638
C     -0.298198565344    2.615042263904   -2.183104164355
O     -0.963484170956    1.729523992172   -1.605154144688
O      0.647938275161    3.288537377381   -1.664619693072
C     -0.601206231499    2.940614037195   -3.655081556528
H      0.256578081862    2.560827058253   -4.242365848021
N     -1.794674361091    2.209087688251   -4.047399472296
C     -2.101429798137    1.960588575030   -5.353678859946
O     -1.467200957297    2.433450428153   -6.284558867656
O      0.083726753271   -0.009398982566   -0.010172006741
H     -0.324547509713    0.773936039239   -0.511739229296
C      0.848257713107    2.810685740624    2.764732360306
C      1.517189838026    1.681514017336    3.304973916557
C      2.902043494697    1.744031253069    3.519386270996
C      3.591218292842    2.932893500944    3.187063809416
C      2.941289761892    4.038711040151    2.660858047991
H     -0.245254317514    2.819397520496    2.749614106452
H      4.670204195597    2.980214353935    3.361191597095
H      3.500223779430    4.950451382927    2.434322358581
C      0.727272661185    0.448128776523    3.659022988745
H      1.099572847569   -0.437798653321    3.118310933643
H      0.804519603359    0.216331085081    4.735131268824
H     -0.335882159242    0.567711120081    3.410341669450
C      3.649666336534    0.569961068679    4.099192265813
H      3.247593945481    0.279156507620    5.084246676038
H      3.565671940887   -0.318693062114    3.450931428110
H      4.718354014936    0.795567059667    4.225712864227
C     -3.482764630263    4.223227962722   -0.231611064460
H     -3.524578747362    3.161002765643    0.059291508624
H     -4.002182379918    4.795206960269    0.553816594340
C     -4.093711735346    4.454174141944   -1.597904322568
H     -3.590098590884    3.850171810844   -2.367341668014
H     -5.158281582309    4.171858564982   -1.580201152990
H     -4.025136334518    5.514073958115   -1.888547237544
C     -3.312436033490    1.065991765226   -5.580387890557
H     -3.014010565484    0.225292417228   -6.224614262417
H     -3.758118213574    0.676402153063   -4.653537071180
H     -4.074125183739    1.639331292251   -6.130980270575
C     -0.702639626498    4.449549000398   -3.909918712324
H     -1.491904736492    4.901396841126   -3.291186941328
H      0.251569657765    4.935140125301   -3.662712507158
H     -0.927225770272    4.618748155756   -4.971765940656
N      2.068575270806    1.183569399213    0.035158265689
C      1.403862272183    0.013978193496   -0.004447958789
C      2.112438875801   -1.209433298982   -0.008966278014
C      3.495841594983   -1.192409410576   -0.025026194548
C      4.196297257550    0.032427211135   -0.040213577683
C      3.417439559089    1.184356262884   -0.003663126814
H      1.539053152128   -2.137180024197   -0.025140175209
H      4.049159089340   -2.136318288410   -0.043452779217
H      3.888646247363    2.171137362600    0.004504047082
C      5.701164221097    0.091759603175   -0.096772519838
H      6.064674387979    1.128515661716   -0.042025349068
H      6.159337004346   -0.470202612775    0.733958242214
H      6.085154821639   -0.346438334476   -1.033353616808
