70

C      1.593554647837    3.991570651291    2.260643137115
H      0.575017757959    4.353505014062   -3.745898374864
C      0.876803668023    5.249295676151    1.765675727294
H      0.164847461664    5.603127948266    2.528443794764
H      1.614444154359    6.043972184470    1.585535890173
C      0.173773038090    4.855764520773    0.468964186378
H      0.444198290493    5.436430881139   -0.420619764115
C     -1.299911151246    4.629662586604    0.575487815374
O     -1.868545112595    4.314208398805    1.604477842601
O     -1.927095036697    4.800670601906   -0.600699182370
Pd     1.043395071271    3.020550318010    0.206452898678
C     -0.381942704602    2.480602141925   -2.257294948322
O      0.630349326010    3.129618392042   -1.831842973912
O     -0.988884723428    1.594771217957   -1.619425022033
C     -0.856397234619    2.810969389749   -3.676284167038
H     -1.951893425136    2.901329811860   -3.639271655835
N     -0.342827756608    4.102167206703   -4.095326418890
C     -1.159523498751    5.081498291561   -4.584344152245
O     -2.343444878789    4.896084656041   -4.828557689610
O      0.107486145636   -0.122436680669   -0.179161475064
H     -0.315093785379    0.703049607167   -0.661629451703
C      0.829488439431    2.854730407905    2.634180697390
C      1.425045335236    1.724677381369    3.248879524204
C      2.811465214610    1.718259126065    3.471363039818
C      3.575375178809    2.836954314000    3.065534810232
C      2.993939253993    3.946348639503    2.470413173629
H     -0.261438436685    2.923827144695    2.591768526886
H      4.656261043760    2.823662664482    3.230470705083
H      3.608811334005    4.806100064146    2.191728473669
C      0.560180484736    0.565772455354    3.674104571867
H      0.872670111450   -0.373394970044    3.187331742472
H      0.626850164470    0.391630064850    4.761458963176
H     -0.494828380009    0.738768085358    3.421137460237
C      3.483124672807    0.545610681534    4.140020508834
H      3.077504804110    0.372184445266    5.151085205311
H      3.322656392357   -0.388575642224    3.575878923081
H      4.567149613183    0.701206540735    4.234277953762
C     -3.340541371624    4.505307933067   -0.668616671386
H     -3.437016147079    3.441510322628   -0.943430268167
H     -3.773483439456    4.636746226872    0.332941583958
C     -3.986613194363    5.411320655530   -1.697445793634
H     -3.554874291209    5.272605014205   -2.700337888072
H     -5.063380637192    5.185042537788   -1.756682806545
H     -3.878098685369    6.468991591913   -1.408770543074
C     -0.501146653982    6.436368015395   -4.788356530562
H     -0.885483674677    6.879063790096   -5.717575226389
H     -0.795176528478    7.100534190016   -3.959384013004
H      0.597086281557    6.387253276019   -4.829089226948
C     -0.520342656194    1.684335151347   -4.701703334696
H     -0.853257648413    2.104301818475   -5.666872127643
C      0.984553675443    1.411026180344   -4.801982907340
H      1.197952351642    0.710148923252   -5.624778491149
H      1.553475787187    2.333583764898   -4.997177214456
H      1.377958431276    0.959658442714   -3.875290725050
C     -1.317355598275    0.398827898173   -4.454972508027
H     -1.034008824147   -0.080042356364   -3.506169464004
H     -2.399512795621    0.600046092102   -4.411554908673
H     -1.140797553016   -0.320187130025   -5.271447911061
N      2.078917363742    1.070579948225    0.005426626147
C      1.399709443741   -0.104487057085   -0.038436635657
C      2.086795803191   -1.344243972118    0.093049694038
C      3.458402876314   -1.358450122250    0.223959188466
C      4.133398966469   -0.126169111403    0.228068889742
C      3.414314446227    1.055640403929    0.117827340773
H      1.495159854296   -2.259654096764    0.063817575464
H      4.027246519297   -2.284418284929    0.313836735460
H      3.934849633951    2.013535845875    0.135789246222
N      5.587211781315   -0.074802652787    0.375810962616
O      6.114450929756    1.027427300725    0.425836437256
O      6.181066712236   -1.139664084192    0.448076416809
