41

Pd     1.291887412093    2.923470314028   -0.628679078500
C      0.556791555825    5.641513729880   -0.578671566619
O      0.879019758402    4.671672336730   -1.413197253680
O      0.438316185315    6.796135474336   -0.922870090858
C      0.360115424637    5.187793994416    0.882841356182
H     -0.619113095597    5.587085210940    1.188301274093
N      0.314982574120    3.716231262951    0.910613734129
C     -0.580871429382    3.013241785750    1.614697562237
O     -0.795517070149    1.793321780363    1.464930802253
O     -0.029935299758   -0.011639969808   -0.053973931251
H     -0.357555730250    0.827202638860    0.468897049872
C     -1.405856564793    3.735234672288    2.673489373209
H     -1.830289022844    2.970445163805    3.335326819216
H     -0.824786173005    4.457438105197    3.262207131983
H     -2.237902948417    4.275865564156    2.192892386067
C      1.428547345012    5.793552201162    1.841183974674
H      1.299346360311    5.251932871850    2.797059522766
C      2.862958989873    5.542573700938    1.359846533335
H      3.596321144205    5.853983232803    2.118483482865
H      3.034424210596    4.472934900947    1.161001709779
H      3.077651011500    6.103338733686    0.435176664909
C      1.135565841159    7.283663077274    2.109445999419
H      1.208678964461    7.838612855687    1.160952651892
H      0.080446072435    7.375431338658    2.424848701791
C      2.024702978632    7.927289369185    3.175455186757
H      3.080000610790    7.977215596694    2.864027394929
H      1.699812338064    8.959592409709    3.380970194491
H      1.985275858574    7.371839779354    4.128585393600
N      2.010097024839    1.059542824834   -0.032352066140
C      1.271320604622   -0.079366603752   -0.048102261834
C      1.910822398868   -1.342440576792   -0.075936205810
C      3.293050044608   -1.443155916885   -0.032657266806
C      4.035939265471   -0.239943366983    0.046969394702
C      3.363342980645    0.963611767868    0.045907309669
H      1.268260880014   -2.223602204021   -0.109982790361
H      5.125731594355   -0.250994296087    0.106424628663
H      3.906338808396    1.911201727458    0.099461645989
C      3.992431667166   -2.775147789596   -0.049215730759
H      4.618517946748   -2.898936589081    0.849735732893
H      3.279472918511   -3.610145911012   -0.091203350172
H      4.664499326981   -2.850274780154   -0.920149848635
