62

C      1.974585109818    3.245106833560   -2.334174100130
H      2.819238876366    2.555626438366   -2.398461645955
H      2.178844493754    4.317761591125   -2.313350291105
C      0.699003240270    2.782740669620   -2.560854023443
H     -0.135857504105    3.476628180373   -2.685241802754
C      0.441141952752    1.348514385923   -2.925543193042
O      1.302071837690    0.512377812720   -3.065809283845
O     -0.866215219291    1.138360382456   -3.091705621786
Pd     0.962459912972    2.990557502292   -0.341631399016
C     -0.171032023227    5.454927153466    0.496416923334
O      0.044937403049    4.755590444292   -0.598286361262
O     -0.691090931069    6.549284307614    0.502995082081
C      0.337458080502    4.785706921996    1.799342621603
H     -0.345356512762    5.095463832523    2.602885937643
N      0.279410589804    3.330814000330    1.583307704345
C     -0.452992694609    2.547391991781    2.326442694598
O     -0.716468781348    1.311257376939    2.036375405655
O      0.026591983925    0.173947427280   -0.044161204733
H     -0.414179667228    0.944348358065    1.104259199184
C     -1.280646111077   -0.218060343860   -3.349215630235
H     -0.733723228789   -0.593888219024   -4.228699563102
H     -0.984543005909   -0.829382204410   -2.482797223096
C     -2.779117421537   -0.216630156431   -3.562249975265
H     -3.057679729937    0.414644160080   -4.420235910988
H     -3.128294986564   -1.241950716179   -3.760595460695
H     -3.302801561155    0.159750744276   -2.670375062811
C     -1.101760147868    2.996265679442    3.616103533188
H     -1.446662078912    2.106109946900    4.155581592295
H     -0.413787596196    3.570311765073    4.249509438944
H     -1.976561921007    3.630254022901    3.398570852170
C      1.766743314050    5.285465401241    2.159647481552
H      2.397320008218    5.118562656284    1.266176059491
C      1.767750710719    6.788761759493    2.466808268329
H      2.796525166981    7.139833243866    2.645211926731
H      1.331093409159    7.378850263596    1.650126814311
H      1.181651683502    7.001261141140    3.377226638116
C      2.377413051929    4.489541504986    3.318719910383
H      1.800999339776    4.635853812017    4.248391468536
H      2.420849506403    3.411681813129    3.103887793260
H      3.405294899739    4.831849481974    3.517583755068
N      2.023099800447    1.234959830525   -0.016572557278
C      1.291440481448    0.106028853084   -0.032405254221
C      1.972316822712   -1.195729274620   -0.028245086161
C      3.385079658296   -1.262841181566    0.015468563029
C      4.135442293671   -0.013101873208    0.094274001089
C      3.410218112077    1.213757056701    0.083482957053
C      1.197819117481   -2.371689784501   -0.065925393877
C      1.811952480971   -3.614874740241   -0.079354960336
C      3.216067226127   -3.693836615929   -0.051073391142
C      3.988119918145   -2.541359960815   -0.002009523948
C      5.542609222198    0.037242422556    0.192171294993
C      6.228650045149    1.240419852250    0.279929449735
C      5.509016866503    2.445565367327    0.277322888961
C      4.124723351287    2.429297003144    0.182304295389
H      0.111995020347   -2.268865280730   -0.082189041856
H      1.211578011853   -4.527218856993   -0.111141106712
H      3.706842928688   -4.670517314524   -0.064724764062
H      5.074451103322   -2.634299078277    0.022768640838
H      6.110019303842   -0.894367530188    0.202560362597
H      7.318298010385    1.246666644625    0.354624026985
H      6.034088690605    3.400945731372    0.354332021255
H      3.566185282518    3.366871691913    0.190631812460
