62

C      3.749425915540    4.843290801073   -0.621452439243
H     -2.932708987893    6.054400662884    0.230556189841
C      2.812490228084    5.192905144777    0.514631866256
H      3.344375714613    5.829167608001    1.246107846805
H      1.972445427883    5.804620557780    0.151107725721
C      2.257610464747    3.980731171475    1.261094259617
H      3.042407612197    3.277196819226    1.573107420505
C      1.408509016191    4.357701334581    2.447253960963
O      0.936690465213    5.458069960343    2.641254792825
O      1.220891566486    3.314968610968    3.280952712366
Pd     0.922711757604    2.935355302751    0.111904109907
C     -1.492785378776    3.549272065807   -0.286022307804
O     -0.589140353493    4.372423701425    0.056683451261
O     -1.194986094923    2.377504958602   -0.663676338657
C     -2.956513441141    3.994080213850   -0.217301465154
H     -3.494264207461    3.151974090417    0.243045449998
N     -3.099601852889    5.146980601739    0.652138154821
C     -2.798192094743    5.021466529329    1.987810977227
O     -2.693759983690    3.925508061774    2.519157573001
O     -0.000344761962    0.036455985181    0.199001893446
H     -0.420871991447    0.906651860879   -0.013658313488
C      5.125440044640    4.679878146116   -0.396489727326
C      6.020900025904    4.327679268472   -1.416987683511
C      5.525038460283    4.127503207227   -2.726601900692
C      4.151759829330    4.294626667498   -2.953642845031
C      3.274657096334    4.647031916038   -1.925022460632
H      5.518719596477    4.843164834979    0.612536050194
H      3.759809666021    4.149899341482   -3.964800737702
H      2.209352544917    4.773511982514   -2.136797047094
C      7.493644316517    4.179710881535   -1.120562976992
H      7.863759346835    3.171075650523   -1.372772122165
H      8.100113579584    4.888494412036   -1.710301332440
H      7.709486703547    4.360354634509   -0.057430224031
C      6.452047896335    3.755757584572   -3.857824998705
H      7.228740107229    4.523260732762   -4.018493177400
H      6.985614319190    2.810556845242   -3.657763813813
H      5.901809177106    3.635160301470   -4.802356344991
C      0.317151885171    3.511007513228    4.386442376524
H      0.616333861662    4.419775607839    4.933082409625
H     -0.696652445914    3.673949220959    3.985887135186
C      0.380670123266    2.277827546928    5.264027592484
H      1.399722814268    2.114021485046    5.648927368726
H     -0.298743613919    2.395315319366    6.122855994157
H      0.072643953016    1.380103348811    4.706043856680
C     -2.564276310886    6.313964828624    2.739554345605
H     -2.987646583430    6.225197536737    3.749435105254
H     -1.472186168529    6.438115011582    2.836329055473
H     -2.986432152684    7.196602241699    2.236427916827
C     -3.524268454180    4.263317368397   -1.612662396011
H     -2.996176486394    5.097854478431   -2.103442483949
H     -3.410169841485    3.370880717037   -2.244235141656
H     -4.593078998492    4.516475859968   -1.547305352828
N      2.024609297495    1.186850892909    0.069552786410
C      1.321024841592    0.033034802934    0.136731771278
C      1.975789511638   -1.216653266720    0.150904203491
C      3.355937714829   -1.260433859588    0.058708646225
C      4.076317192257   -0.060713334311   -0.055292160225
C      3.372753734962    1.131684246873   -0.045032985989
H      1.361122303895   -2.114329564022    0.224056506441
H      3.874516863030   -2.222395824742    0.064332969379
H      5.162726169428   -0.048553986901   -0.149404172590
H      3.884430387967    2.090903978284   -0.133950812736
