44

H     -2.618678485652    5.415426651097    0.988216703162
H      2.285508903373    3.614753124039   -0.845279240936
Pd     1.012403103531    3.038553875843   -0.245208332949
C     -1.548337955635    2.603560115330    1.550732140858
O     -2.352333288217    1.928927662691    2.158820257737
O     -0.852829561618    2.218097189977    0.520698358889
C     -1.256152699822    4.094984483363    1.930273300519
H     -0.160402665597    4.193954748385    1.973958724103
N     -1.711242262781    4.985334233099    0.846318127906
C     -1.037052695394    5.325095936056   -0.261063588302
O      0.078659672269    4.875069223867   -0.586739844301
O      0.065313298294   -0.020378457015   -0.019970794836
H     -0.426093452459    0.865343357984    0.197941592703
C     -1.682549328367    6.348452410451   -1.166871112304
H     -2.615709569615    6.764409056298   -0.762419683650
H     -0.964764335432    7.163457230860   -1.341436918347
H     -1.884659999695    5.878152600009   -2.141423089368
C     -1.846480043095    4.565149338507    3.243253246798
C     -1.040264376122    5.250300795618    4.164276610870
C     -1.574386159701    5.734631938983    5.361842592526
C     -2.928355942397    5.543918255246    5.649543790601
C     -3.740624689472    4.861398601058    4.738208855422
C     -3.205237088513    4.370578493351    3.544879999710
H      0.019661342567    5.404462628115    3.942125871395
H     -0.930507972482    6.262040785000    6.070306024219
H     -3.349341427581    5.920788663643    6.585266014178
H     -4.797463176169    4.697283964381    4.963965300808
H     -3.833016536907    3.799103449013    2.859671140214
N      2.011832367263    1.237595943904   -0.047943983615
C      1.366131972585    0.060223581831   -0.020574442811
C      2.094176407906   -1.192415242281   -0.003442160198
C      3.516303137882   -1.167413516807    0.013739658108
C      4.154088113134    0.108849302704    0.019612299102
C      3.392349593691    1.240912571159   -0.012166738835
C      1.407487048384   -2.430655068704    0.004315702723
C      2.118906210410   -3.616690603901    0.019669253024
C      3.532763279180   -3.597802423706    0.032432172176
C      4.220555758465   -2.398109036846    0.031124083449
H      0.317157152880   -2.424174865595   -0.001918038796
H      1.588917538127   -4.572078881807    0.024297745718
H      4.085112864588   -4.541087249195    0.045557565190
H      5.313363382471   -2.383510954600    0.043745888518
H      5.242369568787    0.186987669814    0.044092334960
H      3.851555325146    2.226880962447   -0.015696525539
