72

C      1.588113613885    4.002899580247    2.317280760559
H      0.628167173966    4.348396671892   -3.814676339854
C      0.906006665152    5.278476433383    1.821496943635
H      0.197379311227    5.647608044638    2.580468847509
H      1.664159809057    6.055962462523    1.649971777707
C      0.202404438881    4.906322194440    0.517823947902
H      0.490800880583    5.485656551384   -0.367013411671
C     -1.274774278183    4.715499186880    0.616260643232
O     -1.858587123708    4.416587630823    1.642416646239
O     -1.894037920362    4.895135058957   -0.564173571058
Pd     1.026738664803    3.045075462017    0.253515643695
C     -0.393864177154    2.525281624927   -2.201849244447
O      0.635503550356    3.159878100264   -1.786296115698
O     -1.051395093518    1.693847270867   -1.555744788993
C     -0.811172446868    2.815472439390   -3.653066039273
H     -1.906628858966    2.883538511472   -3.664578495617
N     -0.313995906678    4.105931587183   -4.098784793031
C     -1.135122152523    5.060267509395   -4.621815164611
O     -2.322425320801    4.864847263114   -4.845303589171
O     -0.054460808764   -0.009309077188    0.079773882768
H     -0.436009249903    0.767697047093   -0.461444838256
C      0.794649522184    2.877421194499    2.662014770213
C      1.357107715425    1.723752959002    3.265149813659
C      2.738799857177    1.683772655467    3.507578895773
C      3.530167618482    2.795581228031    3.138996843933
C      2.982717948354    3.926200182022    2.552164964522
H     -0.293893165818    2.971424160699    2.609798811396
H      4.605995268955    2.762145914413    3.334311267429
H      3.618234063081    4.779662190204    2.301292953665
C      0.461715972435    0.575966284248    3.654320947544
H      0.764854692996   -0.359136751932    3.155026205749
H      0.504271299982    0.383061096174    4.739960774812
H     -0.583727172745    0.773479630593    3.381877346006
C      3.375673221902    0.480348821353    4.155156923172
H      2.933799726355    0.270894102626    5.143826102727
H      3.227335737204   -0.427646172587    3.546570216177
H      4.457306765808    0.621837960308    4.293174582936
C     -3.307669680201    4.608644883645   -0.636169777561
H     -3.412067880867    3.535338549875   -0.868034156142
H     -3.751927490288    4.785158165299    0.353648563482
C     -3.934220801013    5.477759173980   -1.708141302505
H     -3.497992445203    5.291383731598   -2.701319770666
H     -5.013545503283    5.263331676158   -1.766253508941
H     -3.813563344300    6.545493979967   -1.464439575077
C     -0.480955180805    6.405402895556   -4.892602604671
H     -0.846095089388    6.786195702553   -5.856618648026
H     -0.801257992354    7.116406468330   -4.114035323370
H      0.618274194299    6.364750450520   -4.904658009752
C     -0.396718587846    1.678418180181   -4.585905392101
C      0.884764092289    1.110093624878   -4.518833261400
C      1.264001385477    0.104645634948   -5.412070980892
C      0.367359682724   -0.344449361978   -6.386709149224
C     -0.909576477415    0.219264027008   -6.462803685449
C     -1.287921941707    1.224721627281   -5.568542033321
H      1.591412650506    1.455106965918   -3.758794166436
H      2.264192536520   -0.332054353839   -5.345408969857
H      0.663076819048   -1.132431195344   -7.084324554024
H     -1.616497890573   -0.125418166789   -7.222169460503
H     -2.282865719937    1.672483083611   -5.635037571289
N      1.989030259215    1.078711620096    0.031185900175
C      1.261708875446   -0.054129299210    0.072671417424
C      1.906827310181   -1.311725153513    0.143757687035
C      3.288309541960   -1.369692901022    0.120901122802
C      4.052996500602   -0.186991000630    0.025265136243
C      3.336194763058    1.003947268871   -0.011132411029
H      1.284642246531   -2.206441821954    0.189293366659
H      3.790764235951   -2.341028609532    0.161273555363
H      3.859732706022    1.962622889298   -0.066554371985
C      5.558713613311   -0.211731885445   -0.035536195097
H      5.976715197737    0.805563150506   -0.060560979244
H      5.990117920358   -0.730888047243    0.836481312320
H      5.916478684228   -0.740976747462   -0.934811209349
