44

Pd     1.315006339903    2.899080444428   -0.604131460203
C      0.567632781558    5.614248845150   -0.586277171102
O      0.901645625680    4.638557969815   -1.408865206856
O      0.447228313999    6.765534990119   -0.940759910474
C      0.359244502757    5.172411469271    0.877201186029
H     -0.621672703833    5.575068881150    1.172180368654
N      0.311294341747    3.700568431203    0.915425302217
C     -0.583608185788    3.008999480799    1.626043302148
O     -0.794982693912    1.782666098626    1.498849222529
O      0.017196348654   -0.029016522771    0.063409858680
H     -0.323780844132    0.836171664087    0.571855658009
C     -1.422225235180    3.741544282305    2.665392054418
H     -1.852473403068    2.984711366077    3.332472028279
H     -0.848724746415    4.472069355877    3.251090039513
H     -2.249560857601    4.274748472507    2.168750534407
C      1.421092018830    5.784012005051    1.839150781352
H      1.284551137984    5.249649304703    2.798094822737
C      2.859165941753    5.529486567673    1.370815685802
H      3.586300457920    5.848211433782    2.132358447204
H      3.033477849447    4.458325046771    1.183166397303
H      3.080662798223    6.082307789306    0.442984985586
C      1.126244611058    7.276195384392    2.093890643790
H      1.206145148111    7.823724337385    1.141595145851
H      0.068904397778    7.370495148167    2.401057414143
C      2.007849135404    7.928076200203    3.161088838391
H      3.065201483548    7.976018957928    2.856535732461
H      1.681169733240    8.961753324980    3.356473888666
H      1.962065650415    7.379827967560    4.118085294634
N      2.040620069211    1.045989519751    0.004529340199
C      1.312631163452   -0.081583414161    0.023848483393
C      1.957514403851   -1.375744748814   -0.014446788198
C      3.380813383580   -1.437211271040   -0.020554711263
C      4.105682970165   -0.206135445585    0.026202980847
C      3.416406491141    0.972297006690    0.041604193327
C      1.193846394884   -2.567205349894   -0.035953197975
C      1.829994250183   -3.794618263062   -0.075246654607
C      3.242332670985   -3.862772050733   -0.086573694332
C      4.005403902720   -2.709342446104   -0.056913054786
H      0.105970522758   -2.490447250975   -0.021615977642
H      1.242453989113   -4.715402536110   -0.094234273035
H      3.734621205251   -4.838242978845   -0.116270797162
H      5.096798632241   -2.765299425042   -0.061572194602
H      5.196572886891   -0.203802180508    0.051395004520
H      3.936135665471    1.932918011310    0.077816275696
