81

C     -0.592799140954    4.522135505267   -2.386997583523
H     -2.287094127339   -0.248652447889    0.730112476687
C      0.468899580526    4.982645971242   -1.485533883419
H      2.481064482009    3.736901984606   -0.635641891881
H      1.380654624376    5.309811357151   -1.991354078269
C      0.381008752189    5.283292412032   -0.124554351513
H     -0.548324027918    5.160760938675    0.443122430549
C      1.399047606662    6.124679613510    0.576596584484
O      1.356156550105    6.384224671512    1.756046060716
O      2.367494242693    6.586135511139   -0.244387580396
Pd     1.135261609464    3.235725350327   -0.153181876820
C     -1.805750896902    2.742893060986    1.108515720195
O     -0.731216050552    2.302244255956    0.515706394133
O     -2.016688929825    3.905637814811    1.410746668206
C     -2.865866841790    1.666543896196    1.460584686511
H     -3.832317417744    2.178077139705    1.365025183330
N     -2.886668308691    0.543971418151    0.533887303392
C     -3.557971960615    0.596154601274   -0.656064170230
O     -4.244002786132    1.553470301678   -0.980654570613
O      0.108754730964    0.265840222665   -0.600752690176
H     -0.358495919530    1.087120369463   -0.156498047765
C     -0.271851062707    4.333418171708   -3.747361269003
C     -1.213160784585    3.899431168150   -4.683988704757
C     -2.533260474840    3.629454678827   -4.247808069657
C     -2.856201648950    3.822232603596   -2.894645099220
C     -1.913915798571    4.270702603228   -1.973526499533
H      0.751748779067    4.532832528456   -4.079119478039
H     -3.862586185339    3.585757377677   -2.543544757589
H     -2.207051189534    4.413394560291   -0.933010192402
C     -0.825364617359    3.717223982034   -6.130882161792
H     -0.976783139677    2.676625781174   -6.465120661291
H     -1.434187970318    4.350928941329   -6.798036645887
H      0.231180111432    3.972169528419   -6.298468761055
C     -3.580715777296    3.142287078852   -5.215575092515
H     -3.765679442013    3.878051468618   -6.017491105518
H     -3.268757157907    2.209432641622   -5.715745205091
H     -4.534638317073    2.949224281496   -4.705211640505
C      3.398425940918    7.381776459351    0.359466900886
H      2.934218731802    8.236698066572    0.877043268484
H      3.908883307108    6.781283644992    1.130932989376
C      4.349869443679    7.826679889820   -0.731922984628
H      3.825889016757    8.428832189449   -1.490292957221
H      5.155695657774    8.441121584134   -0.300958066355
H      4.807846782884    6.960792060292   -1.234864890845
C     -3.361170599655   -0.610572693196   -1.559599173676
H     -4.233500228598   -0.705893358395   -2.218909979911
H     -2.468587376496   -0.444515487362   -2.184852614159
H     -3.216538159828   -1.544981915564   -0.996051463665
C     -2.697995483308    1.168161232895    2.889782855901
C     -3.828165536310    0.953370275980    3.692903492856
C     -3.696992599104    0.451701560473    4.990076627956
C     -2.430273540893    0.154906449972    5.502877764274
C     -1.297802330098    0.365886255792    4.711524623269
C     -1.430330168692    0.869420069841    3.414044706599
H     -4.819922700852    1.186527909444    3.296037536601
H     -4.587537641962    0.296107287128    5.604708997112
H     -2.326172700891   -0.233937873278    6.519145493203
H     -0.303128564261    0.145038118399    5.107557372749
H     -0.540247169233    1.046937492031    2.805625880322
N      2.040724630633    1.284500067898    0.111050371800
C      1.390285467999    0.221165937587   -0.336166258900
C      2.058713294728   -1.049956666844   -0.582177546627
C      3.433241827568   -1.179391605482   -0.264238199382
C      4.104049485329   -0.044488239579    0.354728507602
C      3.368007917741    1.160891666412    0.534068257102
C      1.345136200019   -2.130931788847   -1.145037977741
C      1.988665611476   -3.328771289165   -1.408963216366
C      3.357247673097   -3.464493652617   -1.107721686843
C      4.065223777464   -2.412958132946   -0.545392779516
C      5.444799755266   -0.092481345631    0.799957729487
C      6.043149496409    0.995004804417    1.416077818104
C      5.303434127359    2.173480547826    1.614121928857
C      3.989709950736    2.252592482322    1.179913292816
H      0.287395799870   -1.998111022885   -1.372051171913
H      1.438775246605   -4.163570571148   -1.849501268240
H      3.868654010314   -4.407510095203   -1.316999864393
H      5.123808135015   -2.546932219691   -0.321360412490
H      6.021881860287   -1.008296053475    0.666240153519
H      7.079534454369    0.930338005019    1.755143822339
H      5.758108287961    3.030127662567    2.117386690285
H      3.406663901143    3.159725570571    1.343888407811
