71

C      1.224797987941    4.012634839454   -3.383606195410
H     -3.154664424766    2.069954245228    1.407645721158
C      1.761341837076    4.850779636550   -2.242135543864
H      2.526118125675    5.549452208668   -2.632453771376
H      0.967824723780    5.484072199878   -1.820057801694
C      2.410259514473    4.041646141723   -1.118175860617
H      3.146349182020    3.322365450217   -1.500877367648
C      3.002382648199    4.901687492701   -0.043509124984
O      2.649735979699    6.023695328357    0.238538182236
O      4.016649366190    4.273830004872    0.616524894571
Pd     0.969947637312    2.973475766632   -0.130571214499
C     -1.409176785118    3.599688975049    0.516783193963
O     -1.065239611332    2.395314229813    0.752955736659
O     -0.588588000342    4.400522373564   -0.019089993487
C     -2.789419518332    4.089886447179    0.921515370839
H     -3.222524811044    4.633849709225    0.066358046037
N     -3.630448730757    2.940829353247    1.200179579564
C     -4.984781783982    2.979433660698    1.030708483673
O     -5.573902798573    3.993775815483    0.692041406290
O      0.031712171919    0.075737709346   -0.234061379301
H     -0.365357109363    0.945314539350    0.014962152734
C      2.090385227150    3.463472375120   -4.342183000871
C      1.633778633667    2.671300078601   -5.403790654918
C      0.247392739265    2.414217927925   -5.522267409125
C     -0.618252262561    2.967883799664   -4.569989593742
C     -0.145126494541    3.754191464356   -3.515974561291
H      3.164076950133    3.667157946118   -4.266299513756
H     -1.692895122412    2.781902287891   -4.657783604166
H     -0.844537775513    4.176913528540   -2.790523253152
C      2.608450897539    2.109898872604   -6.410424702106
H      2.570877044811    1.007365409178   -6.444434678210
H      2.386035406250    2.459952766996   -7.433175386947
H      3.642151173422    2.402612391285   -6.174706002077
C     -0.290035046902    1.571006219839   -6.652441533793
H     -0.046826866382    2.004120997989   -7.638113397016
H      0.138942628270    0.554030838392   -6.644723234868
H     -1.383750679878    1.472451956068   -6.592156228697
C      4.608042743078    4.992023256294    1.711221556859
H      4.945158648875    5.977334817122    1.351761900685
H      3.836122330724    5.178733493409    2.476187324905
C      5.755365950954    4.167263512066    2.257933974413
H      6.518186141939    3.989458359648    1.483703632306
H      6.234266884938    4.698833118215    3.095020744998
H      5.404209923222    3.191754513385    2.629586841264
C     -5.716572406591    1.673632620174    1.301816432075
H     -6.438399428029    1.837612346373    2.116478881371
H     -6.296962188148    1.404005453779    0.406649489293
H     -5.053773545782    0.838141249235    1.570632577320
C     -2.738900755667    5.096077590415    2.116738107932
H     -3.803281675145    5.245473565090    2.363270061794
C     -2.034482696068    4.506921004132    3.343054732825
H     -2.154588118640    5.170798031580    4.213888462611
H     -2.448811704761    3.523153933356    3.614198495481
H     -0.951414113429    4.386199695647    3.169908652983
C     -2.160599089226    6.457127195273    1.717500767426
H     -1.096194161054    6.388035498411    1.447773480148
H     -2.698074133249    6.882009587813    0.854586971348
H     -2.257427922354    7.168359262699    2.553699027156
N      2.061768965170    1.209543491605   -0.083168633507
C      1.355222255806    0.061033682695   -0.172564950176
C      1.996838570483   -1.193034742908   -0.212352517309
C      3.379966127849   -1.279256609743   -0.124739503801
C      4.095475628782   -0.069859448461    0.014423921313
C      3.410592867119    1.129909894870    0.029582363934
H      1.365318396824   -2.078200592903   -0.301343479474
H      5.183120944188   -0.066060939886    0.108677519805
H      3.932714964914    2.080378082391    0.145096916700
C      4.096152092713   -2.601860899386   -0.164770904642
H      4.713621774934   -2.740293412028    0.737814026520
H      3.394701397460   -3.444756929168   -0.236020673855
H      4.778480255978   -2.647869940626   -1.029729048570
