54

C      2.097677192502    3.071783016822   -2.374631953380
H      2.894239687313    2.323784526170   -2.379796710287
H      2.371959286329    4.128676144467   -2.379924880451
C      0.805170096077    2.685108809667   -2.633886996179
H      0.023770062988    3.425471713174   -2.821473923222
C      0.464769880606    1.254085638576   -2.930550681531
O      1.272070477301    0.354753899719   -2.982984174967
O     -0.847344935764    1.116090834952   -3.130975584808
Pd     0.990462030522    2.967489222420   -0.399300468291
C      0.151789980818    5.565594001596    0.317642422595
O      0.302301402770    4.800286664231   -0.744317503873
O     -0.170570559985    6.731039120298    0.257409913027
C      0.431475244452    4.862355720464    1.675515614653
H     -0.375471360803    5.208539107843    2.339532666668
N      0.350304524245    3.418632023695    1.471266284751
C     -0.408788709634    2.618724808389    2.225541531253
O     -0.708702478232    1.443138988128    1.911472440639
O     -0.104683808957    0.012278485281   -0.007573614536
H     -0.430942436607    0.711323276950    0.710422588308
C     -1.345168688046   -0.224130192862   -3.323742422158
H     -0.770146951954   -0.701630184759   -4.132914419791
H     -1.156242540492   -0.787645086055   -2.396573174626
C     -2.821588243103   -0.132501964133   -3.644213547703
H     -2.993149782840    0.447515350392   -4.564171833728
H     -3.233908103560   -1.142890204334   -3.791000526759
H     -3.373764902162    0.348819100771   -2.822762766284
C     -0.956186830035    3.135476012329    3.548738377092
H     -1.268588457287    2.267932787596    4.142857435502
H     -0.220655625922    3.728707806477    4.110051415871
H     -1.843100869081    3.766330722422    3.373030311724
C      1.761048212119    5.333563756854    2.277628065768
C      2.724480372167    4.418756686521    2.725074664483
C      3.922082851072    4.865592091859    3.296522865685
C      4.171387870761    6.232869628869    3.428793756659
C      3.212695082381    7.151779815953    2.987034459360
C      2.017348867164    6.708799117895    2.418079630700
H      2.530234682330    3.348856058093    2.630859886400
H      4.660357115311    4.137262477494    3.643394701320
H      5.105524710828    6.582784574952    3.875836377639
H      3.396733919876    8.224841962354    3.086595779014
H      1.275318315271    7.425771273799    2.061368675033
N      1.898309053850    1.134356699301    0.042006912546
C      1.206024113357   -0.025044907984    0.040131485475
C      1.900900329029   -1.254612601327    0.087836646515
C      3.277674453540   -1.259491768877    0.188889933142
C      3.996610759495   -0.044868410737    0.256894253709
C      3.246711176029    1.119113391425    0.174114801314
H      1.313001858906   -2.172518709109    0.062109172473
H      3.815665808102   -2.211031962060    0.233558945616
H      3.732801664155    2.097952140360    0.203182544917
C      5.496188174790   -0.013859238829    0.400449114511
H      5.878852391874    1.017129547289    0.420584674294
H      5.819517010883   -0.509581002332    1.330929327715
H      5.988715707544   -0.539381548462   -0.434351863389
