66

C     -0.150788678531    3.952635682613    3.352959224836
H     -1.536597011575    5.524612330143   -3.399456846054
C      0.971525321757    4.335642452588    2.421766528879
H      1.844492403679    4.752947832467    2.945918032309
H      1.522079145638    3.283638021609    2.089717352812
C      0.662272125288    5.063692976814    1.173959843749
H     -0.372089564499    5.345762763498    0.957656723879
C      1.717147525424    5.991782088799    0.685325521656
O      2.865092497819    6.005377587949    1.084575609406
O      1.275373511777    6.823259528391   -0.281484761864
Pd     1.124297343661    3.231569612284    0.377779992821
C     -0.894611992856    2.934864526066   -1.644110509990
O     -1.265601658352    1.887650736930   -1.086607497764
O      0.208379943191    3.550753408649   -1.470656987356
C     -1.854124936631    3.539415128427   -2.692858587186
H     -2.843417937856    3.133271404891   -2.431321948067
N     -1.906709961483    4.989847485874   -2.623411299662
C     -2.195434207489    5.635493108025   -1.458815099467
O     -2.487422932758    5.028953053993   -0.435375438094
O     -0.025327101461    0.121996481444    0.204789027168
H     -0.473909591430    0.933952693394   -0.247522302938
C     -1.434624733770    3.647008525077    2.873743293765
C     -2.482394656530    3.306144381817    3.736395151486
C     -2.242299677628    3.257189488837    5.131508757999
C     -0.958470992797    3.558954056070    5.603634189338
C      0.078020794147    3.902844445147    4.732617866192
H     -1.638104306787    3.675762313316    1.799916957427
H     -0.764937059574    3.526366387966    6.679747967182
H      1.068610883468    4.137748676880    5.132624471001
C     -3.846722889895    2.996050167408    3.171775322298
H     -4.148550036212    1.957147420337    3.390411066649
H     -4.623112928572    3.647175816176    3.608217413559
H     -3.864259828550    3.133050775041    2.081490183783
C     -3.345172964163    2.886339046591    6.090903417869
H     -4.194131599051    3.588293259293    6.025168831482
H     -3.752674847141    1.884411770783    5.872967171437
H     -2.989223850310    2.885970483939    7.131504042203
C      2.264690418918    7.686585072419   -0.867155037521
H      2.715272531934    8.304615556133   -0.073730105549
H      3.073493752928    7.065506991696   -1.285258211048
C      1.600111587203    8.533226813632   -1.932468318096
H      0.810183049546    9.169152950530   -1.503628356264
H      2.347309581615    9.189486172876   -2.405559472169
H      1.151628307003    7.903085182827   -2.715896383561
C     -2.104126481005    7.149710141200   -1.495608624876
H     -2.913241277439    7.566495782785   -0.880397085193
H     -1.144629896248    7.442953001047   -1.041965906524
H     -2.161144501737    7.568002899969   -2.511849903738
C     -1.465703965460    3.087161672084   -4.100658169676
H     -2.186620602855    3.460430990632   -4.845855077928
H     -0.459316670920    3.451298880463   -4.363874334490
H     -1.456620632597    1.988937752017   -4.151987880236
N      1.973938854567    1.261400809212   -0.006226602709
C      1.277002551018    0.121712751440    0.099980872147
C      1.958040776653   -1.145023935630    0.124916472102
C      3.338379893195   -1.166773322666   -0.004451087052
C      4.037052398788    0.048680899374   -0.155071997357
C      3.325155602526    1.228683143381   -0.149186096534
H      3.884385233021   -2.110666631974   -0.001968842854
H      5.122107104069    0.060177725190   -0.268221297616
H      3.821055008098    2.196787300721   -0.249597758733
O      1.157827598033   -2.221181472587    0.264727171346
C      1.742786057054   -3.502420087152    0.299830228262
H      2.443232224981   -3.610975916636    1.148234943180
H      0.919660938292   -4.218488201998    0.422971842978
H      2.282162984476   -3.733350413214   -0.637256857732
