59

C      1.522744569706    3.975946212335    2.356714755859
H      0.776675779107    4.161219869407   -4.013074008012
C      0.794513920803    5.236345175152    1.887401788967
H      0.060003112851    5.552438109726    2.645688764631
H      1.521478282040    6.049606167075    1.750310993437
C      0.125927005302    4.874209087986    0.563196113887
H      0.404392279988    5.488887946932   -0.300740260329
C     -1.343947786017    4.622163249246    0.630181899562
O     -1.933442129973    4.271758298339    1.636634480523
O     -1.945797441194    4.811178354292   -0.556540281535
Pd     1.030838127520    3.059015575260    0.259081561800
C     -0.340449809568    2.500305531125   -2.217994186861
O      0.631307874537    3.200409298254   -1.775835462726
O     -0.943187852166    1.604676509457   -1.600866741300
C     -0.756797808021    2.771427653914   -3.664408942906
H     -1.851519288731    2.849317817280   -3.711580548518
N     -0.196782793611    3.976589406846   -4.225353633472
C     -0.980940621364    5.012151923463   -4.651226167032
O     -2.197183147408    4.932904397325   -4.740471134268
O      0.127744155759   -0.059612479828    0.000956380317
H     -0.292426721350    0.711115473867   -0.529108205333
C      0.771433306726    2.811463668101    2.663743078819
C      1.372420277003    1.666468991200    3.244913620526
C      2.752175148324    1.675092827675    3.502724680132
C      3.502620034520    2.826127117992    3.171106657998
C      2.916646627677    3.948853155363    2.606538525389
H     -0.319238510931    2.862761832902    2.597672429054
H      4.576840244849    2.829989234656    3.377509376056
H      3.520216457348    4.833113568212    2.385090066499
C      0.519260326035    0.474777591035    3.595371833313
H      0.862854051022   -0.434499700785    3.075037783348
H      0.559760159258    0.255204516981    4.675985205784
H     -0.530768511695    0.638753088958    3.318166774384
C      3.429689883465    0.482058282067    4.127731107155
H      2.984875785313    0.229666461902    5.104976241499
H      3.326040047054   -0.414896163056    3.494174897137
H      4.503005655651    0.663244838491    4.282666073698
C     -3.347162041817    4.483003622776   -0.669791992925
H     -3.411506805994    3.416136182175   -0.942970594191
H     -3.818227014629    4.607875588117    0.315620670616
C     -3.974014520823    5.371338352822   -1.725681234619
H     -3.488530866755    5.248295163142   -2.705756423123
H     -5.039767242376    5.113452746854   -1.835286576521
H     -3.909502743754    6.431218342443   -1.431573488191
C     -0.234493077829    6.287781505627   -5.007186828724
H     -0.660246655626    6.698272634168   -5.933476953264
H     -0.405247463563    7.029368627647   -4.210212504246
H      0.849021674593    6.144083459036   -5.131787792451
H     -0.475893750092    1.876462849695   -4.250051324234
N      2.100770984356    1.148631036079    0.003838327687
C      1.441586162593   -0.030006863165    0.018476922144
C      2.152929456049   -1.252815530955    0.084059272580
C      3.537444744295   -1.235641955422    0.083110884609
C      4.212785856893   -0.005228699576    0.016920949628
C      3.449253768840    1.151638026446   -0.017006552676
H      1.577386942441   -2.179039239041    0.107065955988
H      4.097048868159   -2.174192600047    0.118640811710
H      5.301876644404    0.052837325165   -0.002931689099
H      3.921348285049    2.136823894672   -0.051288073632
