62

C     -0.549987134154    4.660696095091   -2.274698761586
H     -2.274344067833   -0.243673637173    0.505467099910
C      0.512667537851    5.031290910004   -1.335739022357
H      2.500520751743    3.701857584543   -0.475454077061
H      1.438968653093    5.369380160125   -1.807401965149
C      0.417606515751    5.226905993318    0.044649854366
H     -0.520337656866    5.081274094855    0.592274030274
C      1.436164175879    6.003387040816    0.817212309697
O      1.359429242788    6.208189526449    2.005226939701
O      2.442539935111    6.477487734303    0.050780355706
Pd     1.119509935614    3.168490868302   -0.143596786042
C     -1.856996312784    2.667590586371    0.989535687469
O     -0.806802565654    2.253505400243    0.338235970572
O     -2.002757422505    3.792829363177    1.443637421391
C     -2.988800931245    1.631617061320    1.203508403817
H     -3.915565652268    2.174746165946    0.971814635469
N     -2.938203806882    0.496077725740    0.303517097315
C     -3.513690748388    0.521835192162   -0.939811075653
O     -4.208238061144    1.449273171187   -1.325762130338
O      0.033081017817    0.070816629437   -0.432172618021
H     -0.415800798746    0.970246044337   -0.148428850939
C     -0.215444843047    4.519345800249   -3.637659383162
C     -1.156444277827    4.153680989043   -4.603195673660
C     -2.490254622616    3.906942573636   -4.195371339564
C     -2.827809548749    4.060613343036   -2.840710639404
C     -1.885814449001    4.441901880765   -1.890652211678
H      0.819138987310    4.697151799104   -3.946957262876
H     -3.847481675069    3.843870668197   -2.516356335517
H     -2.187331397531    4.555441756484   -0.849090221539
C     -0.753985269265    4.015874004087   -6.050933210384
H     -0.928445510341    2.992998993764   -6.426045626811
H     -1.336810256181    4.690339488006   -6.701029692592
H      0.311136335721    4.248343113739   -6.195400167960
C     -3.536579503901    3.483170950798   -5.193107420143
H     -3.698941862079    4.256227884675   -5.964360092735
H     -3.236459828699    2.566658161918   -5.729039800289
H     -4.498386601836    3.285062737890   -4.700110649055
C      3.472598174082    7.214690927909    0.726318111747
H      3.012178466678    8.048503982046    1.280253720123
H      3.949172244692    6.559465021837    1.474653609755
C      4.462287760921    7.700923035789   -0.312169646364
H      3.971806101194    8.357889941388   -1.047094141541
H      5.268867845676    8.270912110581    0.174805371239
H      4.915819633669    6.856152962579   -0.853665408877
C     -3.221026735195   -0.700700049733   -1.796518952020
H     -3.519165147982   -1.627326017862   -1.279848344278
H     -3.774541088864   -0.614086903240   -2.739202333381
H     -2.140885036318   -0.765645833566   -2.004816430118
C     -3.012082236962    1.184583562535    2.669090405998
H     -2.096431614463    0.626378124939    2.929579440780
H     -3.069955640538    2.064574978113    3.324747201982
H     -3.880267430499    0.536050075573    2.861659810427
N      2.012463284428    1.206726158717   -0.003979649552
C      1.327062115250    0.056651842078   -0.225641595730
C      1.997184458580   -1.192316024602   -0.248486978657
C      3.356025014053   -1.247725902067   -0.009153391229
C      4.054162478929   -0.056724865588    0.255117478010
C      3.346086959761    1.130639554560    0.242208620671
H      1.399211628926   -2.082972395736   -0.444955146478
H      3.877351480706   -2.208391879926   -0.018789051775
H      5.125617795783   -0.049900312686    0.458607804323
H      3.847690151445    2.079757049331    0.428807317820
