32

Pd     1.185552581484    3.029851256312   -0.606505311700
C      0.345349348173    5.706314699204   -0.491627489779
O      0.692644814029    4.774034704709   -1.359218070958
O      0.211660908739    6.873036383800   -0.777263321806
C      0.151966469541    5.192302914014    0.951113738304
H     -0.829160415935    5.571387349024    1.276637483169
N      0.136866870019    3.722206994464    0.931980268268
C     -0.748759656675    2.967865476486    1.592062969122
O     -0.924386157704    1.748546629216    1.393352886717
O      0.001672073625    0.024103678695   -0.128906113499
H     -0.392361813015    0.832844546599    0.397923480248
C     -1.608504249847    3.628324579740    2.663131112711
H     -2.015335433351    2.829729688952    3.295505132062
H     -1.055050641259    4.347904766471    3.281458262581
H     -2.452226268468    4.158537849969    2.191518815006
C      1.234149723067    5.778482343106    1.864401190565
H      1.075051943588    5.483718509284    2.913098425817
H      2.233525483192    5.430566022858    1.557677776557
H      1.211588091239    6.876097995035    1.794560935503
N      1.982403556931    1.197683405607   -0.021417146611
C      1.303528636622    0.023177341253   -0.076474790954
C      2.008224064986   -1.204967708501   -0.095737293612
C      3.391378813711   -1.235586397856   -0.003788200959
C      4.068191995513    0.002794964327    0.116173490990
C      3.335146500972    1.170390040881    0.104441941658
H      1.413549100008   -2.117284458006   -0.163000625670
H      5.154323525000    0.046450582070    0.214629988717
H      3.825730434218    2.144025662617    0.187944630292
C      4.158455360729   -2.529858083987   -0.010278968892
H      4.757897703859   -2.633423159591    0.909153845646
H      3.491273006154   -3.399460065896   -0.087383656452
H      4.863865011740   -2.559151764215   -0.857257688345
