68

C     -1.523423227548    3.796893428848    1.972937987249
H      0.122610176009    4.552737078941   -3.385127084477
C     -0.217247290897    4.412724240812    1.683498949630
H      0.398560692806    4.510585647870    2.582986722643
H      1.743955726075    3.047897869763    1.627316061222
C      0.294158063360    5.111133947764    0.580307453658
H      1.242173350182    5.633873712732    0.741421519762
C     -0.404930197626    5.686663753328   -0.614298552398
O      0.197432148798    6.271888897772   -1.487580384660
O     -1.734499236524    5.566239210920   -0.576692243463
Pd     1.018917635456    3.072064827359    0.287727178168
C     -0.556338388113    2.402606675571   -2.331018458958
O      0.240305767365    3.180106345576   -1.727638553695
O     -1.091546792219    1.380678185433   -1.833185915762
C     -0.866172387852    2.732195431769   -3.795745553302
H     -1.953688546014    2.628918941830   -3.941836004087
N     -0.489784980243    4.109237342620   -4.064401450462
C     -0.981613859436    4.815328803711   -5.124096403946
O     -1.765855810311    4.334790294428   -5.929674214970
O     -0.104336063121    0.122376788097    0.036455799629
H     -0.534234015820    0.767951479539   -0.702989014457
C     -2.337325154694    3.155978199864    1.019044997131
C     -3.547021045217    2.549945545901    1.363143026592
C     -3.990562747932    2.603335184038    2.708632091230
C     -3.179349893587    3.235679073049    3.661512167621
C     -1.956014813208    3.803115905078    3.311876508356
H     -2.006003230182    3.099676878442   -0.015191962358
H     -3.507289186022    3.268308659109    4.704076759659
H     -1.333536719331    4.265291352473    4.082881587304
C     -4.357415254137    1.840005769013    0.306622355942
H     -4.588995903198    0.804113424788    0.604441550426
H     -5.325673808173    2.340692132448    0.131588679355
H     -3.813059420616    1.796041282206   -0.647046638996
C     -5.297619177500    1.973623828957    3.113855783923
H     -6.142973276465    2.393509913474    2.542905143976
H     -5.299254312059    0.887692860569    2.918101410733
H     -5.502846914449    2.123912014958    4.183430337467
C     -2.485729369667    6.167954219268   -1.651937681014
H     -2.170403353919    7.218153292436   -1.755413126007
H     -2.224474502326    5.650746936690   -2.587303071438
C     -3.959029381903    6.044885404730   -1.326273796218
H     -4.200671431971    6.558743593352   -0.383211724715
H     -4.554668983521    6.500509075688   -2.132401313644
H     -4.259508593756    4.990451712721   -1.232074312571
C     -0.462551783154    6.241554711138   -5.239571280730
H      0.348149339066    6.267687106185   -5.986157926728
H     -1.273883765858    6.880353321565   -5.615461997663
H     -0.078637747041    6.637676550456   -4.287993130751
C     -0.185152059342    1.727756149558   -4.781076897287
H     -0.391904444609    2.165611963140   -5.771115538317
C      1.333550423954    1.659089418979   -4.590458139380
H      1.799669842286    1.078180619387   -5.402363299309
H      1.787096836423    2.662428347807   -4.593790529230
H      1.603553362410    1.167916534264   -3.639801718671
C     -0.832352289414    0.339565944439   -4.749799892582
H     -0.688867011065   -0.157568054817   -3.779002622520
H     -1.917035738126    0.400945379136   -4.933773637980
H     -0.396525312152   -0.300199306072   -5.534423185818
N      1.946777901744    1.184928222684   -0.012168035037
C      1.192313173345    0.060616698304    0.019644678313
C      1.857705729752   -1.203654502656    0.065920839734
C      3.238850129334   -1.276505262361    0.032451898207
C      3.973736539320   -0.082661784280   -0.047695206264
C      3.296097150218    1.124751811650   -0.061056912647
H      3.742194212125   -2.243705821980    0.055394989126
H      3.837247367576    2.070735789621   -0.095991586920
Cl     0.898949723283   -2.644428296308    0.141483422794
Cl     5.712997178932   -0.112761616343   -0.110081996470
