62

C      2.311581964398    5.375631282413    2.648922756434
H     -0.145402487982    4.581863002724   -3.737739058048
C      1.104039355570    4.550584042214    2.275676709038
H      1.543953545516    3.433424263553    2.041380709863
H      0.477578111064    4.286712986467    3.140124765014
C      0.273846420396    4.958818098109    1.120398446273
H      0.602418524458    5.810477978379    0.515453138180
C     -1.208783125614    4.839169712146    1.273303659496
O     -1.756962746036    4.280844244180    2.201055375831
O     -1.851944581579    5.411212328955    0.245313427925
Pd     1.024901393768    3.215737835186    0.374632019362
C     -0.774261851190    2.697870228783   -1.836857425597
O     -1.222753120766    1.736104937688   -1.193356702234
O      0.252645043329    3.397867301912   -1.539772803134
C     -1.487053863472    3.084225137946   -3.137864285186
H     -2.569489795564    3.067789472129   -2.955086989619
N     -1.135826839709    4.391275867338   -3.639195198026
C     -1.976279252972    5.462310061658   -3.501251801994
O     -3.142683286101    5.352393421788   -3.152635057153
O      0.073058832454    0.108220142722    0.268082024665
H     -0.411344701078    0.866886784789   -0.223035025589
C      2.460618018544    5.826860265822    3.967129217002
C      3.544791678635    6.621259659325    4.365661918597
C      4.524870151949    6.975086666241    3.409735438757
C      4.375712739277    6.515069101017    2.093144870771
C      3.290639919051    5.725792828130    1.710871916177
H      1.704324785097    5.556766698581    4.710203104448
H      5.132020485442    6.780951016336    1.349073895248
H      3.206007770391    5.378751108972    0.676711842543
C      3.659167958340    7.088210657030    5.795688374101
H      4.592712636550    6.734143289044    6.265273129492
H      3.673750498540    8.189365482530    5.863035695192
H      2.818786736756    6.726326000138    6.405237832248
C      5.708950358195    7.826118494890    3.795192455862
H      5.393323819448    8.807842163308    4.187719981473
H      6.310762706166    7.351665067441    4.589094466534
H      6.370315543900    8.006096730142    2.935384046274
C     -3.296597943673    5.320096016190    0.216323078104
H     -3.550880035147    5.389811675151   -0.849607921004
H     -3.590531529835    4.332808929883    0.601334925253
C     -3.938895478415    6.434478790155    1.024844568376
H     -3.609162375009    7.422328015662    0.665962053024
H     -5.034551511499    6.383021697975    0.918944725282
H     -3.694027361910    6.343260266073    2.093723614402
C     -1.355596206332    6.815628612074   -3.804270903737
H     -0.446565333855    6.751699401693   -4.420709527337
H     -2.102249141577    7.443387978101   -4.309357594183
H     -1.100898848451    7.302347458609   -2.848562141221
H     -1.267377742303    2.297003893376   -3.880707180811
N      2.034833784545    1.317566856515    0.034260881015
C      1.380434230315    0.144876821632    0.160084646524
C      2.106775497961   -1.070665600856    0.207634730272
C      3.482055679827   -1.050003543846    0.086590606539
C      4.167133379023    0.172773467938   -0.091027513726
C      3.381026802593    1.317141334875   -0.105212777256
H      1.543565859182   -1.997132914441    0.325962617993
H      4.043517563174   -1.988741582611    0.116701517719
H      3.843719355343    2.301349470408   -0.223190656236
C      5.664490095760    0.233100944663   -0.249511068733
H      6.016873142607    1.270243734301   -0.351664695333
H      6.179677218382   -0.211927646769    0.618087688501
H      5.997260875176   -0.322348038909   -1.142493396807
