74

C      2.326799563899    5.372585484739    2.570470533755
H     -0.259574362554    4.807996365004   -3.570846214944
C      1.100546015326    4.561050470677    2.231551516170
H      1.515070310196    3.433375704891    1.998105965306
H      0.491281881933    4.311063573295    3.112284218672
C      0.248821556514    4.970440784451    1.092253594293
H      0.563155622267    5.824810814238    0.483745684633
C     -1.229720924917    4.841347550607    1.278591619787
O     -1.750071560084    4.277507553709    2.219019874446
O     -1.905441577609    5.409316667353    0.268978311837
Pd     0.980294392222    3.222459039358    0.335913369698
C     -0.860406506502    2.805604911471   -1.848389063802
O     -1.379005899430    1.923752227239   -1.139796833493
O      0.231588244291    3.417385235296   -1.590165458627
C     -1.542037238649    3.190459105611   -3.171399666163
H     -2.625442983131    3.145431126766   -3.001597752635
N     -1.243378602130    4.565507841358   -3.530594467431
C     -2.146926491687    5.577371082691   -3.366289093654
O     -3.323971501473    5.384476973230   -3.094850856740
O     -0.064408193906    0.144441736864    0.126158694535
H     -0.532101415414    0.964153742432   -0.270626474321
C      2.512654099426    5.829385122448    3.882152471641
C      3.615945695276    6.611893147327    4.250450397170
C      4.577779023250    6.947429859692    3.269684886854
C      4.391834254760    6.481902217445    1.959753279374
C      3.288001627891    5.704692983920    1.607629548253
H      1.770726245690    5.573243638772    4.644423778448
H      5.133963340370    6.733297742249    1.196652867075
H      3.175236445698    5.352650107127    0.577846285871
C      3.769943413736    7.085327503164    5.674595581598
H      4.709969605328    6.722362327253    6.123973702947
H      3.799567572331    8.186560739119    5.735170598054
H      2.939919087181    6.737241217876    6.305983622190
C      5.781694903735    7.784815896586    3.622072989136
H      5.488383210215    8.773090291497    4.015483320175
H      6.395457829562    7.307129225830    4.404793845454
H      6.425168669264    7.950547354258    2.746003192425
C     -3.350200691469    5.297088645271    0.280835438759
H     -3.637620415165    5.381582848388   -0.775450486388
H     -3.616466179667    4.297860388631    0.654394503240
C     -3.985917348971    6.386207559322    1.127905939139
H     -3.683301719395    7.385895830492    0.777870690459
H     -5.083158142571    6.318171980741    1.052027395789
H     -3.709088744438    6.280028454269    2.187445976592
C     -1.582518803894    6.979577060187   -3.524525258719
H     -0.658841895795    7.012685278265   -4.121460316648
H     -2.346006010070    7.620267404984   -3.985875928457
H     -1.367335469896    7.380758210075   -2.520424000363
C     -1.145649372555    2.228132800372   -4.313103361879
H     -1.661043029401    2.586236053668   -5.221883062273
H     -0.063479862691    2.347217801070   -4.504374743298
C     -1.457385005553    0.733384658948   -4.109945137099
H     -0.899778716815    0.383932859196   -3.223389779597
C     -0.961760647249   -0.067585274501   -5.321561393845
H      0.114349255526    0.091499874625   -5.502071130033
H     -1.121307874895   -1.148302277303   -5.176513776522
H     -1.499710339389    0.226973813741   -6.239445534987
C     -2.945736522452    0.473722702386   -3.843669685625
H     -3.147510586954   -0.607947877460   -3.779209716955
H     -3.267041311900    0.924452637016   -2.893652704182
H     -3.573795774572    0.881486932211   -4.655161182613
N      1.938444868196    1.301030421257   -0.012473492596
C      1.248663217604    0.145399807350    0.053457130957
C      1.909381824444   -1.119512721862    0.074735546254
C      3.293357383775   -1.122053312719   -0.016211082611
C      4.005294430613    0.085198708984   -0.127561013373
C      3.287223324175    1.265889358230   -0.118411393589
H      3.828985401397   -2.075686110348   -0.010790491319
H      5.092772555398    0.101967488021   -0.211867649559
H      3.787703703057    2.234834253152   -0.187712642368
C      1.082394472785   -2.369487882020    0.178625556138
H      0.483678262586   -2.371910577733    1.104038931751
H      0.360559635949   -2.432958245486   -0.651589237034
H      1.716683940955   -3.267532155926    0.167153427862
