74

C      2.314614296757    5.398404918888    2.568409372870
H     -0.161507899174    4.807505566854   -3.409380014784
C      1.100028887016    4.574231612503    2.219538839886
H      1.527469463703    3.444632402249    2.008076419723
H      0.478525404819    4.327519958292    3.092612901199
C      0.264685128682    4.957643765815    1.060125406788
H      0.580283232943    5.807050038434    0.445371649859
C     -1.216343739957    4.812240006970    1.222016661219
O     -1.744372863893    4.246333978499    2.156360986136
O     -1.882549425636    5.369105844872    0.200024225528
Pd     1.031812816512    3.210823849912    0.340597610110
C     -0.761376569380    2.756628250658   -1.880912755794
O     -1.270493339982    1.859874947215   -1.182714229731
O      0.320795127494    3.378316712833   -1.603524797789
C     -1.461156644257    3.172937349313   -3.185508198650
H     -2.540619861684    3.144205835211   -2.981691229933
N     -1.140293043990    4.556137950186   -3.493455140306
C     -2.062569475913    5.559572320191   -3.372902412132
O     -3.257318260832    5.352440518011   -3.214079746818
O      0.025911704660    0.106593090319    0.073181477109
H     -0.449177841393    0.933048446713   -0.331157674700
C      2.475512412310    5.869748114600    3.878254760871
C      3.567523313885    6.663396906772    4.255996787081
C      4.543300092142    6.994554987265    3.287395819715
C      4.382140676147    6.514117638526    1.979540597240
C      3.289104704064    5.726348449218    1.617644346915
H      1.723172711507    5.616383913932    4.631188689482
H      5.135734022815    6.760934191935    1.226422780219
H      3.196960211189    5.362304285933    0.589924993383
C      3.695612706091    7.152337424164    5.677353821584
H      4.629989741597    6.798744173237    6.145468004600
H      3.718964270897    8.254243623695    5.726632309174
H      2.857170000373    6.806619326827    6.298819209883
C      5.736581163160    7.842115248524    3.650786884849
H      5.431195156960    8.832084724968    4.030388564553
H      6.340160581809    7.374812659262    4.447474827464
H      6.393052131038    8.003237668687    2.783657130632
C     -3.327897305657    5.249975383208    0.196735865639
H     -3.604848394425    5.332200851023   -0.862558409069
H     -3.592962687842    4.249835396412    0.568576838942
C     -3.978043418325    6.337068698430    1.035072980819
H     -3.677725516339    7.337869478411    0.686486265319
H     -5.073899026806    6.262372958624    0.947568689623
H     -3.712176539343    6.234025075902    2.097636354955
C     -1.492747578810    6.967264251880   -3.423733949155
H     -0.533905082529    7.027843357720   -3.959962658508
H     -2.226753692489    7.632242827299   -3.897956654424
H     -1.338842580197    7.314569687161   -2.388659463829
C     -1.178519008084    2.194774640869   -4.382504474120
C     -1.974906814165    2.693807978427   -5.602970745491
H     -1.830569838936    2.011573236238   -6.456317770573
H     -3.053076888324    2.741552269583   -5.382861274382
H     -1.651470533766    3.698699662360   -5.912110007452
C      0.322236731991    2.165602863927   -4.725756854707
H      0.697049049386    3.166775888428   -4.993375513781
H      0.929155231332    1.790138615350   -3.886863127169
H      0.503258296234    1.507184062754   -5.590700811611
C     -1.655440526370    0.774067970062   -4.027713278215
H     -1.102793372856    0.348079918005   -3.178966504137
H     -2.723617968834    0.768098154784   -3.758585581195
H     -1.521210266388    0.107743062071   -4.895405996902
N      2.017206432983    1.289308004400    0.030309050954
C      1.329362342641    0.124025648487    0.065191337223
C      2.021514677349   -1.116322548128    0.119562187853
C      3.398235351270   -1.133262712574    0.093508151009
C      4.100416076836    0.087839181646    0.010698086239
C      3.365199503088    1.261226896181   -0.014155475307
H      1.426367706347   -2.028621345628    0.167273702184
H      3.941339592913   -2.080707748987    0.128772210910
H      3.868566442007    2.228708357351   -0.058841123393
C      5.601766104011    0.099976416298   -0.050961748668
F      6.140937282829   -0.578762767957    0.979322615059
F      6.055843704982   -0.485089789456   -1.175557678500
F      6.098590802923    1.347972160647   -0.018790972195
