65

C      1.513234982816    3.998912463076    2.524383242551
H     -2.028907320663    1.434781184263   -3.392696755147
C      0.721512792390    5.228281757465    2.080154233735
H     -0.019817370636    5.499747231151    2.849256961337
H      1.407465639866    6.076953868176    1.947164333120
C      0.057151956531    4.854093753278    0.757454778398
H      0.288508481437    5.496961910695   -0.099819735617
C     -1.394513146338    4.523007919161    0.843422455472
O     -1.966239731015    4.168442864456    1.858281868197
O     -2.023504591353    4.637010165604   -0.341385824476
Pd     1.046882811669    3.094942648112    0.388299382379
C     -0.263708667975    2.614756581723   -2.140654114363
O     -0.882206470605    1.692480323767   -1.568456062893
O      0.667091089800    3.319449894276   -1.637296252679
C     -0.622096267277    2.966791954792   -3.580417657855
H      0.281482492514    2.873239630629   -4.207677142439
N     -1.689168589631    2.122026505928   -4.059089499273
C     -2.109949788868    2.147870150077   -5.355398487249
O     -1.638462455918    2.914053147468   -6.180426126090
O      0.133378956207    0.056510396124    0.124680987266
H     -0.264559511911    0.818289049477   -0.426919041900
C      0.827156164643    2.784238308456    2.787431272950
C      1.489570650618    1.658960562914    3.340888503034
C      2.864980402124    1.737515681583    3.608859601807
C      3.549183160181    2.939638912106    3.319959190784
C      2.902793354766    4.044269626096    2.787570195570
H     -0.264734991695    2.776573828408    2.725498763239
H      4.620734346032    2.997422954823    3.530286126406
H      3.457137224543    4.966608152647    2.595443220335
C      0.702118606436    0.414699241118    3.661581125730
H      1.122126988292   -0.471482629259    3.158056792394
H      0.719188614391    0.198623146267    4.743823650287
H     -0.345987675693    0.511170690119    3.348121717162
C      3.605712490803    0.567733684545    4.205950746753
H      3.176069873399    0.269165774296    5.177097191807
H      3.550248050990   -0.318763004066    3.551943329854
H      4.667880654891    0.802596442817    4.364571084806
C     -3.404584746270    4.236953254098   -0.376461725863
H     -3.474644468460    3.183447099416   -0.061003110826
H     -3.966516226702    4.834662001562    0.359380260906
C     -3.923154947980    4.437400063138   -1.785194095577
H     -3.388541680296    3.794203137025   -2.500303849817
H     -4.993368700340    4.180386801983   -1.827554295510
H     -3.808753801281    5.485098842960   -2.103853407797
C     -3.219698833643    1.165703948858   -5.702953031050
H     -2.894081603825    0.553394007354   -6.557257999976
H     -3.507882513431    0.506404868952   -4.871034540467
H     -4.102574967218    1.735051070985   -6.032337214747
H     -0.898048515170    4.034774708542   -3.613086319446
N      2.138269361010    1.188521084958    0.031252083770
C      1.450206312193    0.053528288192    0.115988154181
C      2.102360283503   -1.218109593949    0.229618819812
C      3.467473748746   -1.278261637132    0.181755193602
C      4.228406742055   -0.084996320595    0.004818531649
C      3.510825054229    1.149351801498   -0.075515048461
C      5.642679195511   -0.080324475239   -0.101616613139
C      6.331505392347    1.101597708211   -0.293164954261
C      5.619801822443    2.319940062030   -0.386363868542
C      4.241587854836    2.347600027718   -0.277441035393
H      1.473480667507   -2.103988659024    0.324965722196
H      3.986140379142   -2.238330386146    0.254883812920
H      6.177196979675   -1.032063145616   -0.036911636527
H      7.420380524786    1.097700487555   -0.380913649863
H      6.165084046255    3.252399045319   -0.552789332294
H      3.690052641793    3.285952966880   -0.359243334182
