71

C      3.794836316187    4.843881000106   -0.596712133292
H     -2.800305850774    6.101981296130    0.219970518228
C      2.853529070493    5.194148328268    0.535412960902
H      3.387720783542    5.817243106895    1.276378857631
H      2.024761851959    5.820418781650    0.170675892541
C      2.275747613743    3.983713589613    1.268071491428
H      3.047850115144    3.266248545357    1.580130539819
C      1.426199442008    4.367761284418    2.451893109688
O      0.978909396667    5.476897841192    2.653791464573
O      1.206179113712    3.321681835279    3.273669047727
Pd     0.934061506826    2.964273939698    0.103032099578
C     -1.484744175774    3.595154128723   -0.264744963745
O     -0.574594873325    4.404781895885    0.095087948823
O     -1.191535728958    2.433806907634   -0.677937513249
C     -2.946308274739    4.033578127636   -0.152767446321
H     -3.442404815883    3.219415821946    0.396354206071
N     -3.057537814402    5.227430610733    0.663798998114
C     -2.805070738775    5.141902237671    2.014763354610
O     -2.790114524841    4.069984384251    2.601176845411
O      0.002924542054    0.062243817708    0.110691289699
H     -0.413927963958    0.938890807284   -0.078671424909
C      5.168321661718    4.669891675678   -0.364523764039
C      6.067669470993    4.318422815166   -1.381843228656
C      5.578589446844    4.130204953916   -2.695727159738
C      4.207853645956    4.307927605978   -2.930041742424
C      3.326915483820    4.659419485084   -1.904466325932
H      5.556390532049    4.823846775711    0.647963985050
H      3.821166438172    4.172414802249   -3.944503896060
H      2.263677965161    4.793840831137   -2.121580164883
C      7.537557940151    4.158715593194   -1.077373214033
H      7.902605891197    3.149351160982   -1.334060515799
H      8.152402781012    4.867416987800   -1.658506558719
H      7.747910630053    4.330763527312   -0.011717709754
C      6.510074756456    3.759853709051   -3.823752350634
H      7.292966875799    4.523096461045   -3.974443302383
H      7.036021859347    2.809686587887   -3.626902405292
H      5.964884068596    3.649451264964   -4.772469738594
C      0.302067366144    3.530872430621    4.376425160665
H      0.622430811223    4.425782605941    4.933793568742
H     -0.705677010495    3.725920276714    3.974671603983
C      0.327444707912    2.287671150489    5.241709742655
H      1.339577969956    2.092820760992    5.630390198032
H     -0.353635332389    2.414782561185    6.097795469016
H     -0.001155884711    1.404153246956    4.672883865145
C     -2.504765464429    6.451528251764    2.712039481441
H     -2.935346313282    6.429154472782    3.722357601926
H     -1.407779227596    6.523487766777    2.808084155454
H     -2.877946003624    7.331958518559    2.167837252301
C     -3.620289315343    4.167805720063   -1.539459181631
H     -3.418328427950    3.207861941254   -2.044166299964
C     -5.138214546658    4.329025547523   -1.400182369507
H     -5.619717768749    4.376069017422   -2.389995977619
H     -5.581256055497    3.485416041958   -0.847574191763
H     -5.390460206838    5.252415177172   -0.854823753232
C     -3.006820442208    5.284072262730   -2.396611413166
H     -3.208808172058    6.284166004583   -1.975359180178
H     -1.915496108288    5.175396953591   -2.499766543051
H     -3.440341805275    5.273937882158   -3.408989504058
N      2.029067795121    1.212978629681    0.021984946608
C      1.325817312023    0.059450490433    0.057182501562
C      1.975091073137   -1.191994404779    0.046443066864
C      3.359260597962   -1.266739376027   -0.034128046321
C      4.070910824480   -0.049449506132   -0.113137654224
C      3.378391086025    1.145262010426   -0.081827724076
H      1.348466564630   -2.083890063287    0.092491239151
H      5.159081598036   -0.035666870410   -0.198035259227
H      3.901294528856    2.100303542133   -0.145434032300
C      4.081983975056   -2.586608428149   -0.046714455908
H      4.757555637361   -2.668028945455    0.820960719639
H      3.384004126984   -3.434950853218   -0.018518894256
H      4.707105060336   -2.682364728108   -0.949614074718
