42

Pd     1.141928517595    3.029619896741   -0.587033638113
C      0.209758696518    5.668753336453   -0.391019991096
O      0.576534634334    4.776229824529   -1.291573007246
O      0.015952441817    6.836192950640   -0.637339155196
C      0.093977009957    5.103182038107    1.042916908478
H     -0.848536681144    5.484873021271    1.461463810663
N      0.060767675089    3.639385401775    0.965842424429
C     -0.902073483651    2.863868592984    1.485588306741
O     -1.064642371463    1.663398870548    1.187993314797
O      0.062506826611   -0.024243955596   -0.235985666496
H     -0.397875162385    0.771990081413    0.255867176590
C     -1.859660586153    3.467277611620    2.503422668004
H     -2.376644944501    2.635833267868    2.997596016849
H     -1.351562998445    4.090011076698    3.251182273620
H     -2.611921793412    4.087252817616    1.988254168637
C      1.262840450468    5.659763729504    1.894783431164
H      2.208509338007    5.287106017586    1.466486262158
H      1.251360124871    6.751370747493    1.753828509715
C      1.188734619377    5.320306904324    3.364768183640
C      0.534995590959    6.178899498339    4.264897553596
C      1.741458357187    4.129621605667    3.864276057148
C      0.429968771490    5.855614157552    5.620600842010
H      0.107526773122    7.116696201143    3.897321497577
C      1.637768455081    3.802144243880    5.219485496094
H      2.259342732779    3.451455287803    3.181057049058
C      0.979867849520    4.663431670499    6.102468323780
H     -0.078438374457    6.540353854204    6.304496616338
H      2.075629774937    2.870684213754    5.588049316428
H      0.900763809319    4.409805983730    7.162662588258
N      1.993911764209    1.218080283358   -0.023487084901
C      1.358901079747    0.021964276283   -0.122425336261
C      2.106591460835   -1.181239850819   -0.123563160519
C      3.484422510207   -1.165908872195    0.028177903508
C      4.112542610297    0.093581769802    0.189204019044
C      3.340691507083    1.235252208775    0.158380013725
H      1.547263686222   -2.112306558554   -0.227208564102
H      5.191517209230    0.173276756218    0.333277545690
H      3.793542788020    2.223966899224    0.271433578551
C      4.295439122365   -2.433014090619    0.041507959169
H      4.857313354211   -2.527331914230    0.985325303313
H      3.662857245178   -3.323876300984   -0.074335747118
H      5.037861725815   -2.427695078797   -0.773685917292
