77

C     -0.157962927478    3.941255195217    3.324542567395
H     -1.427525923016    5.515584087801   -3.353378050396
C      0.977339543130    4.324203580222    2.409345644249
H      1.846205785534    4.733917801101    2.946239340253
H      1.530727055083    3.270668256595    2.079586268478
C      0.688549618487    5.056996886990    1.160454555067
H     -0.341311469046    5.346923928026    0.934621614271
C      1.754621081661    5.980883819381    0.687725788688
O      2.899037466057    5.982144505520    1.096747418003
O      1.326367584876    6.823431287511   -0.275124109429
Pd     1.152574723682    3.222307288148    0.366514671231
C     -0.861335015574    2.923200118541   -1.668374337463
O     -1.228822356642    1.879219405286   -1.095993802701
O      0.240620337967    3.538477474014   -1.491734090915
C     -1.842974618700    3.530574011039   -2.696894651889
H     -2.826357347451    3.156516617130   -2.373588168424
N     -1.868945819480    4.980778282577   -2.616508143978
C     -2.175212741481    5.618810500542   -1.451480830282
O     -2.512233780771    5.009236366138   -0.443528163769
O      0.027454244326    0.093206753867    0.106052389397
H     -0.427851040713    0.929948287061   -0.313353050689
C     -1.445384926030    3.674319685645    2.831852678989
C     -2.504841350156    3.336165111070    3.681315817971
C     -2.273072071805    3.247931568202    5.075887494161
C     -0.985415994074    3.510366534769    5.561199140592
C      0.062499168292    3.853474098296    4.703792580703
H     -1.644275486884    3.732896903913    1.758468364032
H     -0.798170518480    3.447575494864    6.637050891717
H      1.055567581010    4.057969931046    5.114238204893
C     -3.872882373941    3.072041087184    3.102286297393
H     -4.197709357971    2.033682051239    3.288490420597
H     -4.637261802642    3.725840747120    3.555511125440
H     -3.882358471077    3.243000963474    2.016680666812
C     -3.388706122754    2.878497910066    6.020892629707
H     -4.220746983091    3.601603071901    5.969541514749
H     -3.818385729741    1.892293466206    5.775605649904
H     -3.037860568934    2.843276887483    7.062604973046
C      2.323846103047    7.691104728616   -0.841434459832
H      2.775042752935    8.291047583974   -0.034711375648
H      3.129982505014    7.072227236365   -1.267869371019
C      1.668293370010    8.561656681623   -1.892910372903
H      0.878657578858    9.191790958353   -1.455100503086
H      2.420688214910    9.224312621943   -2.348459622138
H      1.221609642368    7.949970317822   -2.691842933783
C     -2.044711941505    7.130698304283   -1.469183752880
H     -2.840884378981    7.560090978973   -0.846045561729
H     -1.075681207811    7.395827236516   -1.018077689461
H     -2.095743150616    7.560803797466   -2.480812957150
C     -1.603681920633    3.034791206805   -4.160007849540
C     -1.617466804999    1.493981319095   -4.182680699217
H     -1.540893985573    1.134580356296   -5.221460076319
H     -0.781263232067    1.064339761262   -3.612650473458
H     -2.547857066772    1.095022224549   -3.749839431418
C     -2.755286536034    3.546501039800   -5.049434116105
H     -3.727858789872    3.175529563372   -4.688231527212
H     -2.807458402280    4.645913024063   -5.072897605300
H     -2.623648495621    3.196049047152   -6.085849765863
C     -0.254168494895    3.532124641853   -4.715381381479
H     -0.209922535534    4.631181809374   -4.800380174878
H      0.584769327122    3.216188324228   -4.078615099250
H     -0.092876894839    3.130328700825   -5.728622764482
N      2.009026761382    1.253780676912    0.004029381361
C      1.331929489884    0.106502392358    0.068163006448
C      2.018651785366   -1.167346381000    0.118506460640
C      3.442198742856   -1.180059776672    0.067368557853
C      4.116990327492    0.073743265634   -0.041093808017
C      3.379675599641    1.225136299653   -0.068035593638
C      1.301352685752   -2.384288627519    0.209871830120
C      1.981432406563   -3.587598346121    0.259467000595
C      3.394926534586   -3.607024816368    0.213862567938
C      4.113039554937   -2.429228819090    0.117930584513
H      0.211802093888   -2.345851333282    0.240601673886
H      1.428084474443   -4.526971126818    0.331833952513
H      3.922859117406   -4.563538326964    0.252837117727
H      5.205303202707   -2.446297178386    0.079880824594
H      5.206141707261    0.115982122096   -0.097286703889
H      3.863599432458    2.202046499835   -0.141864596472
