43

C      1.981484849726    3.252076110954   -2.408204581966
H      2.825681974059    2.560080764469   -2.460258543686
H      2.185321270856    4.324893227810   -2.396455712667
C      0.708638908599    2.787937277607   -2.649985026335
H     -0.121494668166    3.482993107733   -2.798945223149
C      0.448536924297    1.343996049000   -2.977765045859
O      1.310213089870    0.500931480173   -3.066198797460
O     -0.855254309545    1.135828825862   -3.155736675838
Pd     0.943067131578    3.006634596679   -0.430080923910
C      0.009012685430    5.544700746860    0.385210467127
O      0.136630180860    4.809471290915   -0.702773984253
O     -0.313610562623    6.707946713524    0.381706191599
C      0.338724580423    4.808344129039    1.700292493710
H     -0.359120263511    5.167083314587    2.468080776308
N      0.281220479391    3.359863729449    1.497061793816
C     -0.348035443167    2.575120478114    2.327161449014
O     -0.618804552883    1.329735078472    2.087449637535
O     -0.045157959534    0.139316544044   -0.035573780422
H     -0.415570387546    0.954293273299    1.140066661326
C     -1.283804707013   -0.229413226175   -3.353231180883
H     -0.677401770136   -0.676637662725   -4.156244561054
H     -1.074675332689   -0.778559811966   -2.421693098732
C     -2.759826422971   -0.212731795099   -3.686427295116
H     -2.952667625834    0.354738864445   -4.609958474956
H     -3.118582613464   -1.243233264071   -3.833542834512
H     -3.343084767017    0.241583233400   -2.871125142386
C     -0.847858355801    3.042490150749    3.673120809794
H     -1.092582219745    2.160918324176    4.277605518233
H     -0.105564065415    3.659353632488    4.197541344530
H     -1.765266329013    3.641322875508    3.550640252599
H      1.354089692599    5.117978605533    2.007854501124
N      1.952046197630    1.227218305634   -0.096080626975
C      1.211681854805    0.056391208020   -0.052912627777
C      1.929806885480   -1.187956192447   -0.006200839818
C      3.299642452001   -1.211272747925    0.053082487293
C      3.995101505074    0.018037247464    0.057103591084
C      3.290727202582    1.206193559589   -0.029032432387
H      1.334418035878   -2.101461603384   -0.001455239108
H      3.866233627504   -2.141715269411    0.103928590455
H      3.830305040135    2.154780024290   -0.048909321782
N      5.449473400881    0.055515384854    0.132419395033
O      5.993999736801    1.152382431046    0.123989576059
O      6.035962766097   -1.014590688359    0.200508250762
