65

C     -0.155191212441    3.984046190104    3.364437883520
H     -1.543853734511    5.504381956236   -3.396434505853
C      0.967095094362    4.362597756091    2.431401486170
H      1.839031923418    4.784900472932    2.953285709278
H      1.520362068418    3.309035676201    2.107225824005
C      0.657621291891    5.080663287465    1.178113606654
H     -0.376913942498    5.359885864631    0.959219794757
C      1.711673001058    6.005754861748    0.682335099478
O      2.860383920967    6.021402708244    1.079485372333
O      1.268192535636    6.831621365400   -0.288365284012
Pd     1.123275168428    3.242838049098    0.396163289091
C     -0.892288008785    2.926602558647   -1.625494001713
O     -1.259690643412    1.881553812763   -1.061908010012
O      0.208886763911    3.547008964908   -1.455617381135
C     -1.853569592272    3.522252252128   -2.677805773459
H     -2.841627165178    3.114424028102   -2.414128644341
N     -1.910706915977    4.972892025668   -2.616594054335
C     -2.200886722700    5.624561982978   -1.455794302999
O     -2.490270443895    5.023198357921   -0.428496737708
O     -0.017026378989    0.116829442171    0.233739031771
H     -0.463979851587    0.928983492496   -0.216578957848
C     -1.439958166431    3.679282878084    2.887090041332
C     -2.487657020806    3.342922415499    3.751645182849
C     -2.246528115496    3.297380923434    5.146691254688
C     -0.961722961018    3.598074461549    5.616889773992
C      0.074618588211    3.937756761155    4.744065124552
H     -1.644478308694    3.705490027494    1.813409116320
H     -0.767365043490    3.568197665995    6.692916308134
H      1.065891212908    4.172187578071    5.142668602239
C     -3.853201950367    3.034470078239    3.189010236535
H     -4.157428799613    1.996907074315    3.410686877641
H     -4.627670780995    3.688497917417    3.624480511562
H     -3.871372548967    3.168826531776    2.098411353747
C     -3.349347521428    2.931572020497    6.108072841399
H     -4.196792566866    3.635233243327    6.041161427377
H     -3.759294711907    1.929964397820    5.893278339970
H     -2.992492843807    2.933266595617    7.148346087690
C      2.256058802126    7.692152916903   -0.880630512400
H      2.708651605165    8.313903923938   -0.091273008281
H      3.063748042549    7.069051519620   -1.297860711072
C      1.588645314695    8.533709648656   -1.948184988339
H      0.799614000310    9.171346019433   -1.520247423644
H      2.334445423961    9.188040984204   -2.426124187241
H      1.138377253393    7.899871805693   -2.727607497967
C     -2.114271301590    7.138800576826   -1.501773123903
H     -2.923357764704    7.556858887603   -0.887409141351
H     -1.154693069700    7.437769987791   -1.052008099241
H     -2.174698020040    7.550745448411   -2.520412738077
C     -1.463562083911    3.063379634951   -4.083043963038
H     -2.185599890841    3.430086629849   -4.830407066287
H     -0.458338015121    3.429309685017   -4.348240655210
H     -1.450928680543    1.964912049717   -4.128304225320
N      1.973647373298    1.271565613198    0.027933791660
C      1.288915582104    0.113017700386    0.137855491636
C      1.970907311079   -1.128723646797    0.174616651168
C      3.351932451091   -1.183089309537    0.063086280244
C      4.041927694773    0.041739996395   -0.093308909566
C      3.319883097007    1.219513142748   -0.101880694080
H      1.364090173141   -2.029822219879    0.278027433550
H      5.128281208571    0.069947145004   -0.198312333347
H      3.825228533477    2.183698865137   -0.205525153161
C      4.100154718729   -2.489393814015    0.093667135506
H      4.818437994566   -2.508955996059    0.930127897321
H      3.420392800357   -3.345860057536    0.205094175796
H      4.682941436547   -2.629649029689   -0.831755757339
