74

C      1.412398917349    3.933775244899    2.588388696657
H     -2.263429616043    1.701686757710   -3.288732904504
C      0.547786564251    5.137022200633    2.214486794058
H     -0.162731373985    5.360080391214    3.026855944844
H      1.189639340864    6.016672586749    2.065434210612
C     -0.167801729286    4.761205642092    0.918529686291
H     -0.010309931130    5.432593915019    0.066707069108
C     -1.595818064087    4.356717713203    1.074654765214
O     -2.086514472931    3.937907573448    2.107179368026
O     -2.302295811351    4.481403062685   -0.064369206540
Pd     0.877685301972    3.054705542252    0.467980430259
C     -0.403194458627    2.704422598091   -2.116482810943
O     -1.011231355291    1.739849151644   -1.600914742564
O      0.520398322040    3.372710463482   -1.554039632273
C     -0.765624365951    3.141868473862   -3.544088764826
H      0.105307512582    2.896690894130   -4.178744460471
N     -1.896152150333    2.342537627199   -3.986254230061
C     -2.181059315805    2.168336928472   -5.309231061345
O     -1.578650559416    2.755303338137   -6.195538503946
O      0.140939908938   -0.057512719563   -0.221303280729
H     -0.306435227301    0.764048180924   -0.643877839742
C      0.794509829454    2.684615082131    2.861053474264
C      1.535699319577    1.578069863696    3.352086480006
C      2.918349053350    1.712345357155    3.550705316887
C      3.533315717191    2.949823634958    3.249443460198
C      2.812641609180    4.034319503811    2.773063329002
H     -0.298011401991    2.631428514606    2.861343181560
H      4.610904732612    3.051590029535    3.406806540502
H      3.315289840924    4.983818337935    2.571509007826
C      0.823494465622    0.289880688623    3.675376417648
H      1.236454407958   -0.555537529470    3.099981165350
H      0.934008307059    0.026198350066    4.741009445264
H     -0.249841024009    0.356782200162    3.450636392191
C      3.742113034297    0.568270237472    4.085307108119
H      3.387928918617    0.247022239437    5.079412155377
H      3.682213400258   -0.314783715098    3.428051181968
H      4.802543526191    0.841941217796    4.173148837087
C     -3.660433418637    4.003941321500   -0.030796094282
H     -3.646623736929    2.927865687818    0.206826627966
H     -4.193688042219    4.510240694651    0.789483499366
C     -4.302013504701    4.273669267284   -1.375617939612
H     -3.777505873752    3.741022887909   -2.182831153726
H     -5.349202598120    3.932522647579   -1.360006503992
H     -4.295425408347    5.349484062732   -1.609778888508
C     -3.322281936329    1.208300728028   -5.612261925299
H     -2.961901919376    0.442914041318   -6.315878354583
H     -3.740014854365    0.718346060156   -4.720681727148
H     -4.122915677055    1.764662581058   -6.123652749654
C     -1.021948625906    4.667077398577   -3.648080596457
H     -1.731263982134    4.821473035137   -4.476320113667
H     -1.522681384736    5.002985050707   -2.726197462073
C      0.230554251861    5.527372152583   -3.905985923474
H      1.015816672540    5.186857679743   -3.209811953841
C     -0.061754746900    7.000818022958   -3.594452630986
H     -0.363891454783    7.140408513678   -2.543251299764
H      0.823131054118    7.632340382184   -3.777659606406
H     -0.879126408193    7.385401511461   -4.229397961083
C      0.749201041605    5.370453999728   -5.342329807081
H      1.696717147878    5.916768293290   -5.481741725561
H      0.920783506004    4.318292702846   -5.615016763493
H      0.019100707472    5.767837042245   -6.067402271347
N      2.047150954547    1.224735969654    0.054827277332
C      1.442132154585    0.026538370058   -0.101129906080
C      2.202995901846   -1.170701299983   -0.111139383422
C      3.576572938853   -1.105196979939    0.003982885693
C      4.196582960936    0.153918107718    0.124851296339
C      3.387707182955    1.281566227789    0.143022301356
H      1.671594592065   -2.114953813489   -0.233131303979
H      4.179345371255   -2.016079019407   -0.017124250000
H      3.823360841140    2.277283180292    0.243324665179
C      5.682831557103    0.266984727199    0.311837265491
F      6.042113037985   -0.001168357662    1.588118821801
F      6.348346300341   -0.605052011581   -0.463949570456
F      6.134743970093    1.499413446996    0.030271352459
