61

C     -1.570914808501    3.764493256442    1.958520958549
H     -0.175646609124    4.542535495231   -3.224643963771
C     -0.272419404154    4.403645867315    1.694257163543
H      0.333557538999    4.488609773722    2.601579035278
H      1.911374199432    3.228525965545    1.587823204657
C      0.249377352074    5.110378982239    0.604919871516
H      1.192071674547    5.638945407787    0.777503332293
C     -0.427645169481    5.660198890381   -0.613304563197
O      0.190776992940    6.049833888239   -1.581264801786
O     -1.754166216311    5.757589742386   -0.492909841844
Pd     1.029985806264    3.065303068845    0.372259932253
C     -0.646519743337    2.216890856844   -2.345452310455
O     -0.058780066666    2.991733116777   -1.578772249722
O     -0.981167836443    1.002017797947   -2.070062501475
C     -1.029788196135    2.672338618635   -3.736699108723
H     -2.109011892999    2.488106070330   -3.882387863629
N     -0.685251075511    4.053193420356   -3.957861007204
C     -0.877006165923    4.630359306289   -5.184121241925
O     -1.408496182973    4.027970802970   -6.102211656714
O      0.070641571289    0.187330728633    0.019467523963
H     -0.590532106261    0.683732335159   -1.145084668712
C     -2.435681705968    3.250187680203    0.971893224085
C     -3.639998572426    2.623119341031    1.294527639684
C     -4.022828435631    2.513092732768    2.655663703702
C     -3.162642068442    3.018699642143    3.639826317902
C     -1.950110917392    3.617026367251    3.305774988874
H     -2.149277345170    3.325146178995   -0.074882643316
H     -3.443838663920    2.927567058346    4.692371582970
H     -1.290535032436    3.981317924777    4.097852736462
C     -4.515440901498    2.057952430176    0.203409576352
H     -4.705616464164    0.982475122435    0.354792021133
H     -5.502240845826    2.551032457630    0.174366209717
H     -4.048205975481    2.174269654922   -0.784667587580
C     -5.318614893740    1.848395564297    3.039922777097
H     -6.184115204118    2.347611918044    2.572207939740
H     -5.346910280098    0.797384665906    2.705268212795
H     -5.469214877190    1.859551927781    4.128740963096
C     -2.480228936353    6.358821547573   -1.587076149267
H     -2.030118054979    7.339329091543   -1.808664789147
H     -2.349224475377    5.727575314749   -2.479715502489
C     -3.932771797786    6.478704868672   -1.178048727613
H     -4.039916274923    7.106467017514   -0.280305936095
H     -4.510295317273    6.940142769775   -1.993958712487
H     -4.369479700903    5.491803611052   -0.962469203463
C     -0.380215970640    6.060913819772   -5.311087601349
H      0.468736589391    6.078075068171   -6.012735943860
H     -1.178470133933    6.671676561435   -5.757918901720
H     -0.064794346370    6.498625211679   -4.353388780816
H     -0.531601240004    2.000770789413   -4.460704668345
N      2.086485284404    1.271404849989    0.103166224071
C      1.328258556163    0.109899496518    0.035795422954
C      2.029189118921   -1.146633293720   -0.013103845194
C      3.400250566847   -1.196376208140   -0.020460509721
C      4.115443186382    0.019439381863    0.028008689071
C      3.427496562384    1.220061747172    0.098669829869
H      1.417277671296   -2.048630103393   -0.051814913888
H      3.951078158193   -2.136648884076   -0.064593696039
H      3.981580874008    2.157098927111    0.156838677053
N      5.571995485986    0.027804911343    0.022723216262
O      6.139193727703    1.111681754834    0.070574860409
O      6.139872766210   -1.054319211537   -0.029236362783
