72

C      1.529133154483    4.004703010698    2.409417592189
H      0.636819115897    4.384637567673   -3.800230757802
C      0.810177474879    5.263764310272    1.927598155954
H      0.070610562624    5.585748060927    2.678613425039
H      1.541289103743    6.074217329518    1.795318830623
C      0.149902767962    4.904341933872    0.598342589282
H      0.439230095981    5.519162899338   -0.262029986394
C     -1.323816637895    4.670543884735    0.659323626448
O     -1.917726834225    4.311731423519    1.659949838757
O     -1.927530613755    4.888847668210   -0.522287691864
Pd     1.024594984522    3.074030474630    0.284690267535
C     -0.403121991955    2.598877492563   -2.159776682417
O      0.631634096334    3.231984486244   -1.753550122755
O     -1.062405033270    1.778253698736   -1.501889492058
C     -0.828289980987    2.877776878011   -3.610034854734
H     -1.922231219347    2.970489481269   -3.608516502166
N     -0.308825714775    4.151174354548   -4.079661141592
C     -1.107658217420    5.094605095726   -4.653226637306
O     -2.293312715309    4.904403602345   -4.890881256254
O     -0.111293672067    0.135516479975    0.237216539350
H     -0.475282383379    0.889146513142   -0.345177927417
C      0.776513296365    2.834601585561    2.689973124809
C      1.369839231595    1.690408352892    3.281874660000
C      2.743195309555    1.704125372707    3.572526468318
C      3.493064290871    2.863851779264    3.272564655119
C      2.914056940424    3.986818525667    2.700729406258
H     -0.313170541207    2.882454511461    2.606763328119
H      4.560718183663    2.874897505345    3.510736985827
H      3.516484744886    4.877903227665    2.504770130025
C      0.512302746758    0.499543019818    3.624098531286
H      0.908497951447   -0.426178117867    3.176649481996
H      0.479354096925    0.334094307369    4.715098783540
H     -0.516607795390    0.629318110797    3.264009444896
C      3.411894475165    0.512040004851    4.209234775797
H      2.941343796510    0.249363248152    5.171541433597
H      3.333896222313   -0.381479036139    3.567080252955
H      4.478848391527    0.700714796449    4.396203750400
C     -3.332601054588    4.572664753336   -0.627173038463
H     -3.410997731772    3.495812589561   -0.852358271114
H     -3.805535330686    4.747461123206    0.349799136415
C     -3.947790307751    5.423265067617   -1.720243373125
H     -3.486171623723    5.238560563795   -2.702265681106
H     -5.021761279507    5.190753921194   -1.802011024388
H     -3.850104300812    6.494602515871   -1.482369912621
C     -0.432409196821    6.419451422076   -4.968378800920
H     -0.721844877690    6.728425499983   -5.982906525870
H     -0.813441551334    7.183283196365   -4.271990497463
H      0.664457252990    6.384760465411   -4.893955592287
C     -0.456321742676    1.721605437018   -4.537764061785
C     -1.330680181520    1.359668939005   -5.573043111526
C     -0.991009146669    0.340380562903   -6.466646286282
C      0.229167568120   -0.330040164164   -6.337366585993
C      1.108439861583    0.027276899062   -5.310790797958
C      0.768486514480    1.048049853013   -4.418636520588
H     -2.279311282399    1.892060311524   -5.679972142339
H     -1.684064252391    0.067479646260   -7.266890162056
H      0.493639873374   -1.129922190202   -7.033967666077
H      2.063838316263   -0.493110469034   -5.201879741195
H      1.461689163427    1.320250428291   -3.618035234099
N      1.975556868696    1.092298859837   -0.028688056236
C      1.196918388991    0.002215960744    0.134106024910
C      1.759755249023   -1.290450229839    0.224065561628
C      3.128478769246   -1.432035676459    0.074026865436
C      3.918610537780   -0.299930393597   -0.174577323171
C      3.310887295830    0.953655740249   -0.223439396985
H      1.089599056813   -2.137444008461    0.373799443981
H      3.587215313394   -2.423176531962    0.123567522266
H      4.994544865854   -0.387849474110   -0.331747455023
C      4.102647830573    2.202257963278   -0.500210007920
H      3.666181348068    2.750592701891   -1.349818935006
H      4.079924034387    2.878147739449    0.368554045022
H      5.150460392099    1.964365622041   -0.730329528430
