75

C      1.664454214420    3.985911554394    2.518261068301
H     -2.249503515776    1.586521968736   -3.455299870910
C      0.873911246996    5.256645903694    2.213501860971
H      0.309931363976    5.577238375115    3.104906813677
H      1.569515406680    6.061521893141    1.937175432831
C     -0.049712757612    4.913539043540    1.045173743004
H      0.024590699550    5.559788659547    0.162945832362
C     -1.464150660316    4.637262570000    1.429718049312
O     -1.834206816637    4.342643373481    2.551789990682
O     -2.314815983310    4.740855058356    0.388584838822
Pd     0.821658412007    3.136369318989    0.485304729318
C     -0.522264327612    2.748711364025   -2.079073048875
O     -1.179346876084    1.832575156058   -1.538850432828
O      0.352554091822    3.471258508844   -1.511058223271
C     -0.734650992551    3.033789432407   -3.578987138553
H      0.245036349900    2.884184194539   -4.062088206539
N     -1.632147266752    2.028418082303   -4.128407079304
C     -1.430946681874    1.460998180321   -5.350888688488
O     -0.559423924414    1.835812529951   -6.123122263921
O     -0.147153687131    0.088813047718    0.016956205377
H     -0.569537409991    0.886215178123   -0.463334229131
C      0.971536943260    2.794116663351    2.860461836719
C      1.660765666757    1.625395710571    3.280803867717
C      3.061610001996    1.640103847716    3.340364225005
C      3.746700750224    2.822586097577    2.976798302031
C      3.079057566972    3.965749551194    2.566325296161
H     -0.113621221422    2.836420606926    2.986071021453
H      4.839278532171    2.832482921610    3.030053105575
H      3.638782009878    4.868935095925    2.309762279149
C      0.875992589012    0.402347269305    3.679335069815
H      1.147067581058   -0.470621293108    3.062439470895
H      1.075730661360    0.120414081832    4.727218355162
H     -0.204805635203    0.566068495021    3.570314949628
C      3.831810047752    0.424626980091    3.790573597548
H      3.532059781141    0.106894190996    4.803399112044
H      3.651270113953   -0.435431931094    3.124017477732
H      4.914212687833    0.616947425745    3.805009637834
C     -3.700475889044    4.421058909548    0.620781630766
H     -4.006395547550    4.848704320192    1.587306579401
H     -4.238159218075    4.938907458293   -0.186757283349
C     -3.954060328108    2.922926843895    0.578448130134
H     -3.472378136242    2.422356983125    1.430943931573
H     -5.037258093124    2.727190303244    0.632500824712
H     -3.559443452878    2.485147713964   -0.350566866686
C     -2.391814253902    0.339332524505   -5.714835454122
H     -1.810253579774   -0.507744656760   -6.106561330711
H     -3.016999962555    0.000513083520   -4.875811261647
H     -3.047208003389    0.687766076963   -6.528549040252
C     -1.175464649940    4.465057708694   -3.895407289829
C     -0.955641765532    4.961535927446   -5.191329289572
C     -1.383644730513    6.244032121043   -5.542671106761
C     -2.035740240380    7.050976276370   -4.604753449505
C     -2.254515949583    6.564279211708   -3.313504949771
C     -1.828669670725    5.279227248037   -2.959904481428
H     -0.458549232178    4.322335260991   -5.924721808735
H     -1.203574660326    6.615926366384   -6.555029840623
H     -2.367424848320    8.056250907541   -4.878383963402
H     -2.755246457004    7.189231647157   -2.568807184528
H     -1.988968358650    4.930726751997   -1.938184560117
N      1.835193995684    1.252202866670   -0.044683504822
C      1.168184314864    0.101363056983   -0.056200246275
C      1.852696087831   -1.167175764106   -0.122303038898
C      3.275014315015   -1.164128782766   -0.232256953776
C      3.938467447743    0.098112757776   -0.279400167342
C      3.196925684767    1.245074302462   -0.182283204669
C      1.144810649911   -2.394513914155   -0.097830437813
C      1.832978002714   -3.591397702599   -0.164248023865
C      3.244712264961   -3.595873427339   -0.266523698020
C      3.952987657043   -2.409584246841   -0.303121672472
H      0.056718757335   -2.368245657882   -0.027303782933
H      1.288317545268   -4.538297241372   -0.144229120993
H      3.777761736707   -4.548573700864   -0.322331139787
H      5.042516607706   -2.415897311299   -0.389679543917
H      5.023068875826    0.150489119471   -0.389824607473
H      3.668866537250    2.229355120017   -0.203713913363
