59

C      1.976793745714    3.317430958680   -2.375734990365
H      2.820357316048    2.625832522838   -2.439522048269
H      2.182555238718    4.389504446750   -2.344545109416
C      0.703432988046    2.858809156667   -2.624615119968
H     -0.127286417610    3.556449530647   -2.757166054797
C      0.440496090760    1.422068365474   -2.978965362211
O      1.301948599739    0.585747285097   -3.116203059213
O     -0.868275568523    1.211158496836   -3.121864339944
Pd     0.939585747979    3.031526626072   -0.403030947063
C     -0.080676475329    5.515454303792    0.481124185173
O      0.096688435157    4.828987574686   -0.628628782128
O     -0.502922176095    6.651224755738    0.506989200143
C      0.326459194075    4.781016756476    1.779665449489
H     -0.409310779116    5.074778756945    2.538793808579
N      0.259226150223    3.331556698321    1.523429376377
C     -0.398198946059    2.523427119565    2.309353018667
O     -0.660503785373    1.286352111925    2.028857719026
O     -0.014478247001    0.146631944415   -0.078001520080
H     -0.415317319162    0.918117368716    1.076253058048
C     -1.296022420644   -0.153352249314   -3.319713765369
H     -0.716100802043   -0.588929766218   -4.148460433888
H     -1.052616769656   -0.710431865182   -2.401384918117
C     -2.782878630998   -0.140625686849   -3.601999003699
H     -3.010596895689    0.437164025459   -4.511198715468
H     -3.141915186023   -1.171113349045   -3.749099133558
H     -3.339587215188    0.300893866866   -2.761481444181
C     -0.951623601643    2.954063024807    3.648507898669
H     -1.183728762337    2.053968115528    4.230540441735
H     -0.250384781638    3.587117235981    4.207672913861
H     -1.886284755981    3.520529910568    3.505335981309
C      1.736783875437    5.190130353087    2.257599257042
H      1.953038985031    4.612370805221    3.175352568065
H      2.468501238629    4.845247053287    1.505118319264
C      1.967969981596    6.687540839103    2.536597118203
H      1.829274103354    7.232525295604    1.587448866841
C      3.413737078355    6.905071800983    3.002408274043
H      4.140365681507    6.512128922912    2.272388729105
H      3.626986180545    7.976685986231    3.142934850213
H      3.603420287566    6.399164978604    3.965201114028
C      0.964276463467    7.266484429945    3.542295976323
H      1.221365375708    8.308706119867    3.790763576676
H     -0.054647789438    7.273438683286    3.128141465957
H      0.963634279694    6.693804945699    4.487251776717
N      1.968594652397    1.264684932283   -0.102809832610
C      1.249170925741    0.085569164429   -0.082295048302
C      1.988048050065   -1.142315449369   -0.045064384809
C      3.359846066753   -1.137087024446    0.021165352521
C      4.060198795208    0.096552915653    0.047250197525
C      3.309213995631    1.262055029628   -0.026173394793
H      1.409593461689   -2.066877484962   -0.055104313967
H      3.922388468293   -2.071503915448    0.060828538242
H      3.821395141818    2.227737583166   -0.028640066874
C      5.534057335559    0.222666942792    0.127808749835
O      6.137623848033    1.273535195026    0.139612126781
O      6.146124456464   -0.977471882230    0.187520172875
C      7.570270216189   -0.955265768207    0.262167629189
H      7.907682738315   -0.417183067811    1.161116968151
H      7.891143593273   -2.003528277372    0.303182028018
H      8.001504414191   -0.458529951040   -0.620305070290
