74

C      0.167932855871    4.937656952557   -2.580244748279
H     -2.719726466588   -0.131083117716    0.125078888518
C     -0.078921589740    4.826060144738   -1.138410984274
H     -1.071639871406    4.414874175570   -0.936383783812
H      2.413599160555    3.743752341818   -0.670562355048
C      0.536390389220    5.272011505006    0.040843216058
H     -0.094001896725    5.184482896445    0.931287299488
C      1.700265191359    6.188457884479    0.226124047936
O      2.421955890579    6.673351231895   -0.617386053413
O      1.847460108494    6.452063420153    1.539776228378
Pd     1.115804138637    3.160887856732   -0.143171101041
C     -1.848711635778    2.733907467141    0.874947173951
O     -1.951304035932    3.847140545698    1.366905115060
O     -0.733282778610    2.197623556466    0.470445428060
C     -3.129696302887    1.880085884347    0.699285423826
H     -3.853855464387    2.580336556795    0.257424941595
N     -2.978431174652    0.779687371031   -0.235026435221
C     -2.896064719999    0.985979621852   -1.582442538531
O     -3.040034111454    2.094054397096   -2.083900880661
O      0.177491567253    0.012266229975   -0.245022383321
H     -0.303278338466    0.891118795065    0.016631366146
C     -0.790294322875    4.305671441861   -3.406355738246
C     -0.706753525386    4.326348951312   -4.800184309872
C      0.369169623232    5.014946808921   -5.409175853149
C      1.320491291168    5.643855765762   -4.588356599553
C      1.240655807150    5.610665924124   -3.198580799966
H     -1.619660262045    3.766255442680   -2.939620512724
H      2.152427864831    6.176799317225   -5.057966219036
H      1.991185674563    6.107351168235   -2.585984662479
C     -1.756422627114    3.622289876205   -5.625295409662
H     -2.320922471407    4.330276897042   -6.256782077576
H     -1.307209318142    2.882581687104   -6.309852834864
H     -2.472518708723    3.096217356262   -4.978056462649
C      0.495087000823    5.073398771386   -6.909541722753
H      0.582526376791    4.064274788635   -7.347887960281
H     -0.393753805441    5.535773876764   -7.372016975045
H      1.377033932387    5.653087306102   -7.218022226775
C      2.913941897909    7.339335102180    1.907688698774
H      3.869634884608    6.915435190189    1.556877903447
H      2.778948542710    8.298432832984    1.381294887340
C      2.884897293059    7.508603787795    3.412625753763
H      3.027945706340    6.543026396340    3.921726723904
H      3.689743137474    8.189997546958    3.729823131712
H      1.923360747771    7.931101227407    3.742337027101
C     -2.582656388878   -0.248427995263   -2.410077840211
H     -2.950814227387   -0.097674650236   -3.432775835795
H     -1.489228436680   -0.382303914319   -2.442373922487
H     -3.025404245846   -1.163090918563   -1.986879768429
C     -3.677349868254    1.421549888882    2.072300427441
H     -3.690087624191    2.342960580453    2.678659409844
C     -5.116922161297    0.905997821119    1.949736696169
H     -5.539406233603    0.648368659558    2.932857336417
H     -5.771262061260    1.667590499615    1.497169030844
H     -5.168394745452    0.005766519592    1.315259200878
C     -2.740393749469    0.416889872805    2.776616136655
H     -2.806003899254   -0.568810678772    2.276451738040
H     -1.696163106091    0.749863364745    2.651175769117
C     -3.022417984190    0.229974696263    4.269597095811
H     -4.030526706869   -0.173333847941    4.455313220839
H     -2.301722688440   -0.468335535300    4.724112079983
H     -2.942792676009    1.188147554720    4.809107372447
N      2.119282703541    1.261681970351    0.006649428287
C      1.485068672618    0.073206002756   -0.116906446968
C      2.199515067293   -1.162041747854   -0.126175684435
C      3.575854358542   -1.113527315880    0.027666697735
C      4.229622607237    0.119741918721    0.185360627072
C      3.468790157900    1.271432341173    0.163919493422
H      4.149308175442   -2.044827885853    0.032056153056
H      5.311017569831    0.182039547451    0.313477168826
H      3.929662376693    2.252933627588    0.267966514555
C      1.430431891213   -2.443196821730   -0.286216719953
H      0.669555207775   -2.547914584003    0.504087781391
H      0.886021462947   -2.463354157660   -1.244635254587
H      2.100520353609   -3.313961553191   -0.247828223086
