40

Pd     1.163778932078    3.028981305685   -0.564352696779
C      0.246567060353    5.685067268458   -0.412975494778
O      0.610878135411    4.761131210762   -1.288192825630
O     -0.022332201361    6.819537535748   -0.732064989314
C      0.223533436786    5.185129326585    1.049903670942
H     -0.691919067325    5.586260257970    1.507334525444
N      0.137153387795    3.714915489234    0.998329398477
C     -0.873941949757    2.998239311061    1.499043953192
O     -1.085200397357    1.794405875894    1.220354183196
O     -0.019224949147    0.039523288893   -0.078345851524
H     -0.453465748199    0.906066084899    0.394514002823
C     -1.849320182733    3.646479339402    2.469187099610
H     -2.429191298286    2.842390414337    2.937641603960
H     -1.351956900267    4.245605190891    3.241976581446
H     -2.543395079180    4.303118063946    1.919565665510
C      1.430872299524    5.749936287760    1.889486048144
C      1.202139259362    7.260048416406    2.100335732172
H      2.033988435230    7.689150492141    2.681665889242
H      1.125891978344    7.795530012972    1.144522010887
H      0.271582142385    7.445463874784    2.662179485128
C      1.477280682598    5.055404790312    3.262224551612
H      0.556086154507    5.235057878644    3.839692621101
H      1.619221058134    3.968122649168    3.168358306836
H      2.314353904872    5.454962752991    3.856496097831
C      2.778316671531    5.539892847411    1.173554130803
H      2.989369617271    4.471363090118    1.004411125500
H      2.811620013168    6.055114208313    0.201180425683
H      3.598541295237    5.940983485277    1.789777430091
N      1.973826961127    1.187052878043    0.014645338894
C      1.266755095594    0.016317261044   -0.034330931156
C      1.957671267137   -1.229544969558   -0.050917373054
C      3.328961380457   -1.262206332085    0.055454188073
C      4.015974509820   -0.039784312034    0.174265661829
C      3.314975140127    1.152306922610    0.148031428626
H      1.356741189330   -2.136377116730   -0.123223365155
H      3.891695579350   -2.196264266343    0.065892045693
H      3.850210380868    2.100635650034    0.225141227711
N      5.473701119909   -0.013577566134    0.317877239416
O      6.011116940187    1.077882054816    0.424623655534
O      6.050984419463   -1.088497650832    0.320235342182
