72

C     -0.543520126131    4.655827322092   -2.303793615892
H     -2.205177077769   -0.214878553216    0.464785715276
C      0.534641855123    5.023924198950   -1.382322283055
H      2.526216722143    3.696621037347   -0.562413822964
H      1.453960735411    5.360748414375   -1.868466887386
C      0.461804477163    5.220429361901   -0.000130707912
H     -0.470711625272    5.083343024241    0.557941901649
C      1.491106235569    5.999113113789    0.757570121022
O      1.418794593236    6.217666132126    1.943270277941
O      2.497201768882    6.453420846290   -0.018658809373
Pd     1.157989202366    3.163353109378   -0.188823673040
C     -1.790808508211    2.656983953255    1.044703000267
O     -0.749378070787    2.241595448901    0.380428909555
O     -1.957307273525    3.803689612088    1.431945489295
C     -2.884499078245    1.594021710127    1.339162778127
H     -3.831352596440    2.140834901237    1.209247399912
N     -2.900480556888    0.517602974541    0.370656606113
C     -3.558735873370    0.632526405972   -0.827997185466
O     -4.275117049264    1.583540347706   -1.095100021788
O      0.052855374700    0.062959872040   -0.388546880446
H     -0.381420511345    0.977439307426   -0.086783323591
C     -0.235469572543    4.539054047681   -3.675556819154
C     -1.194648216505    4.189572146488   -4.628968914009
C     -2.520134993590    3.933502822187   -4.199439577306
C     -2.830396507240    4.056907443681   -2.834917621578
C     -1.870354040461    4.422202018134   -1.896446076574
H      0.791885713156    4.726955623931   -4.002332440552
H     -3.843161008338    3.833375460740   -2.493114983653
H     -2.152862977012    4.514895351751   -0.847530394186
C     -0.821175629975    4.081885323367   -6.086898840655
H     -1.006281118938    3.067955602156   -6.480550026222
H     -1.414675861360    4.771959410855   -6.710337277434
H      0.241470536669    4.314739682736   -6.247491546974
C     -3.586554752771    3.535059408093   -5.186239736235
H     -3.752723576011    4.321775815831   -5.942496166269
H     -3.304379139552    2.624519838913   -5.741914441309
H     -4.543292373636    3.340519400513   -4.681952468845
C      3.538078191554    7.191411538116    0.642330734422
H      3.087071682437    8.039248660994    1.182371545386
H      4.008324024588    6.543144091616    1.400357094491
C      4.530449518111    7.648588535124   -0.406387937194
H      4.046019630973    8.298485746710   -1.151529391207
H      5.343952044439    8.217799468235    0.069689512021
H      4.974364979047    6.789800992569   -0.933486442958
C     -3.334681173565   -0.529417560363   -1.783071216924
H     -3.727182585263   -1.465990090238   -1.354647426975
H     -3.854356430810   -0.318922248746   -2.725410677326
H     -2.258996006051   -0.671619516767   -1.974150491089
C     -2.803558874393    1.078360679334    2.780898936917
C     -3.128613215062   -0.252109940562    3.088056955311
C     -3.086811789505   -0.716183369497    4.406903928013
C     -2.723157418712    0.144053309487    5.444623036370
C     -2.409071723511    1.474549600470    5.150878118053
C     -2.450317829078    1.939807427147    3.834680033928
H     -3.435419639761   -0.932442987180    2.291606270763
H     -3.345527475388   -1.756792898541    4.620616347728
H     -2.689212532230   -0.217235202088    6.475666619022
H     -2.130120847380    2.161920534152    5.953850872583
H     -2.215088701627    2.982901945445    3.617421135684
N      2.053086798730    1.192718408384   -0.088438588335
C      1.350444598185    0.043533984008   -0.262173377187
C      2.016556863579   -1.210033359895   -0.320786589998
C      3.382480718101   -1.269930408761   -0.166200347047
C      4.098861200832   -0.074337838162    0.048643515226
C      3.395435134423    1.116393714281    0.074738749082
H      1.406726738896   -2.100415633349   -0.475866865978
H      3.904094362486   -2.229276594823   -0.202855527223
H      3.917192228059    2.059627268286    0.224931341241
C      5.590498878511   -0.106993075676    0.236575971344
F      5.933135359997   -0.824907983573    1.322060439035
F      6.202892450988   -0.683399023231   -0.814966488987
F      6.108876575457    1.122493183794    0.383867112895
