71

C      1.616851659688    5.881477851084   -1.070063888662
H     -2.742144984848   -0.146405380216   -0.496677542992
C      1.258966079328    5.427931572150    0.281852153650
H      2.223132838203    3.460121489409    1.118197933201
H      1.986839647515    5.658028609097    1.065614117845
C      0.006806125173    5.007425710726    0.720830591285
H     -0.857166509709    4.989962734289    0.051479585809
C     -0.297749075902    4.950393407818    2.186123414976
O      0.492812015650    5.155277073425    3.081668045383
O     -1.585256491666    4.633773164798    2.354688594788
Pd     1.027965286082    3.132437347489    0.247371761431
C     -1.856038049430    2.813918010500   -1.165354991491
O     -1.986946295963    3.980623895752   -1.507811465173
O     -0.756968322622    2.301914501393   -0.693791538872
C     -3.011147701800    1.783751234444   -1.355906304889
H     -2.726683141474    1.212110089788   -2.257993303288
N     -3.024009181902    0.800096975336   -0.277226361298
C     -3.209439299687    1.120717882377    1.038616352594
O     -3.466949666106    2.257583232112    1.404203569131
O     -0.036864324151    0.158056399405    0.356452906846
H     -0.451350385751    1.011809222518   -0.053083697717
C      2.874272249651    6.486401321346   -1.262634793193
C      3.284303353456    6.982477033708   -2.504048737550
C      2.405442400911    6.867036041320   -3.607529074684
C      1.154293330726    6.258158356719   -3.414969186984
C      0.750539201645    5.769186522285   -2.175118049034
H      3.550995436243    6.577903940456   -0.407496556272
H      0.474030702347    6.166721599480   -4.266377436759
H     -0.226224159245    5.289884499492   -2.067866140915
C      4.637382850462    7.632361156330   -2.658904762798
H      5.256975595414    7.111123871612   -3.408499623952
H      4.549479152510    8.678125229270   -2.999524635523
H      5.191810335371    7.635913968061   -1.709287307769
C      2.800773789391    7.388788005352   -4.965191595427
H      3.009333259715    8.472125544994   -4.938398775237
H      3.720554663967    6.904185423305   -5.335408255287
H      2.007895809228    7.217428246230   -5.707167693672
C     -2.089716073521    4.421249637171    3.683875222990
H     -2.876535635331    3.666970969823    3.547094023638
H     -1.282423465902    4.008389629956    4.307880328770
C     -2.634149862865    5.707790892918    4.281888713343
H     -3.408069924122    6.144632360174    3.631824030385
H     -3.088010953370    5.500607510811    5.264620784300
H     -1.831885167898    6.447651067303    4.424904031230
C     -3.039080527759   -0.036965943770    2.010077349450
H     -3.526777955244    0.218942284500    2.958940001451
H     -3.462247511474   -0.975408363967    1.618966266028
H     -1.963911461528   -0.198834363665    2.188604694160
C     -4.385139950724    2.450047633566   -1.642576524392
H     -4.498727301318    3.273321666675   -0.920853034473
C     -4.417868225043    3.035714478884   -3.061962876095
H     -5.371794336801    3.557677203087   -3.241319780091
H     -3.602030157405    3.753189916484   -3.214388858616
H     -4.333453169934    2.236134328281   -3.820476443724
C     -5.550390845445    1.471629091059   -1.450057169456
H     -5.444298567627    0.581890030557   -2.096093714757
H     -5.639017466991    1.126672986642   -0.410234066846
H     -6.500550337917    1.960398481682   -1.719370630081
N      1.974542255238    1.218467678683   -0.090918870450
C      1.259692643369    0.090587429579    0.144002919014
C      1.881338616559   -1.177193128837    0.173672183105
C      3.231477496790   -1.268165351047   -0.104705866228
C      3.947401841447   -0.105478463445   -0.420836457783
C      3.297470985240    1.126477900258   -0.404343769535
H      1.261426000872   -2.046845034669    0.392940284367
H      3.731922256737   -2.239896835105   -0.098176310345
H      5.006939819723   -0.150310288098   -0.674992029506
C      4.048949698574    2.386394679950   -0.731532467095
H      3.484976494108    3.009541374218   -1.442048700974
H      4.206060185433    2.993664616699    0.174447490673
H      5.031382774462    2.150839279160   -1.163683544524
