71

C      1.697020721883    5.915470309867   -1.165586749312
H     -2.517926947881   -0.098069330272   -0.841128746552
C      1.243981685534    5.430906047256    0.147251417888
H      2.324225874331    3.518799931179    0.898757787923
H      1.884521166895    5.684267866407    0.997091024404
C     -0.021588093669    4.946564742749    0.457093254478
H     -0.808066245991    4.907107706820   -0.300039870736
C     -0.472010673124    4.830980675130    1.880279729401
O      0.186357023366    5.123588013879    2.853518961313
O     -1.720912035887    4.345521174561    1.913933326637
Pd     1.108380791706    3.111582852048    0.087427321029
C     -1.739312511559    2.710325325748   -1.303662776027
O     -1.759623125681    3.757468760013   -1.934947509839
O     -0.691834729922    2.199258135401   -0.729904002335
C     -3.058200246886    1.931682902607   -1.143216981146
H     -3.481807530717    1.780654161326   -2.149176091146
N     -2.991466681545    0.688184021612   -0.413463207349
C     -3.339534961988    0.593859096630    0.907971747329
O     -3.829625365399    1.524555419245    1.528822497166
O      0.089857750367    0.153260549581    0.439967199995
H     -0.358462779722    0.979575409662    0.002254432274
C      2.914581293418    6.619296722289   -1.236447362976
C      3.401777494352    7.152362277745   -2.434126204332
C      2.646998823426    6.970553077580   -3.617445642951
C      1.437273257623    6.260123448567   -3.546034527682
C      0.955424732593    5.734906701894   -2.349719508016
H      3.495645812691    6.760399938443   -0.319957466701
H      0.854655811230    6.114070546438   -4.459874600000
H      0.017502428753    5.172264795978   -2.340254489786
C      4.706370974359    7.910343103951   -2.458796339237
H      5.435404608955    7.445642307391   -3.144351899537
H      4.567045501825    8.947574176518   -2.808296921298
H      5.164615162107    7.953030017632   -1.460134463429
C      3.129846453849    7.527175811894   -4.932289974103
H      3.247720272239    8.623596640773   -4.889788318472
H      4.117013497582    7.118727841763   -5.208958911893
H      2.429372906063    7.295553702742   -5.747292134780
C     -2.335826176662    4.090077049714    3.193847797042
H     -3.009083287663    3.243461504957    3.002928472282
H     -1.552055267491    3.791226141695    3.905948204128
C     -3.088369425894    5.311042227212    3.695087777719
H     -3.840600104018    5.637008847200    2.959994359820
H     -3.611486475745    5.065934821126    4.633564421479
H     -2.401136297794    6.147296258121    3.895038925771
C     -3.051204086917   -0.748691927971    1.558356432336
H     -3.787315595036   -0.922283909309    2.354028722720
H     -3.071919292030   -1.585212643171    0.843291165256
H     -2.048983923045   -0.709164123378    2.014471129227
H     -3.741833975216    2.596743521330   -0.596009873974
N      2.058736423296    1.192683074733   -0.125168970252
C      1.383253569462    0.111323964579    0.225530949973
C      2.030031757881   -1.178962859206    0.418686326643
C      3.419376981828   -1.298039476392    0.167056723218
C      4.130735300283   -0.126926400112   -0.325358931132
C      3.410571383013    1.093172817105   -0.466483778471
C      1.281056699179   -2.291996884773    0.860579798918
C      1.902675612306   -3.511760137332    1.070317780478
C      3.285058677911   -3.638082457264    0.834841615212
C      4.028142758159   -2.555043790717    0.390469133914
C      5.498840691757   -0.150410482102   -0.680445166410
C      6.139820331391    0.976442327730   -1.169576897451
C      5.418218355307    2.172448630691   -1.325331971692
C      4.077618871547    2.227883853461   -0.979104793217
H      0.212709554564   -2.168085456909    1.036598146810
H      1.324805632043   -4.371324540615    1.417526465514
H      3.779112663344   -4.598622848083    1.001760537343
H      5.096553665668   -2.682372918687    0.214552002195
H      6.064602505644   -1.076854848540   -0.574892441523
H      7.197439783958    0.930750243013   -1.439102141845
H      5.909154609384    3.063438386774   -1.723912572164
H      3.510881533086    3.150880138803   -1.107930567433
