75

C      0.250930202384    4.911681966110   -2.730930320924
H     -3.227020743105    0.024716066740    0.123874372533
C     -0.092026028932    4.809985612502   -1.306245220774
H     -1.097688180040    4.399363249625   -1.168078493563
H      2.317932126017    3.674227751708   -0.762183595564
C      0.449697476424    5.281411183439   -0.099540918552
H     -0.239307807007    5.225362111244    0.749383202286
C      1.613174306845    6.184071473735    0.146119286991
O      2.418611963140    6.620069290915   -0.647313975365
O      1.653929321932    6.496440236324    1.457016976505
Pd     1.014591559716    3.165984503815   -0.176720146318
C     -1.947204210180    2.905756943836    0.914661552319
O     -2.046618736203    4.057299695119    1.305689230542
O     -0.839392223709    2.314567507939    0.574767234251
C     -3.222246282747    2.029835138368    0.852075377823
H     -4.032386291189    2.732797016410    0.601277702868
N     -3.152966541595    0.994099550594   -0.160348002815
C     -2.985424262051    1.287899801961   -1.479383117341
O     -2.903666265882    2.443334303915   -1.879625637415
O     -0.057476036562    0.066399963744   -0.114716042933
H     -0.491379037957    0.970944666747    0.144184980552
C     -0.672261051374    4.320527643525   -3.624497028305
C     -0.498800969357    4.357104475922   -5.010357251712
C      0.638568646407    5.010304533113   -5.541195343286
C      1.556379647920    5.595128842072   -4.653259540124
C      1.383154937666    5.552609808388   -3.272525604992
H     -1.545125215711    3.805183932275   -3.213121824127
H      2.436323069257    6.101274421804   -5.060969913434
H      2.108602657301    6.018584563794   -2.608055524161
C     -1.516548077537    3.708927650340   -5.917249775874
H     -1.977831550437    4.441563826932   -6.601781911616
H     -1.059768344312    2.931379079455   -6.553474478356
H     -2.321524552090    3.239477221762   -5.334118770177
C      0.864116810813    5.078480463323   -7.029567431911
H      0.935397505866    4.071355558741   -7.475326418341
H      0.029195817062    5.585917647916   -7.542742967397
H      1.789117299286    5.621120389124   -7.272332409696
C      2.706480282626    7.373691259402    1.882791619544
H      3.678023108349    6.916377000805    1.631486156546
H      2.640942452795    8.314776255009    1.312368510942
C      2.553146940483    7.600954648161    3.372549078872
H      2.627688578368    6.652458040526    3.926398628772
H      3.344731107384    8.276187173808    3.733393552165
H      1.577682125085    8.056360203065    3.602388081352
C     -2.852466620444    0.090690490330   -2.403348599862
H     -3.152414190843    0.383546467446   -3.417492334462
H     -1.795060484227   -0.219460975822   -2.422583249453
H     -3.455303785144   -0.768656262154   -2.071941506130
C     -3.485977738382    1.420598138529    2.244714979664
H     -2.615210128887    0.808942736137    2.534383667831
H     -3.532085820495    2.263934575436    2.951194652766
C     -4.748458017220    0.589714952957    2.333115243888
C     -6.014394419881    1.193392397750    2.239211468826
C     -4.687863035463   -0.802959732364    2.496953153768
C     -7.180231215307    0.428280076926    2.302822731868
H     -6.086053486348    2.278257221938    2.118322349086
C     -5.854271300358   -1.574074843877    2.560289384911
H     -3.712404742800   -1.290643566814    2.590832681065
C     -7.104627231853   -0.960334869874    2.461876225308
H     -8.154962859320    0.918058136402    2.231235820129
H     -5.783106221460   -2.657041656128    2.691991335452
H     -8.017793253890   -1.558721787618    2.513167247702
N      1.943937646145    1.235863830751    0.032512101545
C      1.254453629635    0.073616756824   -0.031310858961
C      1.914850874108   -1.191614797799   -0.022118693892
C      3.296123646389   -1.199098122702    0.088663286673
C      4.007380029387    0.008425905177    0.186520725428
C      3.296544391913    1.191335150733    0.149174233815
H      3.828684529057   -2.154261843468    0.106499893104
H      5.093919132682    0.026755321030    0.280426255780
H      3.802185612118    2.154664210860    0.205701082713
C      1.086196635649   -2.441720687551   -0.116908320267
H      0.346077140600   -2.486842638388    0.698368126614
H      0.511616253065   -2.467658971338   -1.057442230196
H      1.718366916848   -3.340019590297   -0.069696709296
