54

C      2.014994893539    3.155983577475   -2.350352338375
H      2.849400139319    2.451929764277   -2.399191117164
H      2.231284145642    4.225962047108   -2.343583511135
C      0.736016939541    2.704135047983   -2.568029893385
H     -0.091823129372    3.402816617013   -2.711374044993
C      0.469302360731    1.262612732414   -2.889492071847
O      1.329008665027    0.418161402840   -3.002617144391
O     -0.837700991025    1.042196291234   -3.035810126094
Pd     0.995054079042    2.972238070748   -0.333198051182
C      0.204264806477    5.562932438795    0.451763509143
O      0.257358167009    4.797037786739   -0.623728828214
O     -0.008992148310    6.753817519945    0.406685601302
C      0.470081645537    4.840773121799    1.793415721524
H     -0.344410726200    5.160607038400    2.460114428498
N      0.415443677655    3.391362747757    1.574216917746
C     -0.436119927553    2.590999139677    2.223027111353
O     -0.718150523940    1.424192646764    1.855172054406
O     -0.049674342104    0.005837423935   -0.030890450581
H     -0.376545392617    0.706979013744    0.697347298265
C     -1.249977012895   -0.326774141504   -3.236063966528
H     -0.744045620045   -0.717585267546   -4.133653270010
H     -0.905473589208   -0.912581199245   -2.370063222938
C     -2.756919829556   -0.343459701487   -3.374635395407
H     -3.085117723393    0.266050086247   -4.230820657968
H     -3.104344404486   -1.376371056366   -3.532442765738
H     -3.238672831978    0.046376517673   -2.465167207277
C     -1.149035941033    3.077516365978    3.477708868324
H     -1.565980331276    2.198196079080    3.983346321825
H     -0.493138384516    3.626170412807    4.164517545130
H     -1.984241948982    3.741826450275    3.200300030025
C      1.791341525351    5.374389144074    2.417178175075
H      1.652060448592    6.469140991932    2.425932085596
C      1.983397830230    4.901666765617    3.861712640487
H      2.910017255098    5.318795658758    4.287844581467
H      1.151532501124    5.221098981993    4.509791495159
H      2.059151786092    3.802888705451    3.915578879398
C      3.034461381893    5.069362566429    1.573479776473
H      3.243120054636    3.987187477352    1.550765116371
H      2.928341476133    5.424324470883    0.536248583090
H      3.919604886521    5.565576508523    2.002578978625
N      1.946445907491    1.136484372044    0.021541558395
C      1.255160943582   -0.013431234045   -0.033687194104
C      1.949318714020   -1.266003165678   -0.119157619580
C      3.334334057139   -1.270365435093   -0.055095003393
C      4.022773666052   -0.047478619110    0.076647546973
C      3.303563928903    1.126751860579    0.102381346127
H      3.893558312511   -2.205378652190   -0.096035349070
H      5.111306591897   -0.023788204707    0.143451927948
H      3.791862893513    2.099974265407    0.174276985583
O      1.154771678629   -2.345079112051   -0.244434619150
C      1.751425638389   -3.619440156359   -0.353870739360
H      2.338720353537   -3.873301747098    0.547132532295
H      0.930090291280   -4.340054471313   -0.458563983562
H      2.407067520484   -3.687568542709   -1.240490393829
