75

C      3.918939389612    4.967266556145   -0.246659779669
H     -2.997671225428    4.959481592846    1.174822628037
C      3.014328092218    5.219139986983    0.941067570347
H      3.594214371116    5.715186661157    1.741589637102
H      2.207228922974    5.914565234719    0.672184543574
C      2.403039979011    3.939319559337    1.519096913251
H      3.168349090076    3.178570031189    1.720454492917
C      1.604814769519    4.164212659338    2.765488040634
O      1.015429901806    5.182792118325    3.069490113704
O      1.593149434582    3.066030765769    3.561697747874
Pd     1.040937750841    3.073532579502    0.229387276084
C     -1.638490272451    2.879384874913   -0.938448574661
O     -0.555676918755    2.152365327935   -0.994671059564
O     -2.205432362351    3.399744927110   -1.873942192928
C     -2.195328871508    3.099835945189    0.519903504729
H     -1.539215976011    2.562486157150    1.222884059384
N     -2.143336813998    4.531610233182    0.835516268233
C     -1.076010897036    5.317698719044    0.651545056290
O      0.022774012929    4.904978224182    0.222442436964
O      0.055712885725    0.147385975300    0.387104989144
H     -0.303524746004    0.970727738288   -0.124936835464
C      5.284974058995    4.705971859032   -0.064194907649
C      6.145544853336    4.405453315165   -1.128820132202
C      5.622475258907    4.370699222729   -2.442081581119
C      4.261168118214    4.648769041053   -2.628838778017
C      3.416631558184    4.941490589147   -1.555010920401
H      5.697423523563    4.729613915252    0.949989568777
H      3.849350601635    4.631684996158   -3.642310821570
H      2.358947678959    5.150395670934   -1.736932660589
C      7.597255296839    4.093195549093   -0.866631858660
H      7.807713330497    3.030192492053   -1.070498017313
H      8.271203738326    4.692529270429   -1.501001226733
H      7.862074575080    4.284416636668    0.183694434676
C      6.505807884819    4.033158397459   -3.617861721678
H      7.337738541123    4.750489985749   -3.725820058850
H      6.965065971365    3.036194885596   -3.504839361236
H      5.937069196149    4.036751829632   -4.559322378473
C      0.825882261711    3.149584512294    4.769664570807
H      1.163550683819    4.022265332427    5.352227638190
H     -0.232497851637    3.328948620199    4.514174997118
C      1.007610200198    1.854624029977    5.535130392880
H      2.068131469567    1.689256764958    5.780402673760
H      0.436956059665    1.889185702571    6.476463500121
H      0.652902520944    0.993399639337    4.947906709525
C     -1.202945084702    6.775622287043    1.003289130368
H     -0.550590587326    6.952169223792    1.873056281119
H     -0.821113363848    7.377949622469    0.166619291296
H     -2.232831286373    7.079332274983    1.236627664792
C     -3.612001985157    2.587430329927    0.681509992989
C     -3.891232130389    1.563889266604    1.598881181462
C     -5.195408699824    1.085156962660    1.754992866021
C     -6.235984431223    1.629539765309    0.997649368274
C     -5.964831034816    2.647589138914    0.077185517117
C     -4.661598156680    3.122749911191   -0.085333352718
H     -3.079421242513    1.135265944447    2.193160359144
H     -5.397896402334    0.285771820466    2.472352820130
H     -7.256521830344    1.257732266207    1.120164030941
H     -6.772626056329    3.067405145237   -0.527859845524
H     -4.436932960540    3.884306378478   -0.834546905419
N      2.072814708373    1.268758324886    0.200799420234
C      1.361977229457    0.117536541945    0.360208608431
C      2.025622210038   -1.124043281697    0.500618924795
C      3.398869799756   -1.181561103821    0.391885692511
C      4.121752702786    0.003540795633    0.141273124719
C      3.411547618833    1.199542167390    0.063070080110
H      1.411465096802   -2.010834894593    0.659423207599
H      3.928870037835   -2.131115778492    0.476814957848
H      3.944959369758    2.135585876912   -0.111342436158
C      5.597908796129    0.036615693243   -0.036009528830
O      6.245814570843    1.032273373704   -0.264735925778
O      6.146820343979   -1.187716652988    0.087848739563
C      7.563192963474   -1.265568200021   -0.069604901868
H      8.074884353867   -0.639191886067    0.676625552370
H      7.828764018783   -2.320383004703    0.071737080665
H      7.864131798972   -0.927856143630   -1.072915789738
