43

H     -2.595846526011    5.463317506287    0.863608537604
H      2.400747082547    3.693772775286   -0.686254775138
Pd     1.079646290560    3.129518926939   -0.186771662322
C     -1.601099274273    2.700419480665    1.429800256965
O     -2.476921306137    2.022540387920    1.930413162152
O     -0.841447932725    2.327521627898    0.438293590016
C     -1.283819844938    4.158560430207    1.893026105217
H     -0.186899200424    4.217367686402    1.980903916790
N     -1.656894637774    5.083282910563    0.816288248155
C     -0.908393375946    5.450004369137   -0.232476430145
O      0.231921387505    5.011243056413   -0.485120407159
O      0.009531687792    0.087086984345   -0.166766112055
H     -0.461925556472    0.982954800051    0.071224550627
C     -1.489250065319    6.491013802939   -1.160559134571
H     -2.456334275680    6.887858128538   -0.821893570143
H     -0.768661985325    7.316991462138   -1.253518413748
H     -1.605769485043    6.047018452405   -2.161046445636
C     -1.886563468450    4.615921546734    3.255142126806
C     -1.420952998537    3.632716861904    4.347572055565
H     -1.756572411471    3.983019564223    5.336676041171
H     -1.827522401549    2.627440467879    4.178087972992
H     -0.320293609415    3.564851591624    4.376842113257
C     -1.341096498706    6.018913596200    3.592274862744
H     -0.240080766137    6.019187970957    3.648940382297
H     -1.637552464918    6.772581383810    2.845612432223
H     -1.726348016585    6.352150963757    4.568910085538
C     -3.427938342114    4.654520933320    3.220621134912
H     -3.814757786839    5.410296528007    2.512617863521
H     -3.836319857197    3.673156827360    2.946651561250
H     -3.818484607187    4.938136798851    4.210901177607
N      2.006610568344    1.281477788173   -0.040051214824
C      1.306886511447    0.113568109949   -0.106653046043
C      1.993684255731   -1.132261822771   -0.125349952619
C      3.364827625091   -1.170448893342   -0.038936320687
C      4.074490139713    0.044314666766    0.067106196964
C      3.359212816017    1.226980835182    0.057568868738
H      1.384748059680   -2.033815272445   -0.195956947920
H      3.896374792976   -2.124928104638   -0.045866237577
H      3.873162028964    2.182929177481    0.122341970918
C      5.572770842423    0.039652750087    0.183768514046
F      5.977444252696   -0.603395998768    1.296280307195
F      6.144104723349   -0.598182325813   -0.855692531034
F      6.083187194004    1.280588959872    0.227778833669
