73

C     -0.555626608168    4.631044856445   -2.402478583297
H     -2.497675347142   -0.316512272059    0.617429511869
C      0.450975242436    5.027140181790   -1.414929953900
H      2.388953787106    3.731983108224   -0.494352322449
H      1.394122500626    5.376428813876   -1.843164836978
C      0.286389861838    5.235792566488   -0.041822659896
H     -0.680878093055    5.098204897784    0.453452356140
C      1.256947095324    6.033288590531    0.772573812791
O      1.106349515499    6.259796933821    1.949507775398
O      2.305776280339    6.490540984493    0.058284679416
Pd     1.018343980556    3.188511965763   -0.152559645039
C     -1.985876405058    2.693970664775    1.015075860210
O     -0.890405175608    2.272417519504    0.426887984828
O     -2.218293567084    3.862151643346    1.273788354088
C     -2.996598513854    1.595416948609    1.412296017890
H     -3.973854646144    2.096091781540    1.416606068980
N     -3.061553305962    0.509317142631    0.449393488789
C     -3.620015247054    0.680217899390   -0.787984325862
O     -4.181165358051    1.716153280468   -1.109722750036
O     -0.060552917382    0.046407205145    0.023706424700
H     -0.521145928921    1.024494149549    0.193753231018
C     -0.160804122054    4.553500999989   -3.755142357917
C     -1.046156573973    4.188390875838   -4.771557784542
C     -2.383903190255    3.872473164079   -4.427793926042
C     -2.779166692141    3.950663659259   -3.082138173659
C     -1.893092557983    4.333254752579   -2.079745008371
H      0.875851550043    4.788365860879   -4.015356044449
H     -3.798707915583    3.677932961250   -2.802205986972
H     -2.243913031865    4.388561917893   -1.049046087203
C     -0.581981556904    4.127371066939   -6.205932461495
H     -0.706124154847    3.117066808242   -6.631551082452
H     -1.161298313842    4.810739282101   -6.849792978378
H      0.479227738553    4.400903283577   -6.296442607883
C     -3.372777090374    3.458343163097   -5.486382306052
H     -3.512119417702    4.250523950671   -6.242194527633
H     -3.029913409163    2.563693571002   -6.033950560133
H     -4.354736592477    3.231656276587   -5.048186358978
C      3.298241363482    7.241813542427    0.777626554817
H      2.807808790840    8.091110080348    1.279631650883
H      3.722895969528    6.602943543273    1.569628402941
C      4.352649548890    7.696242775129   -0.209814764384
H      3.912884641950    8.335899363140   -0.990690774542
H      5.129986765413    8.275598844533    0.312176579254
H      4.835660448153    6.835875544204   -0.698451992298
C     -3.466694245178   -0.501962893539   -1.731400158058
H     -4.188133693705   -0.398558208555   -2.551272350379
H     -2.447842355542   -0.502134905745   -2.152786596945
H     -3.620773519975   -1.464521573672   -1.219494550992
C     -2.679608974903    1.023217169147    2.807111820052
H     -3.453964216183    0.267185633315    3.031166809797
H     -1.719305429734    0.478071513398    2.746096493002
C     -2.604823452945    2.028664928165    3.971437421072
H     -1.783012338236    2.735672598435    3.760741894603
C     -2.259551318352    1.287366882419    5.269959681592
H     -1.323236777934    0.712861606355    5.174227460890
H     -2.135236017967    1.992167947731    6.107368170194
H     -3.058718596792    0.578184077876    5.547818622419
C     -3.889887845163    2.852488199917    4.124399434678
H     -3.831034876296    3.500665344671    5.013522843716
H     -4.053532593975    3.503822025822    3.253850835885
H     -4.771572938413    2.198836927630    4.247395198452
N      1.935832789420    1.222240204090    0.001348143122
C      1.232349657418    0.049036054802    0.017089001695
C      1.913843536546   -1.203688547545    0.020648692890
C      3.287366147734   -1.249323257034    0.033131809421
C      3.981646177676   -0.027226917881    0.039813596684
C      3.283503899374    1.167680693482    0.020791252765
H      1.301889426904   -2.106030045406    0.023103855820
H      3.843664192072   -2.187040420565    0.042240961608
H      3.831536085288    2.107294157389    0.016201101378
N      5.445276127193   -0.004206451670    0.056461976565
O      5.997302688288    1.085487496954    0.059268265403
O      6.018318889112   -1.082669706838    0.066092886169
