84

C     -0.649481717797    4.520906757045   -2.188917653573
H     -1.985849103572   -0.303474638086    0.712173796219
C      0.480823995550    4.972933947556   -1.371314496810
H      2.592341189722    3.745192609869   -0.614883286063
H      1.350419840478    5.310063715042   -1.941125499828
C      0.500107561420    5.241958114721   -0.001279242221
H     -0.377730903191    5.093670994481    0.637191137200
C      1.564067827380    6.076510947315    0.637350355268
O      1.619333456093    6.298473420106    1.824022888321
O      2.451513593537    6.576882840171   -0.248635936400
Pd     1.259212547942    3.198945060903   -0.142546111128
C     -1.616793925311    2.599412763134    1.163604378102
O     -0.598448352463    2.210004489653    0.455978154751
O     -1.736448793132    3.703827900709    1.675026887819
C     -2.752324943664    1.566593018495    1.369082183446
H     -3.676839936640    2.092083532458    1.090111135711
N     -2.675008137835    0.409569573967    0.504607062475
C     -3.374301147739    0.315519259013   -0.669166058901
O     -4.166782582706    1.167861461830   -1.039191904198
O      0.287253943717    0.248667680459   -0.763468615988
H     -0.201874951432    1.037125874641   -0.291061186620
C     -0.427382666465    4.276808106344   -3.559783612698
C     -1.436832218973    3.816656742983   -4.409496892428
C     -2.725101970963    3.579721706813   -3.871368703821
C     -2.953401598133    3.845282778691   -2.511219560324
C     -1.944419412648    4.317727568623   -1.678201663833
H      0.573535520472    4.445160021237   -3.968970162394
H     -3.939466633877    3.642658280428   -2.089125457529
H     -2.160595575081    4.512945389654   -0.627359027112
C     -1.152489891068    3.567822032463   -5.870402060081
H     -1.323317092021    2.512643309829   -6.144166826373
H     -1.809974992081    4.169370133869   -6.520734785965
H     -0.111468223253    3.815027260726   -6.124439197105
C     -3.839944303815    3.048351660844   -4.734292915011
H     -4.120549324415    3.766997180730   -5.524365216896
H     -3.544601567793    2.118571340319   -5.248911793706
H     -4.734202866394    2.829945237008   -4.134489761300
C      3.526836250600    7.361616675645    0.288863199198
H      3.104763072266    8.190842118054    0.879117191846
H      4.110791365065    6.738077750017    0.986374042662
C      4.370472478527    7.858029203168   -0.867014163605
H      3.774330374292    8.482255164790   -1.550546646308
H      5.207641133166    8.464858789312   -0.488193620553
H      4.787124152971    7.016851034421   -1.442541422450
C     -3.065242059653   -0.920601766858   -1.498797902140
H     -3.915502318686   -1.123049292038   -2.162331232168
H     -2.174917389364   -0.722865255345   -2.118106341868
H     -2.860598828648   -1.805246823939   -0.876314188809
C     -2.825233915952    1.180892397457    2.865188687088
H     -1.893208850736    0.660944498884    3.147960581933
H     -2.843078338155    2.125198605753    3.429697973620
C     -4.019401662676    0.325935721630    3.224261310501
C     -5.304855787735    0.888691869155    3.294265044867
C     -3.882096846965   -1.046910632333    3.478399104804
C     -6.416808221279    0.103621708460    3.605959528657
H     -5.434563472913    1.958293857531    3.104271100468
C     -4.992264148115   -1.837696377874    3.792283408279
H     -2.888204934318   -1.503162655883    3.439062480223
C     -6.264668516863   -1.264546831922    3.855672637704
H     -7.407733207262    0.562522037591    3.657343378949
H     -4.860965967766   -2.904922431608    3.990501089557
H     -7.134356505813   -1.879247799368    4.101830369749
N      2.190342881426    1.255667326348    0.038754227705
C      1.563034338579    0.205767438107   -0.467213061122
C      2.251369525436   -1.047210376996   -0.747457795952
C      3.619428875317   -1.174670485685   -0.401010842901
C      4.262449584427   -0.058502973743    0.278455664177
C      3.508196101450    1.130363413190    0.488619159939
C      1.564185781760   -2.112669071548   -1.369929461376
C      2.227751314352   -3.292252696309   -1.664668898992
C      3.590115512047   -3.425379439898   -1.335262356560
C      4.272053981910   -2.389528518083   -0.714739041818
C      5.592874133581   -0.109272278439    0.753439792744
C      6.162808115688    0.959414604567    1.426732165010
C      5.404325838501    2.120643734228    1.654224770336
C      4.100344440057    2.202499601895    1.192233670104
H      0.510734881181   -1.982952155094   -1.617702890102
H      1.698349010630   -4.114628956796   -2.151255015519
H      4.117254153312   -4.353942977784   -1.568718736230
H      5.326324245566   -2.521104233893   -0.469925067361
H      6.184282708044   -1.012305283813    0.597288886538
H      7.191579946118    0.892886183436    1.787918736414
H      5.836388392775    2.961141272837    2.202574260022
H      3.502025969965    3.095228182987    1.379542022400
