71

C     -0.585974386169    4.617958048826   -2.336753429817
H     -2.170594015256   -0.108347246028    0.306499976005
C      0.485520624653    5.032565729025   -1.425472939234
H      2.495223351324    3.738277700888   -0.651853161189
H      1.397266893139    5.371970839496   -1.923233299158
C      0.409154821734    5.272881647020   -0.052274598756
H     -0.518309318824    5.130078969481    0.514245251661
C      1.438268167592    6.072020454643    0.680793343970
O      1.408931304614    6.268890304194    1.872918289574
O      2.399490183674    6.573777718290   -0.124952222733
Pd     1.154543081701    3.223683097029   -0.164737392393
C     -1.798556253962    2.708498844750    1.060199738597
O     -0.699082364098    2.284489693157    0.502347479016
O     -2.016251292994    3.865710168630    1.389669227091
C     -2.864444238881    1.619168490044    1.328729157831
H     -3.833137489174    2.137583893047    1.296442726761
N     -2.889245996906    0.607260728713    0.285608211310
C     -3.628848163110    0.736424825136   -0.860075192576
O     -4.409850618608    1.657078068766   -1.043328281360
O      0.104835081620    0.308704140931   -0.772786761191
H     -0.340874555299    1.109126388780   -0.294045654480
C     -0.274475260982    4.468523603518   -3.704189472491
C     -1.227298739146    4.080671618726   -4.649332825744
C     -2.550076644094    3.819619095468   -4.215465641548
C     -2.863846375383    3.974461523376   -2.855123274430
C     -1.909577584561    4.376141488641   -1.924803716193
H      0.750822107082    4.661245945344   -4.034715291089
H     -3.873613234831    3.746055890747   -2.507365691838
H     -2.195296134122    4.490446467127   -0.878716072999
C     -0.849301709037    3.937875212274   -6.103183393081
H     -1.019425388235    2.910859656121   -6.468854863467
H     -1.450741276452    4.602048449271   -6.746948307887
H      0.210516640365    4.180668932400   -6.268166719925
C     -3.610202639967    3.382185438753   -5.192993107190
H     -3.784815428702    4.146063579045   -5.970554615910
H     -3.316995310277    2.460142577602   -5.723600555758
H     -4.565365885099    3.190546669976   -4.684451289608
C      3.437392396102    7.336230088871    0.509124874841
H      2.978731799720    8.154223381510    1.087531842987
H      3.964689760308    6.691551639662    1.232246331207
C      4.366539382339    7.854695272233   -0.568974893268
H      3.825821039081    8.500627666188   -1.277911210562
H      5.177569839218    8.445040622121   -0.114768826932
H      4.819120135602    7.025438473249   -1.134750841695
C     -3.405977721650   -0.372128113084   -1.879351804256
H     -3.713481102072   -1.347467175697   -1.468053305789
H     -4.001903711390   -0.155480711194   -2.774043122045
H     -2.339960581995   -0.441480002702   -2.149422671852
C     -2.674225825769    0.967087541491    2.724957015240
H     -1.711521018891    0.419395897584    2.692299454844
C     -2.583731599443    2.006489415769    3.849658897355
H     -2.459981187385    1.502196118832    4.821461774678
H     -1.743570717834    2.701813667989    3.715578014548
H     -3.502927252198    2.613113668764    3.897669400932
C     -3.792621526720   -0.043077375528    3.014184295375
H     -4.769440121460    0.465920041487    3.072608702438
H     -3.865847515677   -0.813846975274    2.232948474147
H     -3.620170547725   -0.548779518663    3.977780779175
N      2.052971842256    1.263290976067    0.045420642934
C      1.369845838408    0.190681044636   -0.427255304420
C      1.990329705403   -1.070298219113   -0.564372086761
C      3.296564584975   -1.223128682206   -0.140999074584
C      3.967716319468   -0.130742414027    0.425433828395
C      3.325646500734    1.102666690218    0.505825850954
H      1.401825318476   -1.889539525543   -0.978160236533
H      3.793877900468   -2.192789514661   -0.225650413636
H      4.985939403407   -0.231826282429    0.802573939825
C      4.028945069279    2.286034696576    1.110237537093
H      4.323962344303    3.006801840626    0.330566957494
H      3.370076284546    2.820608599994    1.811133209008
H      4.934323909519    1.966699183380    1.644866298723
