72

C      1.217321507050    4.069847666172   -3.344905817448
H     -3.165370954434    1.939785642304    1.785259090671
C      1.670740913140    4.835582456008   -2.119540771630
H      2.433789957755    5.579814741346   -2.418354386687
H      0.839246620404    5.415497048934   -1.694011412996
C      2.286628928988    3.961894225717   -1.026035034335
H      3.063335144251    3.294506011860   -1.421794397912
C      2.789005729503    4.747079940047    0.146897287266
O      2.358335421491    5.814534787530    0.521184256419
O      3.813757799486    4.115294823357    0.785022284255
Pd     0.834510601872    2.796143557852   -0.176333044031
C     -1.558009953923    3.355558292851    0.461599314242
O     -1.212290636380    2.144159542149    0.632064305906
O     -0.746606493017    4.190408887669   -0.036799093726
C     -2.935489168529    3.834920270862    0.888877642133
H     -3.459578620264    4.183399325903   -0.017941431953
N     -3.693492413970    2.731623981674    1.436832814541
C     -5.053015971218    2.668647021148    1.316149514903
O     -5.704202601460    3.566787391330    0.806238922118
O     -0.048930491264   -0.101877813519   -0.442794754478
H     -0.470550897016    0.743872810983   -0.153825826891
C      2.143696453979    3.636230442380   -4.305731713112
C      1.765427500311    2.911661031310   -5.443755638445
C      0.398041071527    2.605103870372   -5.639641728965
C     -0.528339047838    3.043508670722   -4.684380372263
C     -0.133095936669    3.763679077603   -3.553864609999
H      3.203068977210    3.879417284488   -4.169235936317
H     -1.588966230669    2.818525203376   -4.831204356313
H     -0.878872051108    4.097016090694   -2.828013649180
C      2.802999379376    2.474337623840   -6.448986051187
H      2.818130525816    1.377351187222   -6.569256598484
H      2.603657448468    2.893901056836   -7.450086226333
H      3.812181170844    2.792157965732   -6.148512073792
C     -0.055938114798    1.831836206668   -6.853321830484
H      0.204616861556    2.352072062983   -7.791255295919
H      0.419329496019    0.837087194353   -6.906599080552
H     -1.145377918686    1.681501682042   -6.846773705447
C      4.322565658370    4.752367199326    1.968173696323
H      4.601829551888    5.789390047517    1.723277989870
H      3.516985788193    4.807146914769    2.719331446309
C      5.506313016263    3.950730618539    2.469505924689
H      6.301113737055    3.902763994885    1.708730412953
H      5.924090442249    4.423010713064    3.372280406440
H      5.211095185341    2.921777764750    2.728532657492
C     -5.704334232750    1.413642089776    1.874697741592
H     -6.381999878949    1.702357498030    2.692866489380
H     -6.324785415036    0.960401675819    1.087272938278
H     -4.987107060492    0.668464493355    2.248367562111
C     -2.837846826799    5.067998075560    1.833169607995
H     -2.334406168796    5.869183831851    1.272502323591
H     -3.872717913284    5.391727805798    2.019560500541
C     -2.115750371872    4.811206651455    3.136538592570
C     -2.801321499571    4.293156611444    4.248602015824
C     -0.738926035856    5.068427554380    3.262748276964
C     -2.133789339453    4.030999066595    5.448286250366
H     -3.875485291625    4.103750704023    4.174492502429
C     -0.070808793161    4.809577310195    4.463576834338
H     -0.185391753316    5.480785523321    2.414803015551
C     -0.763865319950    4.287165488195    5.559501437754
H     -2.687934284916    3.632953755568    6.302737820388
H      0.998019188476    5.026002005219    4.543419502116
H     -0.241315834912    4.088903772091    6.499062550631
N      1.960576718489    1.052238029760   -0.184596599965
C      1.271778538581   -0.100648880760   -0.349895833240
C      1.937108397821   -1.340984525551   -0.438673227221
C      3.314915869084   -1.381558790480   -0.316332517419
C      4.019444666056   -0.187454865423   -0.096566570398
C      3.306487845099    0.998282149037   -0.038346023024
H      1.331727153668   -2.235133227469   -0.590339844146
H      3.842632871799   -2.336471128043   -0.378839899987
H      5.103162809779   -0.174361893128    0.025934829692
H      3.802387015777    1.952944135245    0.140881770353
