71

C     -0.177833360547    3.935964842699    3.360397808679
H     -1.490183488306    5.594156410930   -3.414100762962
C      0.944091403689    4.335790134431    2.435857741124
H      1.809411843289    4.760576359352    2.966614047530
H      1.510579711922    3.290626874311    2.104609153054
C      0.633722868519    5.061781864497    1.188190095929
H     -0.402578552404    5.327392741130    0.961429475619
C      1.679012276348    6.001434493768    0.702098275314
O      2.832496343039    6.010509038463    1.087341228916
O      1.226087452355    6.845406553070   -0.247811708920
Pd     1.144614623543    3.241817192796    0.387680776549
C     -0.840291370823    2.970332109293   -1.684610245715
O     -1.210963827192    1.900644192614   -1.166517394716
O      0.251304464575    3.587786681405   -1.471815073083
C     -1.792547220665    3.603713575350   -2.712830862052
H     -2.782536560259    3.157158499784   -2.538279165908
N     -1.855660792286    5.047333675755   -2.645968720730
C     -2.182324837502    5.674937663036   -1.480570315846
O     -2.482160575022    5.047193839118   -0.472744719372
O      0.029211081318    0.186177482802    0.129368469283
H     -0.418632031192    1.006072534109   -0.342653548752
C     -1.459700192877    3.629084827949    2.876754199555
C     -2.506273948261    3.272453290502    3.734532158711
C     -2.266884128729    3.208048352303    5.129192159028
C     -0.984909838739    3.510669661930    5.605635774577
C      0.050220212276    3.870523403995    4.739535296207
H     -1.662246587507    3.670061515268    1.803152088858
H     -0.791681924112    3.465970813448    6.681325225197
H      1.039355487518    4.105374195402    5.143045704905
C     -3.869174692339    2.962475223220    3.166330078635
H     -4.168526119466    1.921233436751    3.377005295720
H     -4.647891651221    3.607936756104    3.606996641460
H     -3.886882684060    3.107676166111    2.077075410447
C     -3.368477555826    2.820583419938    6.083439972764
H     -4.221145782212    3.518659904641    6.024845235062
H     -3.770391396554    1.818891202924    5.854245264360
H     -3.013278750350    2.810580025032    7.124216951381
C      2.209522745489    7.718091577646   -0.831305313151
H      2.666459920414    8.325478595506   -0.033431895629
H      3.014602000209    7.103011720406   -1.264791710005
C      1.535699118263    8.578744191600   -1.879222899450
H      0.749746699992    9.209297343125   -1.435470963303
H      2.279277307156    9.241062161696   -2.349523962260
H      1.080885880588    7.959432147965   -2.667590853789
C     -2.125259097623    7.190274246645   -1.497580755786
H     -2.969102577085    7.580751212934   -0.912402606127
H     -1.193247853649    7.500075392036   -1.000392138821
H     -2.149557114103    7.619591779280   -2.510400581515
H     -1.460021065484    3.313470318914   -3.721284358013
N      2.041264468930    1.275589325539    0.016378558913
C      1.332722630849    0.163985333535    0.092896212838
C      1.962512144720   -1.150857360035    0.170234221691
C      3.375422185153   -1.246603484869    0.120239303038
C      4.142284359568   -0.016294777083   -0.022888673474
C      3.431556739082    1.216720069541   -0.070222289510
C      1.166716580870   -2.310819086849    0.289498514708
C      1.761934888157   -3.559285996737    0.371269407692
C      3.165109028001   -3.665733113029    0.329283812949
C      3.956357228959   -2.533486992041    0.204662541848
C      5.552551227253    0.012053759216   -0.110971922412
C      6.247337830819    1.205092371942   -0.236872570279
C      5.541140285128    2.419917298166   -0.279218906977
C      4.157497031384    2.423354067912   -0.198692594783
H      0.082926691122   -2.195635562711    0.316327864822
H      1.146570008350   -4.457042205767    0.466241415135
H      3.637922327811   -4.649219110120    0.393552428624
H      5.040617561558   -2.645579720019    0.172899398594
H      6.111118937794   -0.924493945230   -0.079176794622
H      7.337868799770    1.198779922285   -0.302121954550
H      6.078198815509    3.366483818356   -0.376109361942
H      3.607144270419    3.367179989351   -0.232247120717
