43

H     -2.589858249576    5.449947876175    0.852674035053
H      2.410937614119    3.640849334729   -0.657789953890
Pd     1.084687184228    3.089364374378   -0.155284954508
C     -1.608952024047    2.690604583193    1.443540748394
O     -2.499992779321    2.030070588744    1.944050547192
O     -0.845780341156    2.302405136978    0.465224715097
C     -1.282580530181    4.151641930144    1.896236983302
H     -0.185348706000    4.205081019825    1.982904667342
N     -1.651284574289    5.068581083341    0.811246315093
C     -0.905159839010    5.413437491460   -0.247219559676
O      0.231799407862    4.966918788015   -0.497254159996
O      0.028623184909    0.057388598642   -0.174534137459
H     -0.445078812469    0.936752028593    0.069955476208
C     -1.488199464410    6.439647780976   -1.191249321645
H     -2.449167646499    6.850524596353   -0.851672685928
H     -0.762871017227    7.258231670717   -1.308830738306
H     -1.618201421498    5.975522999291   -2.180929116280
C     -1.882550370892    4.624665021508    3.253964137704
C     -1.426658013667    3.645005674686    4.353537394898
H     -1.760395506544    4.004159664208    5.340228424718
H     -1.841568838151    2.642327506950    4.188713034743
H     -0.326658554452    3.567645946607    4.383981001261
C     -1.326071093945    6.025479400902    3.581659146399
H     -0.225249776841    6.016465043150    3.641541948938
H     -1.613333049700    6.774882745426    2.827120971820
H     -1.711435419476    6.370678229090    4.554238128670
C     -3.423571076149    4.675543628326    3.218122476419
H     -3.803408044331    5.431657829796    2.506701276366
H     -3.838033156193    3.695982080185    2.946842639677
H     -3.813087833356    4.965989179713    4.206925330171
N      2.016503016880    1.252283980657    0.048731055253
C      1.331510961067    0.084571130420   -0.043686648904
C      2.001694348469   -1.177275050869   -0.018337595176
C      3.376697670334   -1.181315206429    0.141738349437
C      4.078094327887    0.029501911466    0.273719046360
C      3.366845555750    1.209891686160    0.217984396116
H      3.912015773717   -2.134524444250    0.172615569474
H      5.160193820994    0.052798520319    0.409103947190
H      3.864520254787    2.174118295989    0.300913998816
C      1.177898632339   -2.426972753669   -0.149714408386
H      0.419074609630   -2.483135924408    0.647411755873
H      0.621870222013   -2.436014280538   -1.101324140007
H      1.811059847824   -3.324622724559   -0.102238273857
