15

N     -0.521003209950    0.751898488959    1.171300245117
C     -1.785273024389    1.237220943294    1.237907789303
O     -2.622310878415    0.967706275488    0.373802326109
H      0.121895383318    0.935924854837    1.931399504160
H     -2.326652918845   -0.642456078026   -0.114467775722
C     -0.587081631287   -1.451120754195   -0.075724264878
O     -1.913333977969   -1.543471086416   -0.156985971190
O      0.138902996627   -2.409803895231   -0.109554177250
C     -0.035469204969   -0.013670400700    0.027347057155
H     -0.301684435634    0.524555340389   -0.899420878988
C     -2.121861988225    2.125763932305    2.414369744117
H     -2.964249229438    1.679953695300    2.964236999239
H     -1.280478439751    2.288235089401    3.102663958123
H     -2.466658799302    3.097062699959    2.028476598392
H      1.056239131518   -0.087676617343    0.089548434678
