44

C     -0.686340165849    4.290076064861    0.645386380967
C     -2.154567200025    3.877024034757    0.751831046375
H     -2.469035144098    3.899263292648    1.804947676390
H     -2.791462292301    4.573240778095    0.183025134806
C     -2.215799627549    2.458122059060    0.189335264832
H     -2.582367775863    1.680447773039    0.870759771668
C     -2.793731150324    2.328913354666   -1.176648045351
O     -2.839916558978    3.221396172938   -2.004511224662
O     -3.256201725485    1.088780339044   -1.415813504638
Pd    -0.197715209156    2.120430398107    0.039802056534
O     -0.084619859714    0.028577462153   -0.001981201625
C     -0.087059074226    4.393119539619   -0.638129659399
C      1.238464385435    4.873340310695   -0.805660916377
C      1.981859767037    5.237528498705    0.326571115682
C      1.387922154817    5.116052949294    1.605108867256
C      0.094050029596    4.650773430023    1.772872184291
H     -0.717360220557    4.254114024197   -1.521371928880
H      1.971471038477    5.402174157043    2.484722746238
H     -0.341365917975    4.580815004130    2.772924200304
C      1.816635092667    4.994180855929   -2.192330311980
H      2.147436238801    6.024365541440   -2.406807792070
H      2.701561335619    4.346873769723   -2.317117820746
H      1.082625493581    4.706605196466   -2.957946010097
C      3.389266510251    5.763549290458    0.193086175668
H      4.048836262564    5.038947799916   -0.314111225463
H      3.420582399558    6.686290165757   -0.410975179786
H      3.829662562191    5.989934555303    1.174627452085
C     -3.751563655262    0.819410480659   -2.734949232249
H     -4.569403600365    1.522541846574   -2.963748376630
H     -2.948878240237    1.013593803987   -3.465686225971
C     -4.213989097019   -0.622570364152   -2.774618849765
H     -5.015317985236   -0.798963929132   -2.040392740283
H     -4.602264830703   -0.866830564103   -3.775916133761
H     -3.382797782480   -1.307150407540   -2.546570379214
N      1.804145469537    1.213564358964    0.017066186829
C      1.209764833839   -0.013036024510    0.001415970283
C      2.002265210405   -1.190546557247   -0.009369473840
C      3.381358928443   -1.053405195812    0.000683582303
C      3.976291287163    0.224178034784    0.022255288048
C      3.136855870808    1.332085305682    0.030509692327
H      1.508997046780   -2.163538536342   -0.023476691400
H      4.013206937916   -1.946448161417   -0.007056599197
H      5.060021328858    0.348838725931    0.032526870936
H      3.536555400207    2.351054530939    0.049757906091
