77

C      0.054758418502    4.992581519237   -2.626636633747
H     -2.618013628704   -0.140809893679    0.047374808454
C     -0.115618161973    4.892125318354   -1.173018498669
H     -1.092725555798    4.476902922121   -0.913213057168
H      2.419480276058    3.833971124697   -0.813948933378
C      0.561577432888    5.343812287931   -0.032105060691
H     -0.011353209675    5.245772926354    0.895566172678
C      1.731670168183    6.262391378801    0.086334371608
O      2.340290332041    6.824527823301   -0.796733466785
O      2.035092079118    6.428562525103    1.390788631816
Pd     1.152662098126    3.236096397812   -0.234563337457
C     -1.770045902992    2.708232156745    0.825931894121
O     -1.865607945871    3.801862078156    1.363043667218
O     -0.661001241949    2.195164895472    0.379281779098
C     -3.052191421142    1.857442271695    0.646468921919
H     -3.778082616283    2.560138445818    0.211487615817
N     -2.912870030924    0.764388223972   -0.298097913473
C     -2.941129486068    0.961220952964   -1.649110560209
O     -3.150770416848    2.061164147367   -2.146219702640
O      0.281129057676    0.231074617255   -0.810792813359
H     -0.226714561725    1.010424508604   -0.357075559203
C     -0.930122819361    4.329934327403   -3.395181681035
C     -0.915919963065    4.329821084422   -4.791584661128
C      0.114078493610    5.030620603432   -5.462946804051
C      1.090354253551    5.692671257624   -4.699515482489
C      1.079882708932    5.679680612378   -3.307079375211
H     -1.726138600900    3.782584661461   -2.882118496685
H      1.885408001554    6.237064580247   -5.217386841474
H      1.845508430469    6.206904864928   -2.740623603856
C     -1.990630521280    3.591063277055   -5.551653885895
H     -2.606259201139    4.278611813031   -6.157555715212
H     -1.559808182922    2.856701053819   -6.253543090323
H     -2.655617871077    3.053514954609   -4.860805865397
C      0.164566852108    5.068332673411   -6.968389764073
H      0.254020244088    4.054576770387   -7.395529814616
H     -0.756724188380    5.502731480586   -7.392881804549
H      1.016387382464    5.662980172728   -7.328741233396
C      3.119313587899    7.319112244963    1.694388951012
H      4.037440048436    6.943014390077    1.212815312359
H      2.907934002886    8.304897026430    1.248971041878
C      3.256858238489    7.395067216873    3.200983595258
H      3.474036441190    6.404533593835    3.629753821832
H      4.079420638185    8.076276209721    3.469332348879
H      2.330947832692    7.772030996632    3.661709137086
C     -2.663819281892   -0.271107138908   -2.492141820583
H     -3.164059433726   -0.160018171572   -3.462782665626
H     -1.577365901604   -0.343515819952   -2.660425891433
H     -2.998135666339   -1.200899932351   -2.007087670519
C     -3.594067684902    1.390244103794    2.019449493258
H     -3.601510087307    2.307207146148    2.632360067023
C     -5.034600940447    0.877311900705    1.900398365905
H     -5.453106104141    0.614493163235    2.883830423592
H     -5.690029503072    1.642415670716    1.455301849413
H     -5.089981328390   -0.019083702746    1.260791581180
C     -2.653792892071    0.379547163671    2.710036372992
H     -2.715920023129   -0.599348075042    2.195967112971
H     -1.610964433681    0.719459756020    2.590209562263
C     -2.934807619353    0.169976847043    4.200232739890
H     -3.940003071266   -0.243094870139    4.380163746487
H     -2.209117518642   -0.529357246039    4.645166696239
H     -2.861995205373    1.121226011087    4.752845917958
N      2.179949116950    1.341308587536   -0.095295069285
C      1.565956294167    0.242094543380   -0.544188173221
C      2.279298419310   -0.980817603361   -0.769727737333
C      3.605479329486   -1.055210723823   -0.458492863618
C      4.268434804798    0.073305796409    0.107176604173
C      3.509876459648    1.272112399326    0.285280626922
C      5.631206866628    0.037897105517    0.495968833171
C      6.234516093450    1.144507406484    1.060513908441
C      5.480129224907    2.322408132164    1.255088249959
C      4.150815703272    2.388454387888    0.877374110237
H      1.717010031308   -1.822665321903   -1.174681074332
H      4.165884059446   -1.980146903075   -0.619851594035
H      6.194095512189   -0.886880416638    0.343303028293
H      7.284244867367    1.110206680461    1.360453434190
H      5.950058561770    3.196266427881    1.713133422328
H      3.571660154871    3.299096841829    1.035395874590
