74

C     -0.550590231623    4.636146765661   -2.389227994393
H     -2.460422989174   -0.292154374501    0.580212255206
C      0.467503071887    5.023061122922   -1.409229732659
H      2.411184760896    3.712950444104   -0.513668667516
H      1.408220247495    5.368798442908   -1.845441805218
C      0.315815278157    5.229759864406   -0.034706166523
H     -0.646576208214    5.091996963895    0.470554523850
C      1.297938665829    6.019600328018    0.772008451538
O      1.166010456207    6.237997710780    1.952771174875
O      2.336943444026    6.483878695025    0.046043419696
Pd     1.038042534990    3.178411896887   -0.160774316898
C     -1.955270392661    2.698310764599    1.008367047858
O     -0.869589194286    2.272167916363    0.415363003376
O     -2.177935792056    3.865157086433    1.290677991172
C     -2.982629670453    1.607155333684    1.387110436948
H     -3.956675748074    2.113711206550    1.376664316317
N     -3.043477707350    0.522436001491    0.422372459212
C     -3.613950547332    0.685618940401   -0.810669347308
O     -4.199041457998    1.709792178960   -1.127442158566
O     -0.053687083670    0.042949869248   -0.123831361608
H     -0.496925420659    0.988169631609    0.092227884558
C     -0.167139239727    4.553200518619   -3.744674473738
C     -1.063954116215    4.195633417009   -4.753788863675
C     -2.402075959893    3.893796452403   -4.399508959760
C     -2.786205625289    3.978257272090   -3.051104950974
C     -1.888482127182    4.352966167024   -2.056044191286
H      0.869909144239    4.776934229494   -4.013118696197
H     -3.806241144910    3.715750290851   -2.763375208712
H     -2.229949513237    4.413136340335   -1.022434112330
C     -0.611281070151    4.127396023295   -6.191568222651
H     -0.748150167438    3.117428024647   -6.614146707071
H     -1.188870797244    4.814893757170   -6.832636986877
H      0.451824912978    4.390588267687   -6.290591194578
C     -3.403084883968    3.487187526486   -5.449699283320
H     -3.541727720648    4.279519185763   -6.205552789651
H     -3.072689081483    2.588683665109   -5.998647263122
H     -4.383293531536    3.269542237324   -5.003064497307
C      3.336645986301    7.231502265454    0.757261799363
H      2.851340775780    8.073688067296    1.276035536415
H      3.776836591130    6.586986082725    1.536308591372
C      4.373585052874    7.701014978412   -0.241807927412
H      3.918613743915    8.346806355561   -1.008791377977
H      5.157002502010    8.278210513683    0.273533110153
H      4.851705851599    6.847926360507   -0.747858624359
C     -3.447487369149   -0.496305772591   -1.753042086720
H     -3.684089662549   -1.450565188822   -1.256524478181
H     -4.106633230504   -0.357077730763   -2.618466997771
H     -2.402095585524   -0.547597715687   -2.099296732351
C     -2.692206556035    1.029753402530    2.785683772274
H     -3.473467905051    0.276396984435    2.994440179856
H     -1.733305583244    0.480417262859    2.738750216185
C     -2.631598563300    2.030526548812    3.954790267370
H     -1.803463543564    2.734383816932    3.759844051329
C     -2.311857576420    1.283045667819    5.256315505778
H     -1.376776584783    0.704359352697    5.174292072763
H     -2.198310957501    1.984218117359    6.098391070962
H     -3.118902942925    0.576616917248    5.518205148735
C     -3.914920145758    2.860230443732    4.089023498983
H     -3.868405654999    3.504582836738    4.981756868989
H     -4.058838313803    3.515610659338    3.218101770402
H     -4.802159799191    2.210824282850    4.193679511223
N      1.945939525674    1.211663407246   -0.008313210144
C      1.246252437979    0.047352432592   -0.070237316172
C      1.924480619699   -1.202995421681   -0.085328739598
C      3.296738007779   -1.244040938818   -0.006465163683
C      4.011160172018   -0.031374026297    0.088429006132
C      3.296949850921    1.152790746285    0.079813276423
H      1.315732596084   -2.105267911469   -0.149697721652
H      3.825739311665   -2.200052862551   -0.012113639590
H      3.817284445756    2.106513126061    0.139623196719
C      5.510937515741   -0.040491074776    0.190430169589
F      5.924451532753   -0.686757986960    1.296677791882
F      6.069161434895   -0.676667472066   -0.856981418790
F      6.023593871669    1.199708910429    0.231283430990
