65

C      2.312508210107    5.317658391391    2.602026362882
H     -0.200461726665    4.647493555416   -3.776917803842
C      1.097543026839    4.505135294428    2.225721672655
H      1.530839314341    3.388919519139    1.969410420520
H      0.477961609390    4.228907098319    3.091242727995
C      0.259479925833    4.935456305076    1.084758475406
H      0.586791639785    5.795075393600    0.490542359726
C     -1.222015644908    4.819267946367    1.248025098902
O     -1.764894668625    4.242245341919    2.167536176707
O     -1.871865794599    5.417810056824    0.239319963503
Pd     0.998029149583    3.199811103114    0.306145504933
C     -0.808356890907    2.713321822950   -1.917667704840
O     -1.242753809849    1.721373988819   -1.306957786495
O      0.207456850343    3.415530957163   -1.598473574130
C     -1.533081491988    3.131760206709   -3.201338115594
H     -2.613942801821    3.108372978440   -3.009342565854
N     -1.189144774589    4.452010594205   -3.670995227777
C     -2.030710438344    5.516989625839   -3.496277314407
O     -3.193232017380    5.393915214451   -3.139280822511
O      0.065115556811    0.081599367829    0.077233427435
H     -0.429189230388    0.861863397510   -0.392676204022
C      2.476394747889    5.743436220403    3.926915406269
C      3.568275599834    6.525054708077    4.329573803536
C      4.540863526044    6.891846744301    3.370884750037
C      4.376785000731    6.457200479643    2.047468553909
C      3.284161593925    5.680483864684    1.661109598051
H      1.726116883084    5.462947490373    4.672235426964
H      5.127439872738    6.732753020597    1.301238615767
H      3.188505544360    5.352878457200    0.621596877271
C      3.698946558918    6.964408659490    5.766917047709
H      4.635156092535    6.596826031742    6.220510315277
H      3.719927629949    8.064009408949    5.854848785487
H      2.862696486759    6.595257903495    6.377791135851
C      5.733129618867    7.729326573718    3.760676756307
H      5.426570893576    8.704987216918    4.174900116369
H      6.340092860762    7.236653111289    4.539398292095
H      6.387018095267    7.922169933973    2.897965877428
C     -3.317379860828    5.337920195379    0.224168619535
H     -3.582589687566    5.426005884838   -0.837703615198
H     -3.615053437925    4.347142356639    0.597115322436
C     -3.941892814136    6.444185146175    1.057388692640
H     -3.608200525955    7.435094739083    0.710847991100
H     -5.039031658221    6.403031125114    0.962986176955
H     -3.686033978636    6.333987613955    2.121934302865
C     -1.416253275139    6.879478880263   -3.768198855053
H     -0.514326912924    6.834853318054   -4.396633275951
H     -2.169829825204    7.519750381691   -4.246547457177
H     -1.151192612739    7.339116686326   -2.801949019551
H     -1.318904957445    2.364140432057   -3.965906611189
N      2.008177925338    1.308392421807   -0.059396107043
C      1.369860504140    0.139378631605    0.023101515468
C      2.098855881569   -1.109298792249    0.082033348460
C      3.521726216208   -1.074884937715    0.015681185842
C      4.152889540733    0.199094589253   -0.116439915980
C      3.377356279266    1.324899996951   -0.148389363550
C      1.423836403342   -2.348723413733    0.195016247413
C      2.145087545621   -3.527275153140    0.251861901008
C      3.557995339751   -3.499656892828    0.191680198048
C      4.235072808294   -2.299834354133    0.073956690382
H      0.333998093021   -2.347053390334    0.236308015952
H      1.624692018885   -4.483818220187    0.340916736335
H      4.118123882860   -4.437370081674    0.236346747917
H      5.326797872451   -2.280720475312    0.024178575046
H      5.239349417467    0.276164657799   -0.186659711469
H      3.827518314238    2.315936557444   -0.240370294560
