56

C     -0.635051885602    4.324752863784    0.653053175762
C     -2.081674921154    3.849532901891    0.790698507019
H     -2.371082249769    3.856175566085    1.851082563184
H     -2.757279846668    4.525497176431    0.241848977339
C     -2.108323829336    2.433309638323    0.226803588785
H     -2.448975570569    1.645126015773    0.909894533286
C     -2.697189178714    2.287432479644   -1.134873857147
O     -2.776979582560    3.178679183283   -1.960789385095
O     -3.129730128627    1.036234442947   -1.368376117778
Pd    -0.092297499459    2.125687472844    0.077396688807
O     -0.064392706587    0.035388119736    0.018359060742
C     -0.059011958031    4.430140437834   -0.639601540383
C      1.214863130184    5.020361222178   -0.841864840189
C      1.927299445377    5.505235534297    0.266012155723
C      1.367394907491    5.361049256712    1.556774307298
C      0.126334441350    4.779021165270    1.758049846939
H     -0.684774680162    4.214650577660   -1.510462453840
H      1.931473410939    5.729328377508    2.418253920883
H     -0.288371939469    4.701029614849    2.766289485680
C      1.768342847982    5.139929642745   -2.238401120967
H      2.004381968653    6.186338175995   -2.494738666788
H      2.706030070177    4.568189739337   -2.346019488769
H      1.057036456313    4.758894895377   -2.984362667450
C      3.262265609608    6.185111055511    0.091294172348
H      3.987808462173    5.535017876974   -0.425624366769
H      3.170088848309    7.097122489556   -0.522998538862
H      3.696428071770    6.474711448666    1.058880188413
C     -3.638325389618    0.755917218592   -2.680829301283
H     -4.481485930175    1.433964892537   -2.892601770949
H     -2.854373656692    0.978405701891   -3.423546486541
C     -4.056078883328   -0.699545087223   -2.719057476452
H     -4.838273301238   -0.904255321149   -1.971691354316
H     -4.454284908593   -0.951389137942   -3.714494953165
H     -3.199820371490   -1.358760471360   -2.509786738376
N      1.897669549078    1.074018989604    0.059422965806
C      1.222213141638   -0.070070543267    0.016524503486
C      1.892500774020   -1.362923402377   -0.034754721990
C      3.312263532468   -1.387330655695   -0.035303769888
C      4.034107154749   -0.118773425051    0.025800254333
C      3.272481288012    1.089007192836    0.077346057006
C      1.144509234788   -2.556368708870   -0.086007782225
C      1.791390798467   -3.781210999360   -0.139638028399
C      3.198858034213   -3.822086903670   -0.142541892833
C      3.943775293762   -2.652299263487   -0.091379451205
C      5.443556478858   -0.024380387390    0.042853419503
C      6.090028265152    1.201496991779    0.113125629588
C      5.332445201995    2.385661983802    0.172267916715
C      3.947745727434    2.328805750988    0.154197559611
H      0.055461547051   -2.484800014144   -0.082060213312
H      1.215969624209   -4.709231186449   -0.179448753610
H      3.713526872533   -4.785688225879   -0.185157863383
H      5.032561233268   -2.718488460735   -0.094522441218
H      6.043740183385   -0.935027866240    0.002588122549
H      7.181595227694    1.244229257823    0.126149568191
H      5.837060835468    3.353572181134    0.236310806740
H      3.340190963868    3.231879902790    0.207319589544
