69

C      3.723412703410    4.879104235173   -0.612263302913
H     -2.837403727949    5.990941929013    0.242955476181
C      2.782508495026    5.207646896773    0.527018023899
H      3.304303856468    5.849269240000    1.261186555417
H      1.931087718834    5.805934953572    0.167738162699
C      2.252135325815    3.981387145999    1.267247811410
H      3.050347878485    3.290743446759    1.573415000181
C      1.393414269513    4.330156602819    2.454500053367
O      0.892558449477    5.416902624638    2.653313989046
O      1.230951438716    3.278556077205    3.282466308754
Pd     0.935138442194    2.921042128220    0.111794440232
C     -1.485376375979    3.514973026767   -0.316414211553
O     -0.591040876315    4.348374997131    0.020435299952
O     -1.175652941473    2.336328002664   -0.663209731233
C     -2.956342965295    3.948501059837   -0.231908698342
H     -3.464957823971    3.103228024166    0.260756013548
N     -3.079898112263    5.093525686482    0.650225357940
C     -2.807438605902    4.938966880684    1.991714107947
O     -2.750144966803    3.834830961895    2.511639067700
O      0.044295157009    0.011550491869    0.244481075621
H     -0.384979716366    0.873013722443    0.018982862784
C      5.100886482488    4.727003087006   -0.388332366996
C      5.999809944128    4.393504440829   -1.412043447837
C      5.505946406504    4.201207168277   -2.723653616806
C      4.131167541239    4.357143733446   -2.949399993251
C      3.250408780452    4.690949859851   -1.917635822364
H      5.492582048859    4.884659068197    0.622232416198
H      3.740744509295    4.219019597570   -3.962043739027
H      2.184162008637    4.810200802924   -2.128896611896
C      7.473968476477    4.257459521442   -1.116994495594
H      7.854270659157    3.255197525621   -1.379272306912
H      8.073146882684    4.978171344002   -1.699675606012
H      7.688102477163    4.429770944575   -0.052121144424
C      6.436694006004    3.849841769455   -3.858295191271
H      7.205676318021    4.626631309108   -4.011205158634
H      6.979637410327    2.908085378141   -3.667402651561
H      5.887766916353    3.733144219259   -4.804066400112
C      0.320246776609    3.444764144829    4.387148753201
H      0.593527260317    4.358623857936    4.938710738325
H     -0.697064306939    3.582859288773    3.985805457399
C      0.414433715390    2.209472620252    5.258874826722
H      1.436574208038    2.071473115948    5.645543251830
H     -0.269924408488    2.304767676636    6.116462438691
H      0.131932163816    1.306469734664    4.695951705989
C     -2.546738489543    6.216104759618    2.759673545827
H     -2.972437377234    6.122424055794    3.767992054034
H     -1.452445984011    6.319485739707    2.856736577016
H     -2.952396728102    7.111536343794    2.265939770176
C     -3.607195204100    4.193509061456   -1.594536378494
C     -4.650248643504    5.124915670518   -1.719265176989
C     -5.279967634574    5.332878950914   -2.949934003489
C     -4.880009935206    4.610929523629   -4.076802535576
C     -3.848398966690    3.675174744073   -3.959817068222
C     -3.217598960494    3.465176657808   -2.730882397276
H     -4.979387761040    5.684697050790   -0.841937323815
H     -6.090267509754    6.062965260318   -3.024369641749
H     -5.370762095241    4.774105232830   -5.039681641744
H     -3.529016746065    3.099847878997   -4.832745770358
H     -2.421785422282    2.723236333026   -2.648524146651
N      2.054471087776    1.184687634545    0.094476133391
C      1.365851449848    0.023306560318    0.179493925658
C      2.036052958313   -1.217667308867    0.209398648857
C      3.416398085168   -1.245196116990    0.113295716994
C      4.121262794247   -0.038266032855   -0.020302768917
C      3.403020120538    1.145302732920   -0.024168641082
H      1.433042330278   -2.121929908674    0.296956397880
H      3.947133930199   -2.200338663988    0.130718955750
H      5.207093207564   -0.013972978605   -0.118586071502
H      3.902047746498    2.109723326484   -0.128211343137
