75

C      2.306336777514    5.402361698281    2.591796002954
H     -0.251794260288    4.764383614055   -3.502853486600
C      1.090167027161    4.576183623996    2.252850279791
H      1.521786711128    3.454124290562    2.016533390988
H      0.484046017662    4.315772812510    3.132696777235
C      0.233587362545    4.973900412893    1.113690667416
H      0.541083400596    5.828591205984    0.502006393934
C     -1.244232204810    4.832064338883    1.300196310109
O     -1.759232840281    4.261672876319    2.239192040383
O     -1.925511130655    5.398066850665    0.292812928222
Pd     0.985931703653    3.235551141356    0.358664869829
C     -0.825305426352    2.744963594877   -1.849430316586
O     -1.309499814730    1.821077252108   -1.170730803397
O      0.219846067798    3.414850402975   -1.562268846312
C     -1.523075669951    3.132946636070   -3.172506552625
H     -2.604692849149    3.087211250787   -2.973781767128
N     -1.233554414328    4.508767987165   -3.516353229616
C     -2.150727035087    5.507675773569   -3.317812249585
O     -3.325999085375    5.289425092689   -3.065412521964
O      0.015145370164    0.120861571974    0.153308397129
H     -0.472108073549    0.922958630828   -0.271280142328
C      2.463162958179    5.897881340470    3.893239520317
C      3.555460837727    6.696306883851    4.259714356714
C      4.535698208450    7.006586989572    3.288685453729
C      4.378662153255    6.501560278038    1.989740951452
C      3.284972796430    5.709799112683    1.638754925021
H      1.707670653874    5.660027525174    4.648100064107
H      5.136520865700    6.729985154218    1.235199405071
H      3.196889310566    5.324990730913    0.618287051261
C      3.679624037496    7.211664779953    5.672158127468
H      4.611481424427    6.864896375997    6.150388933195
H      3.705263071346    8.314282191190    5.701035477102
H      2.838112894604    6.879506551691    6.296939973174
C      5.730238600449    7.857361035816    3.640619925266
H      5.426764885080    8.855487481049    3.999999061268
H      6.329423140830    7.403486699279    4.448369088964
H      6.390486896871    7.999539145458    2.773037660484
C     -3.370782104729    5.287377062488    0.314305441665
H     -3.664871623073    5.362970039577   -0.740744907109
H     -3.636179146205    4.291875321922    0.698194298759
C     -3.999170318820    6.384109910974    1.156780940411
H     -3.697904447398    7.380695878123    0.797026540809
H     -5.096934092530    6.316596683308    1.089320003164
H     -3.715234276734    6.285931945846    2.215224619795
C     -1.596793345519    6.918576844041   -3.409820822519
H     -0.673109836207    6.985406357813   -4.003665980026
H     -2.364513385959    7.575435947401   -3.840029377028
H     -1.383905817921    7.270785690519   -2.386962261110
C     -1.182434898919    2.135341076414   -4.285842567377
C     -0.735496755983    2.571192399002   -5.540443582974
C     -0.448969192127    1.652904093243   -6.556268811366
C     -0.608063583456    0.283811017331   -6.333526400759
C     -1.059489514331   -0.159793706382   -5.086045576305
C     -1.345703745319    0.755504360743   -4.071194483032
H     -0.623664967145    3.640263299637   -5.728320448777
H     -0.102776041017    2.014381263515   -7.528342407175
H     -0.385932619583   -0.434091635494   -7.127337016941
H     -1.194554410934   -1.228846435106   -4.900928718456
H     -1.695196824244    0.404597516354   -3.098523486429
N      1.983479722547    1.330198156576   -0.000617878895
C      1.318048460359    0.150713908614    0.078456452198
C      2.029706632839   -1.076287790242    0.107446668755
C      3.405003282786   -1.073219758200    0.007354338415
C      4.085988046465    0.156755253812   -0.122959587998
C      3.323236732061    1.320600103015   -0.116155333249
H      1.450874540990   -1.996653131541    0.190383399154
H      3.970178353171   -2.006419102691    0.016159122039
H      3.824988094084    2.287598916792   -0.196573013070
C      5.561122643571    0.282374928685   -0.254691374817
O      6.154143350986    1.331707172335   -0.362015144060
O      6.175187422624   -0.916257804425   -0.241002744846
C      7.597160105924   -0.898561047389   -0.365058631700
H      8.054660668526   -0.334275324873    0.461636462161
H      7.919704499844   -1.946499624436   -0.335767390628
H      7.900737023363   -0.431348545058   -1.314069317917
