41

H     -2.528823773906    5.508069048824    0.903040861342
H      2.404352214163    3.602486353367   -0.716087958570
Pd     1.091672367001    3.069175670369   -0.159473164028
C     -1.596807612145    2.749492645077    1.463862358123
O     -2.566853384936    2.180645291918    1.926363481309
O     -0.814982402784    2.292864123948    0.532249276971
C     -1.213837130031    4.192265416016    1.921442035072
H     -0.115878308176    4.243057056752    2.007722878025
N     -1.593361603525    5.119697583030    0.847640869218
C     -0.872081443678    5.428973154228   -0.239339545546
O      0.247335607193    4.952548701896   -0.510471594966
O      0.017932336622    0.041158669754   -0.145347130596
H     -0.446410717486    0.918740541785    0.114376932163
C     -1.459809501332    6.450091718861   -1.185882177023
H     -2.398895831532    6.891925730090   -0.824558108672
H     -0.718574481327    7.247295588827   -1.343860105928
H     -1.633448696540    5.969124472813   -2.160780260938
C     -1.852083739539    4.610276289771    3.258591286975
H     -2.941263872055    4.455586436684    3.151270516339
C     -1.368103154215    3.693517956670    4.390181170590
H     -1.841145894286    3.979022299961    5.342987164002
H     -1.621075134321    2.644717233316    4.186821918153
H     -0.275544491805    3.775810180639    4.525096423318
C     -1.575526214946    6.080750189853    3.602451326387
H     -0.492819133276    6.265234735823    3.709506800563
H     -1.954299621696    6.779385694831    2.840146459788
H     -2.053151901587    6.347547608601    4.558294090566
N      2.016660309565    1.227787030150    0.041865618689
C      1.317412086928    0.076515831988   -0.036316491044
C      2.001706616211   -1.190660984770   -0.017363760741
C      3.378121060274   -1.216361992119    0.125514256449
C      4.075724616819    0.002690566159    0.241912784139
C      3.374852002564    1.184875312408    0.193020774444
H      3.920447973510   -2.161637343443    0.156092645558
H      5.159853919336    0.018205937598    0.361979346807
H      3.875371919279    2.147658885618    0.265402949620
O      1.195874921455   -2.264328104186   -0.131852105934
C      1.771822048884   -3.550401791224   -0.114570716500
H      2.298305772136   -3.750864827436    0.836584753114
H      0.944499389860   -4.264024381549   -0.221670709405
H      2.480804681816   -3.693545230757   -0.950554066429
