47

C     -0.666780345060    4.266093724927    0.644333748713
C     -2.142661525059    3.878322440221    0.749579344302
H     -2.458852264195    3.906865991752    1.801881071097
H     -2.767591804969    4.582028399425    0.177310734261
C     -2.220406232665    2.459915341006    0.188957098700
H     -2.591943332003    1.685681595736    0.871919152590
C     -2.800521730297    2.334469151397   -1.178125236517
O     -2.839282751325    3.228005157460   -2.004363610076
O     -3.271400277392    1.098261698664   -1.415541250251
Pd    -0.208772983000    2.103036694424    0.038637611683
O     -0.083363880115   -0.005793478609   -0.018431642750
C     -0.068006136734    4.372598541502   -0.640060669318
C      1.265646984723    4.830104201507   -0.806002290510
C      2.018638124610    5.167001965904    0.328915217230
C      1.424820145969    5.043182731324    1.607759228692
C      0.122850082410    4.600766088155    1.774231878190
H     -0.702120531584    4.251330813506   -1.523236829424
H      2.015628302592    5.309196996622    2.488709387086
H     -0.311647156613    4.529227538152    2.774526261048
C      1.842892277864    4.957009760767   -2.192449141740
H      2.182706437780    5.986094330732   -2.397745348935
H      2.722473665957    4.304015655373   -2.324217424504
H      1.105298816701    4.683529417294   -2.959779987694
C      3.436079509362    5.665764511169    0.198561117407
H      4.083849915232    4.929115891071   -0.306660425798
H      3.485683297429    6.587503057917   -0.405560294421
H      3.878681273752    5.883409860433    1.180930568813
C     -3.777784515065    0.832949386476   -2.732593635653
H     -4.589754793655    1.544487634869   -2.955556975634
H     -2.977267391077    1.019692821899   -3.467509260885
C     -4.254644591530   -0.604194944260   -2.769130818173
H     -5.053239442864   -0.772715454646   -2.030159987027
H     -4.651574125012   -0.843946835766   -3.768032110066
H     -3.429117830016   -1.297531096332   -2.547010061525
N      1.794822920214    1.192617739638    0.009991181412
C      1.203063190571   -0.038126134758   -0.018417841201
C      2.007108182150   -1.212705864959   -0.047186174402
C      3.380077608585   -1.070524892995   -0.041248264418
C      3.967534280837    0.216027395320   -0.005748436654
C      3.121458255777    1.320984653106    0.020003444964
H      1.521456599894   -2.188859431642   -0.073982000786
H      4.020604015998   -1.956210755776   -0.066393507090
H      3.521906003358    2.337119227612    0.048548156500
C      5.457023855890    0.369463032635    0.019805972660
F      5.999367456017   -0.118114932435    1.155406465563
F      6.048160286115   -0.295979742752   -0.993719812418
F      5.834661113895    1.659526162163   -0.074628938427
