74

C     -1.554112279652    3.816799636570    2.025837094969
H      0.065284790983    4.629188792181   -3.425549747242
C     -0.240057362976    4.399125096022    1.696356949108
H      0.398417794038    4.494530100542    2.579987500305
H      1.604897020258    2.922630666684    1.646787221555
C      0.252707140965    5.087160718116    0.579923669842
H      1.211388864033    5.597329278932    0.715975226121
C     -0.464453773301    5.668440984222   -0.599773683458
O      0.119243056608    6.299703982574   -1.454021938022
O     -1.788872028397    5.495444703339   -0.575946826518
Pd     0.956427343869    3.038534722238    0.269670214563
C     -0.597903987287    2.485125668460   -2.326665320001
O      0.284275830748    3.212517478429   -1.773583397328
O     -1.215357182801    1.545359548255   -1.775494097018
C     -0.885107212131    2.782069301968   -3.802937747648
H     -1.959430398949    2.630068941079   -3.981887741097
N     -0.566086422641    4.174177950923   -4.079630052068
C     -1.045696371693    4.840965461835   -5.168216673007
O     -1.798191801833    4.323700303214   -5.981588182304
O     -0.241064125550    0.161626151131    0.099030180405
H     -0.634442376107    0.835250487743   -0.582179640004
C     -2.392400095811    3.156807103034    1.107846082771
C     -3.612599721815    2.595126972795    1.489867333334
C     -4.038268210330    2.710183801375    2.836765613010
C     -3.200578097160    3.359154924199    3.754728799386
C     -1.969526775489    3.885258953700    3.368147800116
H     -2.074698780211    3.045622260519    0.073336888611
H     -3.514120464237    3.439565798539    4.799241030629
H     -1.327806871917    4.363830160377    4.113060636900
C     -4.453247325420    1.867817310482    0.469190158578
H     -4.689183584069    0.841783978176    0.797242151509
H     -5.420025679474    2.374332149953    0.303108496206
H     -3.930319795396    1.797149870306   -0.494899025667
C     -5.354989035017    2.127835125267    3.280767453077
H     -6.197942563041    2.550279204716    2.707983957280
H     -5.387553914140    1.036381765210    3.121706317033
H     -5.540914038063    2.318903949215    4.347470840881
C     -2.555968061492    6.107155864569   -1.633895629229
H     -2.281590469201    7.172197672170   -1.695264776274
H     -2.268736934709    5.636008700977   -2.585715275712
C     -4.025555473020    5.914780653055   -1.324874754962
H     -4.293607344363    6.382484088467   -0.365032582000
H     -4.633162436157    6.377103783818   -2.118247678121
H     -4.284969258840    4.846585492209   -1.273241045226
C     -0.562653095793    6.278646269964   -5.302465312378
H      0.234926024560    6.318540220341   -6.062345679661
H     -1.394927642357    6.894737741702   -5.671037132686
H     -0.175662440472    6.693313893251   -4.360027336114
C     -0.092921934242    1.826015877232   -4.731715987796
H     -0.320692803786    2.150938503356   -5.760598121999
H      0.982969372333    2.012707812403   -4.566694102446
C     -0.377617768420    0.317619801386   -4.609351853567
H     -0.107857283718   -0.005317239080   -3.588429598065
C      0.512089320673   -0.453231377438   -5.594514372479
H      1.580901092677   -0.236041908314   -5.431951606540
H      0.371091723724   -1.541638557160   -5.492187847998
H      0.273834508770   -0.182928365497   -6.637781090918
C     -1.858565396703   -0.023828764153   -4.821184883716
H     -2.011720466259   -1.115611194853   -4.820230321524
H     -2.485000548274    0.395186521462   -4.020241999872
H     -2.223476371823    0.365564074288   -5.787291679904
N      1.848564937921    1.141655012059   -0.075954131895
C      1.064334914677    0.040495432410    0.021318191669
C      1.642357437930   -1.247813534293    0.068509607067
C      3.014337960293   -1.376080363931   -0.044340314420
C      3.804633827999   -0.229419606806   -0.211843318596
C      3.196270264630    1.022362001764   -0.219167452828
H      0.973548807076   -2.102882229739    0.168669855057
H      3.478417473197   -2.365521436536   -0.022370542941
H      4.886457357937   -0.303392769733   -0.328782768432
C      3.998687277886    2.283497426415   -0.374635261109
H      3.605719160373    2.896728997220   -1.201036623630
H      3.940419966627    2.895769318613    0.540232843114
H      5.054842517863    2.056936722329   -0.575187340808
