65

C     -0.197463588826    3.995202538366    3.393181693824
H     -1.494789290871    5.534657539467   -3.414936766454
C      0.928017983647    4.374796541607    2.464611073909
H      1.793768948630    4.805421048638    2.989930875155
H      1.490806588028    3.322599372427    2.151933149783
C      0.621974678522    5.080855224391    1.204098309806
H     -0.412443945127    5.350479588616    0.973110715927
C      1.675666700434    6.001241285162    0.699932994790
O      2.830878993381    6.002552903192    1.081245737029
O      1.229851857855    6.835595570963   -0.261323994103
Pd     1.124298914723    3.245375697116    0.434998815054
C     -0.863349755609    2.949014828313   -1.621318199452
O     -1.240282824997    1.898924412309   -1.072277315770
O      0.236225952125    3.562883646505   -1.430384148359
C     -1.812894310258    3.565221844306   -2.662932326768
H     -2.806181317197    3.131882058323   -2.474460723783
N     -1.863778096737    5.010702516854   -2.632696844590
C     -2.183084083877    5.670761087236   -1.483413379746
O     -2.486491983636    5.072234107586   -0.459060012540
O      0.006368919268    0.164358657840    0.223708488101
H     -0.438965439375    0.981539240467   -0.235640423401
C     -1.475562837486    3.671968173044    2.910232599881
C     -2.525807594101    3.333445193662    3.770821816948
C     -2.294056649440    3.305200890425    5.168000123372
C     -1.015812318679    3.624099229651    5.643851704465
C      0.023112365370    3.965349780273    4.774736826034
H     -1.671692320884    3.684831140131    1.834708230482
H     -0.828622610117    3.607284556875    6.721413482583
H      1.009198388103    4.213645577677    5.177695103737
C     -3.884295982987    3.004129031766    3.203067797750
H     -4.181512272351    1.967795056971    3.439310378047
H     -4.667573746207    3.658489817647    3.622005313723
H     -3.895998923954    3.120404844751    2.110289812413
C     -3.399740366471    2.938072880803    6.125551298316
H     -4.254312078785    3.631550006732    6.044689595850
H     -3.797092976054    1.929626728170    5.919299170623
H     -3.050410862066    2.955390866334    7.168202230176
C      2.221630188619    7.687423241089   -0.861315941629
H      2.689702726293    8.300108528684   -0.074023987598
H      3.016922119153    7.056037320890   -1.289471539702
C      1.554296949465    8.541776432843   -1.918475169330
H      0.777693171688    9.187726105895   -1.480472823868
H      2.304077480630    9.188615694235   -2.400336854328
H      1.089078101913    7.917457195963   -2.696703353942
C     -2.114368009707    7.184776737103   -1.539732902070
H     -2.959769103008    7.596633642403   -0.971567601337
H     -1.184179654301    7.500592628507   -1.043020972485
H     -2.127734574760    7.587961335713   -2.563467794044
H     -1.485895884827    3.247025153589   -3.664741021829
N      2.021344285607    1.276006743827    0.091362081793
C      1.311510306461    0.150405159469    0.179590620365
C      1.949442903932   -1.135291164268    0.253444268066
C      3.309289252971   -1.220791399284    0.185771302367
C      4.092068065406   -0.035919702854    0.042837380238
C      3.398465122817    1.213214987905    0.001258060169
C      5.506299847705   -0.056324760877   -0.045451316744
C      6.224974801946    1.117719689654   -0.167610676733
C      5.540408238271    2.352807578838   -0.203428664382
C      4.159927532893    2.403396166008   -0.121777288780
H      1.303846920944   -2.009116514623    0.346882986581
H      3.811090214995   -2.191438252141    0.231591363607
H      6.018655633319   -1.021863144106   -0.012562018796
H      7.315109357291    1.094173022641   -0.234299013373
H      6.104988598577    3.283850422948   -0.296506510657
H      3.640187514443    3.364576059214   -0.148919484589
