62

C      1.550027760448    4.006699886365    2.445600386601
H     -2.206282554663    1.651707507512   -3.313010323620
C      0.756610212403    5.238502746394    2.011089392860
H      0.052782540817    5.535840328594    2.805478463531
H      1.447698422600    6.074208122534    1.831358786881
C      0.032134293063    4.845556566951    0.724677540423
H      0.229801278960    5.470719599039   -0.153586497830
C     -1.415220222855    4.523614821978    0.883764049675
O     -1.937537397851    4.183495453908    1.930150167617
O     -2.103988668813    4.625099776901   -0.268736028961
Pd     0.994362707785    3.068313680971    0.360620805016
C     -0.297324054558    2.617508176828   -2.191930354591
O     -0.958190934063    1.726678766689   -1.616266952121
O      0.648898612039    3.289736272384   -1.672587591406
C     -0.607095622161    2.950602132114   -3.660514483159
H      0.248927049568    2.575343738879   -4.253305591030
N     -1.801041770855    2.219546444108   -4.052272611272
C     -2.112191931300    1.978393097662   -5.359075762638
O     -1.481834588772    2.457823286815   -6.289122013239
O      0.093508034247   -0.016021239369   -0.041229694424
H     -0.314539108353    0.773859493249   -0.536726259806
C      0.860849108725    2.805141125848    2.757682638593
C      1.533659062609    1.677615708819    3.296610779994
C      2.919120722821    1.742781641214    3.506776300090
C      3.605092003681    2.932483236365    3.170579228849
C      2.951430038029    4.036728102958    2.645663453707
H     -0.232740142606    2.811875980579    2.746046558662
H      4.684622540894    2.981649686329    3.340601007555
H      3.508058379641    4.949193916380    2.416430841305
C      0.747153447686    0.443028636835    3.654230175644
H      1.120453953276   -0.443135528070    3.114544963154
H      0.827180064175    0.213115642602    4.730519162425
H     -0.316901391806    0.559958501278    3.407961011618
C      3.670886641191    0.571204760583    4.086153407837
H      3.271096078070    0.280269428362    5.072073794522
H      3.589010296424   -0.317983349501    3.438494565082
H      4.739149893668    0.799780098401    4.210381732700
C     -3.482441015132    4.214787335328   -0.226441318089
H     -3.522990555990    3.152033299096    0.062716382966
H     -3.999176812992    4.785204815460    0.561854060011
C     -4.098016886914    4.448219836357   -1.590202518840
H     -3.596459821532    3.846392316132   -2.362683018355
H     -5.162277558748    4.164984107565   -1.569554359784
H     -4.031321559196    5.508811158740   -1.878712740694
C     -3.322976351829    1.083859663078   -5.586825315616
H     -3.026845506008    0.249436756531   -6.240171319049
H     -3.762835035511    0.685397222784   -4.660950916195
H     -4.088740890830    1.660807316338   -6.127949686199
C     -0.711536923350    4.460822752866   -3.906537836198
H     -0.940855149596    4.635401868161   -4.966476649753
H     -1.498703708299    4.908219333437   -3.281954395184
H      0.243155038536    4.946288574205   -3.660957633432
N      2.074806931230    1.179274828197    0.024505332767
C      1.411215551320    0.005216832551   -0.021106761291
C      2.113829892949   -1.222588187321   -0.018133853823
C      3.498993234007   -1.212027310731   -0.020146776094
C      4.180051071602    0.016508014401   -0.026103351352
C      3.423058048279    1.178210519531    0.000065666074
H      1.533852721799   -2.145988098294   -0.041348458589
H      4.053891698644   -2.153857552294   -0.033498755815
H      5.269331225784    0.069853197941   -0.047369888981
H      3.899317721892    2.161714428233    0.012367146792
