65

C     -1.571265351366    3.780982603828    2.005205386953
H     -0.041503288718    4.659434495332   -3.283989473002
C     -0.262834430061    4.406182547996    1.742550389032
H      0.345182562280    4.482059571391    2.649392204654
H      1.750954543045    3.074198361804    1.659588969893
C      0.254361516258    5.133033378705    0.662447153545
H      1.200686012233    5.652932561794    0.841303552857
C     -0.431768172205    5.722686467819   -0.533064920318
O      0.181273968304    6.297467314252   -1.405724344904
O     -1.764058037407    5.627936318837   -0.498208681423
Pd     0.991895496388    3.098205620354    0.339817193082
C     -0.614405608872    2.430094309546   -2.272892475757
O      0.131240587555    3.232125037180   -1.639759620145
O     -1.062575802570    1.341326543500   -1.842253965341
C     -0.995707855675    2.829833256312   -3.694285795497
H     -2.082227787878    2.689993576310   -3.820861598549
N     -0.593648757782    4.183397457993   -3.993541616969
C     -0.777421054732    4.733287727024   -5.229456358986
O     -1.348981881141    4.138370774180   -6.129486450588
O     -0.024987942246    0.084185119910   -0.000530013648
H     -0.477684956588    0.734960085514   -0.720252637137
C     -2.373765226677    3.161008885623    1.028468947297
C     -3.584735658203    2.542703967569    1.345743053376
C     -4.042488324163    2.563152416186    2.687230897125
C     -3.242930080497    3.175308958547    3.662677902682
C     -2.017667923359    3.754346685577    3.339042777814
H     -2.030993159927    3.134187458631   -0.003059860917
H     -3.581623803585    3.182821611954    4.702322382979
H     -1.404517058982    4.200006034260    4.127035177999
C     -4.381476394851    1.854514277194    0.264619582743
H     -4.626998041183    0.816463446304    0.542772988201
H     -5.342289757996    2.365609177600    0.078433920959
H     -3.819517469124    1.818977734620   -0.679143441453
C     -5.352171732136    1.921048699575    3.064267983881
H     -6.192697345280    2.350631379376    2.493390387858
H     -5.348686813310    0.839390085801    2.845906512030
H     -5.569496224532    2.048043719098    4.134501683401
C     -2.497264600082    6.242881750291   -1.578523129057
H     -2.169415109751    7.290170997985   -1.673399082099
H     -2.231777031048    5.728526481763   -2.514966455753
C     -3.974933084768    6.135082718531   -1.267004052701
H     -4.219243309544    6.645823535340   -0.322916755150
H     -4.558523828954    6.602721171982   -2.075158830302
H     -4.288529816493    5.083647209037   -1.181321241840
C     -0.216178889043    6.137557742918   -5.399245270417
H      0.653215253827    6.093743412829   -6.074638833272
H     -0.975958635938    6.761854400953   -5.891634104180
H      0.089663399531    6.602074927520   -4.450534189712
H     -0.529205318633    2.102427903895   -4.384563878824
N      1.971216166195    1.251351543982   -0.011498116935
C      1.274407696466    0.080166359435    0.001825381650
C      1.974840294121   -1.154111238065    0.046183616452
C      3.353270711433   -1.171328891410    0.020260511666
C      4.058179972257    0.050111533360   -0.047660470320
C      3.317172767395    1.226537401293   -0.050947056616
H      1.379091690531   -2.066887791565    0.076352807345
H      3.903936934888   -2.113080739712    0.039549244400
H      3.836335570056    2.186289109988   -0.070791473515
C      5.541090461555    0.154953448828   -0.094132791192
O      6.153927332517    1.196847965862   -0.139275988971
O      6.134195358456   -1.053725771045   -0.079568285831
C      7.561426630140   -1.056884532921   -0.123940816714
H      7.980212955640   -0.523319466748    0.742647888901
H      7.865353207693   -2.110611109755   -0.106582571561
H      7.924465164922   -0.568845487687   -1.040988293550
