65

C      1.209729595780    4.075417313258   -3.365058724688
H     -3.124142904214    2.070921792309    1.598933362512
C      1.748004735828    4.887084086430   -2.205106174343
H      2.515187022733    5.592307000423   -2.578430930594
H      0.957030350788    5.513344334048   -1.767840422992
C      2.396600614964    4.050875932940   -1.102322489127
H      3.127150572516    3.336621510822   -1.505554147254
C      3.000421017071    4.880558872893   -0.008263651957
O      2.660953952045    5.999671288134    0.297357944721
O      4.006642096643    4.222987946907    0.631555876534
Pd     0.954049796263    2.960736099401   -0.144505993523
C     -1.443676164263    3.542457618502    0.468982990669
O     -1.089910749823    2.338583028003    0.693911180021
O     -0.622408094315    4.366671757539   -0.026586186566
C     -2.843188870841    4.014713928288    0.826346540034
H     -3.304812074772    4.396917734565   -0.100857414968
N     -3.633471831207    2.891316242871    1.290150204861
C     -4.992940567195    2.870081142539    1.162711052385
O     -5.619579283116    3.811268642576    0.702502521192
O      0.030468692919    0.061736091264   -0.282173200188
H     -0.380045437802    0.929845224065   -0.034982455749
C      2.075861447451    3.538452289591   -4.330165581847
C      1.618256534649    2.769878819866   -5.408551951346
C      0.230412077837    2.524877620452   -5.537464349016
C     -0.635486149910    3.066422190965   -4.578498953338
C     -0.161401582250    3.829398409819   -3.507734256407
H      3.150577206055    3.733453421895   -4.246651102250
H     -1.711042667616    2.890241597182   -4.674704203119
H     -0.860847007808    4.244001210259   -2.777697774489
C      2.593137540370    2.221663568734   -6.422069679921
H      2.547125849245    1.120469266819   -6.478904889141
H      2.377559891483    2.594450397054   -7.438165681478
H      3.627996063620    2.501277732323   -6.176162504772
C     -0.308056302027    1.707881828113   -6.686141814471
H     -0.057932204202    2.159239684755   -7.661765308830
H      0.114653217060    0.688382749502   -6.697283614189
H     -1.402589737236    1.615286047844   -6.632202910856
C      4.629063959649    4.908944218561    1.732828721282
H      4.932058604089    5.913424071911    1.398130344410
H      3.881709096258    5.049767730573    2.531539359476
C      5.811581389965    4.086862947489    2.202205898914
H      6.546603976567    3.953792934099    1.393604411609
H      6.309971607990    4.596841512006    3.041346211228
H      5.498454471556    3.088750585160    2.544517085913
C     -5.677912867505    1.601556232258    1.646954726622
H     -6.337811062092    1.857274326691    2.490333045032
H     -6.320012391122    1.219471115252    0.839543595298
H     -4.981078484454    0.811757444006    1.963699758859
C     -2.791509128393    5.180017584520    1.829827032116
H     -2.348404415136    4.854529003353    2.784262972488
H     -2.191371367798    6.006825894951    1.424009523013
H     -3.814867512697    5.535448203433    2.013715031677
N      2.055795599814    1.197386270520   -0.108067009623
C      1.346908944240    0.048646604226   -0.214937876773
C      1.994866385806   -1.205699961594   -0.262334592148
C      3.369144240345   -1.263428492539   -0.155810646975
C      4.093549920772   -0.067341281673    0.003392158148
C      3.399670875681    1.132595183696    0.018814865327
H      1.376429706113   -2.097493147361   -0.365570501782
H      3.886487167982   -2.225083066239   -0.175484647354
H      3.916306758600    2.084369243655    0.151389944660
C      5.595106220568   -0.091402454364    0.112385386251
F      6.008393376653   -1.102277626058    0.897447312851
F      6.177244815776   -0.267881721100   -1.087700761974
F      6.079414030556    1.051317119436    0.626252031061
