36

Pd     1.275799901610    2.928764873835   -0.614307453483
C      0.541852754237    5.641292187007   -0.619053772943
O      0.915892314725    4.675775618274   -1.432645933443
O      0.383273361392    6.788632421880   -0.965144533347
C      0.323458499407    5.180480016058    0.847977937296
H     -0.629199323225    5.640033214847    1.154708611595
N      0.195350931170    3.721777608159    0.850345915417
C     -0.772170666641    3.048343486787    1.485400426342
O     -1.028366470705    1.843015697816    1.293634669829
O     -0.120146967627    0.028777306484   -0.133810657955
H     -0.497271901416    0.873374261922    0.348055569545
C     -1.607939147617    3.792118354206    2.518302541808
H     -2.108633689014    3.039682711470    3.139788457418
H     -1.007387007871    4.461498765499    3.149651298642
H     -2.381791618708    4.394188073149    2.014492975703
C      1.423780556940    5.713907861403    1.770380618099
C      1.683766011823    7.094826132192    1.808462831100
C      2.667858063812    7.605449733588    2.656470965773
C      3.406483509222    6.749555301784    3.481304673533
C      3.151786652798    5.377323110616    3.449794575996
C      2.165730366960    4.862144899671    2.599918597293
H      1.120011901639    7.760489745064    1.151991004272
H      2.859682537575    8.681529920575    2.672621388003
H      4.175336966546    7.152499884144    4.145553117903
H      3.720022595505    4.698733198426    4.091747165508
H      1.967215736227    3.788980906969    2.583809851401
N      1.923448219696    1.075745347866    0.074824738380
C      1.171700764003   -0.054397254040    0.007789893502
C      1.798393102524   -1.323918005055    0.073336497114
C      3.164718732100   -1.406091765005    0.262847139303
C      3.921873946034   -0.226619507850    0.395706817324
C      3.260206776355    0.982439523447    0.296544556529
H      1.162189625301   -2.205789588666   -0.008924303807
H      3.650246415845   -2.383305567056    0.326133452820
H      4.998261662252   -0.249569686081    0.568819802514
H      3.796115265541    1.931587433462    0.384607637257
