68

C      1.244400268192    3.997184085742   -3.347112295710
H     -3.101276167806    2.101971548262    1.636613375063
C      1.774725105952    4.841171683273   -2.207031008174
H      2.541673669895    5.538102051422   -2.596359652403
H      0.979108774289    5.476908507700   -1.792491074194
C      2.417602812234    4.038765214721   -1.075300914386
H      3.161215287312    3.321948823011   -1.447952891892
C      2.994868907594    4.906125147560    0.002489034279
O      2.642014583000    6.032190189249    0.266943656323
O      3.994130389724    4.280253041571    0.685162541472
Pd     0.972590328102    2.961701656247   -0.105712909460
C     -1.424553422011    3.560554068588    0.503865749131
O     -1.079338104140    2.355957483106    0.735960634323
O     -0.600485393307    4.378067024109    0.003226491187
C     -2.822514623373    4.042165851616    0.859060296920
H     -3.285096889567    4.414525216736   -0.071783900911
N     -3.612936903963    2.925561923732    1.339828704582
C     -4.973749908984    2.910788827615    1.236454236534
O     -5.605504190575    3.853970441561    0.786756654361
O      0.042882057882    0.074694334874   -0.253318497874
H     -0.364344339588    0.941623005268   -0.000856074384
C      2.115686640079    3.434729955118   -4.292706314338
C      1.664305740422    2.636623881170   -5.352054095134
C      0.277452302070    2.387369901426   -5.481956818706
C     -0.593878084877    2.954442487491   -4.542858650004
C     -0.125795100714    3.746355259505   -3.490740535506
H      3.189905269751    3.631785795311   -4.207875983720
H     -1.668817874674    2.774680903664   -4.639767686419
H     -0.829207881942    4.179513167132   -2.775343479427
C      2.645117693718    2.060122495548   -6.344022217437
H      2.601435553329    0.957572670801   -6.367645459121
H      2.434346373649    2.401687643657   -7.372084712790
H      3.678214654876    2.348983866187   -6.101177081973
C     -0.254264781348    1.538065990284   -6.610252575378
H      0.001077734568    1.961557553424   -7.597026404065
H      0.168526630139    0.518697006197   -6.590022407320
H     -1.349108694044    1.446639966554   -6.559777683290
C      4.570441816853    5.005406197660    1.783358330874
H      4.921560520966    5.984489345988    1.420154737641
H      3.785591044604    5.205636003966    2.531530314592
C      5.700957883888    4.177669865119    2.359696221369
H      6.477491242095    3.987662655867    1.602193483694
H      6.167093618291    4.713415253178    3.201322622059
H      5.335506785773    3.207912644664    2.732454710617
C     -5.655840359131    1.645255842121    1.733622241807
H     -6.305092623966    1.905638126953    2.583790729887
H     -6.308419882562    1.261579209449    0.935322034919
H     -4.957030824824    0.855001192805    2.044940006258
C     -2.765214869799    5.218839551804    1.848360808410
H     -2.319054667225    4.903422561196    2.804784621204
H     -2.164195659515    6.038883545200    1.430369202887
H     -3.787042395264    5.578837876036    2.031868796568
N      2.062558451364    1.194038556724   -0.064591377942
C      1.363340787980    0.063754583338   -0.181060171580
C      2.003343044829   -1.223766748255   -0.242703564850
C      3.423591405589   -1.277815703368   -0.138631405162
C      4.124843867570   -0.048493535501    0.034339005097
C      3.430266251307    1.128726810509    0.065857410539
C      1.255385825812   -2.417828832110   -0.398624372146
C      1.905737934384   -3.635540484142   -0.457280910006
C      3.316326246855   -3.696208363632   -0.357492721624
C      4.062009714421   -2.543467287717   -0.199897294130
H      0.169369906363   -2.354230359152   -0.472375976548
H      1.331219353298   -4.556610055197   -0.579667912116
H      3.818298742734   -4.666009388496   -0.404282309870
H      5.150844581538   -2.591951243711   -0.120489483312
H      5.210766611387   -0.041076678679    0.143381091817
H      3.929722260024    2.086167745126    0.210825460187
