41

C      2.003584860619    3.273699317104   -2.381225330577
H      2.854933723122    2.589720310585   -2.423579796418
H      2.194047189641    4.348834234964   -2.367604763349
C      0.739306178791    2.793665695449   -2.637111142042
H     -0.098821444927    3.477069645956   -2.795518634211
C      0.507387925554    1.346633087184   -2.975351293333
O      1.388149075008    0.523521340672   -3.067992232840
O     -0.789496998136    1.109337221699   -3.159223779688
Pd     0.948646688608    3.025704741810   -0.414004040397
C      0.037680726671    5.573767272774    0.396215920552
O      0.169018031524    4.840970580766   -0.692136830313
O     -0.262354358429    6.743685894908    0.392837004771
C      0.331054895521    4.827611146377    1.714460974067
H     -0.384265419997    5.187315484176    2.465833164866
N      0.270781631075    3.380833282693    1.504830685521
C     -0.368823379470    2.592939822068    2.327051815021
O     -0.646079738561    1.353865553547    2.080412920920
O     -0.115631241439    0.217440133296   -0.056231291188
H     -0.452987050069    0.972747757790    1.117397841515
C     -1.180534023608   -0.266890232866   -3.364695637101
H     -0.623644216837   -0.663913282711   -4.228291697506
H     -0.878614670077   -0.837974356746   -2.473355646175
C     -2.677573860019   -0.297782479568   -3.581867799666
H     -2.965281535400    0.296055685972   -4.463256971785
H     -3.007312780949   -1.335956584419   -3.742263739974
H     -3.209395334235    0.100262309022   -2.704467378472
C     -0.871158191841    3.061322699076    3.672918042533
H     -1.118893685959    2.179255835643    4.275494095929
H     -0.130007735740    3.677162876249    4.200259142527
H     -1.787792219013    3.660999793635    3.548417635907
H      1.339331344292    5.132953062782    2.049267841307
N      1.922881422376    1.227967468738   -0.075891924002
C      1.143581495453    0.102289769917   -0.065538130034
C      1.837557726404   -1.161710748445   -0.059421090670
C      3.211905805580   -1.226392033890    0.000940750337
C      3.948649022385   -0.024329527442    0.047409414414
C      3.272456742781    1.177987316498   -0.004190159173
H      3.721725236531   -2.190543007739    0.017442103814
H      3.812239790373    2.126973802333    0.005993289768
Cl     0.874782736473   -2.603630948684   -0.118699949165
Cl     5.689381370829   -0.053546446925    0.150686540851
