62

C      1.523513996918    3.980115924755    2.351046289603
H      0.782888405976    4.182650804879   -4.001998548091
C      0.786706118028    5.234271345465    1.880508040382
H      0.049764325919    5.545854658097    2.638300312828
H      1.507680993689    6.052778315947    1.742841019506
C      0.120557733813    4.866167562480    0.556724530736
H      0.399263842443    5.478748242589   -0.308548225638
C     -1.348677344075    4.611644897342    0.622716752798
O     -1.938165632722    4.258204344810    1.628178037012
O     -1.950235590800    4.801635144308   -0.564255593115
Pd     1.021573436146    3.047277622661    0.256022930210
C     -0.348423098697    2.509390495083   -2.229901892080
O      0.628704779698    3.196351594423   -1.779944767092
O     -0.963081733252    1.616170784906   -1.620734305221
C     -0.755890020726    2.793511428488   -3.676358693786
H     -1.850055120969    2.874430001403   -3.729585372633
N     -0.189323160211    4.002003114513   -4.223417788987
C     -0.968375611135    5.042586828765   -4.646459292420
O     -2.184071405335    4.966500973873   -4.745446005500
O      0.089550015614   -0.054959125733   -0.017544789665
H     -0.321859307807    0.720941294306   -0.547779873978
C      0.780932571291    2.810384182803    2.658977473355
C      1.392188828874    1.669938570738    3.239186671460
C      2.771917334625    1.688816729641    3.495158203117
C      3.513056670368    2.845492208769    3.162274140184
C      2.917846083361    3.963399540477    2.598215805224
H     -0.310395439919    2.854379239826    2.597111464307
H      4.587566260968    2.857406952520    3.366837588327
H      3.514441007169    4.851881340113    2.374910050490
C      0.548957087830    0.471752712913    3.591293138880
H      0.915053862651   -0.439889998506    3.090849023489
H      0.573702513424    0.267584679340    4.675541910909
H     -0.498226881940    0.617362794709    3.293897680561
C      3.459991726440    0.500643102301    4.117887517806
H      3.011533852446    0.235571118455    5.090012530884
H      3.373716801693   -0.392894687535    3.476757433298
H      4.529701932535    0.694819957973    4.281763177407
C     -3.350027333609    4.468515046642   -0.680588369275
H     -3.409387510437    3.403406558643   -0.961623220680
H     -3.822248180638    4.584443714886    0.305360582503
C     -3.979940600963    5.361822951077   -1.730546192359
H     -3.491797508565    5.249402689236   -2.710609218788
H     -5.044103688757    5.099156190226   -1.844254788035
H     -3.921602854101    6.419704065350   -1.428058865300
C     -0.216871672713    6.319634120528   -4.986414082616
H     -0.634084906014    6.737793841562   -5.913204656103
H     -0.393265928749    7.055501521457   -4.185375411686
H      0.867452611258    6.175073141636   -5.102857810439
H     -0.473252173239    1.902967535785   -4.268000500566
N      2.075200239545    1.128493016170    0.002048504228
C      1.407054943077   -0.040454100625    0.006604477534
C      2.087335459402   -1.291853643054    0.067342418602
C      3.476141997459   -1.265208668434    0.071624719304
C      4.167852024307   -0.043437996621    0.017834975565
C      3.424643110145    1.123937004565   -0.011995427220
H      4.030003923088   -2.208128809584    0.101512640285
H      5.258029233762   -0.004529089134    0.003466968359
H      3.905976149031    2.104541275723   -0.037906036607
C      1.281912819701   -2.560491922012    0.092522028004
H      0.617609286063   -2.594130528987    0.971629859242
H      0.622836501502   -2.622945425669   -0.788330563993
H      1.933953341436   -3.445718669652    0.111600454695
