50

Pd     1.258564029497    2.932771587169   -0.412367069953
C      0.162433842430    5.542320188193   -0.475905488413
O      0.627720256945    4.586622592814   -1.258570591867
O     -0.198162504610    6.619189547155   -0.895818525570
C      0.161190965981    5.176168059333    1.023059693724
H     -0.799858547010    5.519612150110    1.430177351170
N      0.221146015894    3.706399158547    1.113563586644
C     -0.702555601240    2.969138021351    1.740908781769
O     -0.834161449655    1.733477694224    1.590127594411
O      0.080895051394    0.036363110467    0.094634651086
H     -0.287087176988    0.865860800567    0.651705467726
C     -1.680936756389    3.632601250578    2.700444035567
H     -2.126060584062    2.838152151163    3.311575148952
H     -1.219176438222    4.386764211039    3.348425418950
H     -2.487175890964    4.119545959224    2.127177475038
C      1.287063144875    5.964152060585    1.802354550530
C      0.787226145149    7.409416446887    2.000418971214
H      1.562633682634    8.017444199461    2.493907870084
H      0.532106252822    7.875350021466    1.038453731976
H     -0.112483385159    7.433771064372    2.637849356463
C      1.539157555773    5.320714573888    3.176863560260
H      0.635262297334    5.328691422224    3.806195379870
H      1.883848593546    4.279782032474    3.085706091725
H      2.312813077773    5.888967313230    3.717799940017
C      2.612265291854    6.000473927586    1.017879138267
H      2.991430918909    4.988395935263    0.814180360346
H      2.503644832947    6.523943097332    0.056242904141
H      3.381592034706    6.530232320990    1.602046177017
N      2.108856683521    1.089311970102    0.157109299528
C      1.375721107033   -0.018130343566    0.076737575758
C      1.987298225036   -1.333328081894   -0.066671135276
C      3.399212391044   -1.449833512304   -0.063043858245
C      4.188791570881   -0.239252651805    0.123487858186
C      3.505144178779    1.003524745960    0.238933366450
C      1.168796854284   -2.474527937327   -0.211844669016
C      1.742557248112   -3.725602933691   -0.368787631509
C      3.144552107104   -3.852187187226   -0.376807116206
C      3.957578097636   -2.738383093748   -0.224987145274
C      5.599792608482   -0.241572870851    0.199512540286
C      6.320091241877    0.928714891230    0.383168891541
C      5.638495686311    2.151059892300    0.503659209149
C      4.254195643179    2.184126534846    0.433725800857
H      0.086530132925   -2.343417715182   -0.199986691543
H      1.111496882244   -4.609616817460   -0.484871570883
H      3.600071094200   -4.837843016602   -0.501665597486
H      5.040137530692   -2.867997008310   -0.232889338094
H      6.138739669182   -1.186071447489    0.115901637430
H      7.410468280068    0.897313574971    0.438427377713
H      6.193823921820    3.079102678118    0.658288908595
H      3.720792287333    3.129094984204    0.540616680416
