74

C      3.657136686299    4.842820440553   -0.690172817231
H     -3.036644591224    5.933084867191    0.332891160376
C      2.731425725509    5.195557403063    0.454332709649
H      3.254330234764    5.875056459629    1.152665310613
H      1.861068970288    5.762477385986    0.089524877864
C      2.240457126593    3.987331446464    1.249569710115
H      3.058044427904    3.319861939764    1.555578566587
C      1.409219051122    4.361983367378    2.447547436854
O      0.887436340498    5.443308990193    2.621682876075
O      1.298257526376    3.338755880409    3.319431654881
Pd     0.903953135499    2.869885133029    0.172145901947
C     -1.516437713193    3.443851809735   -0.254435782062
O     -0.612203145035    4.297456305712    0.003510699111
O     -1.212798874920    2.245556731986   -0.534894342220
C     -2.979679749467    3.889940628026   -0.201407631618
H     -3.538797152578    3.032736549197    0.199403878909
N     -3.130715148886    5.001525794919    0.722405252828
C     -2.786452892614    4.839902697205    2.041236171510
O     -2.602593339356    3.730557225877    2.522556341205
O      0.007289992546   -0.020688084977    0.527960495874
H     -0.425118510400    0.824671860467    0.253680151170
C      5.044164691077    4.752757882403   -0.494097153533
C      5.931445906316    4.403906514549   -1.523044946624
C      5.415133937734    4.129223649289   -2.811112914338
C      4.030300891484    4.221205325576   -3.008989937682
C      3.161720900603    4.572096661225   -1.972654336881
H      5.452769259771    4.974587768045    0.497508791962
H      3.621982219169    4.018296484490   -4.003555558397
H      2.086803933906    4.639599941690   -2.161660292524
C      7.416668447321    4.340232336708   -1.259378569589
H      7.831130930525    3.341678028288   -1.481332261382
H      7.972721368682    5.053431945717   -1.891922046052
H      7.648614894451    4.574295104492   -0.210114296418
C      6.332290585448    3.760046785951   -3.951259573752
H      7.063759433770    4.559214583679   -4.162224793760
H      6.919289802109    2.852153143434   -3.729269485398
H      5.766049166497    3.573934630134   -4.875497135933
C      0.406586518358    3.520165353348    4.436330433149
H      0.666411752714    4.459506975197    4.950579119150
H     -0.621369126780    3.616394284998    4.050354871392
C      0.551829960009    2.319057146211    5.348155982067
H      1.585236279062    2.220819074176    5.716805716490
H     -0.116427741690    2.426413353572    6.217039006011
H      0.281561188536    1.390057865991    4.822769711195
C     -2.607590629785    6.111941723613    2.841971094337
H     -3.007487172407    5.959345081433    3.853865545200
H     -1.522282489864    6.291201932635    2.926261728543
H     -3.086370265335    6.989924834349    2.383405739240
C     -3.528924062017    4.280655608542   -1.585744133613
H     -4.572059395314    4.612636369645   -1.436528862368
H     -2.966803481798    5.163222586490   -1.942571588048
C     -3.493683077895    3.196150596775   -2.678752638069
H     -2.439859471538    2.907651516613   -2.838185778416
C     -4.025719496091    3.774982627707   -3.996618877838
H     -3.459143264466    4.668474072954   -4.306534808864
H     -3.957323315765    3.036009824388   -4.810881184385
H     -5.085669128316    4.068725826620   -3.902617567068
C     -4.261860657893    1.929450353668   -2.280226992210
H     -4.274253409605    1.204968055715   -3.110454139809
H     -3.798892039397    1.429194896717   -1.417152611388
H     -5.311199733940    2.161717407585   -2.026692294131
N      2.015882658573    1.131726336740    0.244840450180
C      1.327783546811   -0.014977934593    0.423841184598
C      2.004012483067   -1.249345482814    0.513754179124
C      3.379432693902   -1.280238980658    0.381087359935
C      4.101748646721   -0.090951797359    0.148260751338
C      3.361587738620    1.082671471762    0.091847037065
H      1.409631730440   -2.148949435468    0.676709483669
H      3.907937891892   -2.235804732810    0.446099799165
H      3.851842118360    2.041034909341   -0.087003016379
C      5.598188731661   -0.086997151298   -0.029755671291
H      5.977265963939    0.930609381311   -0.202532727936
H      6.108499263040   -0.491548932828    0.860177688742
H      5.900851403163   -0.709433406096   -0.888257553492
