41

C     -4.219416232023   -0.990742686697   -0.835389973741
H     -3.850684981811   -1.474898949965   -1.744733308219
H     -4.637878591932   -1.617777825577   -0.044895217443
C     -4.390878543245    0.373065730061   -0.816075471465
H     -4.930276554985    0.868139974230   -0.004496370778
C     -4.080288909319    1.200022173418   -2.026915940934
O     -3.642096791920    0.764569081273   -3.064929931975
O     -4.358715945855    2.492253399544   -1.803511694014
Pd    -2.414903208929   -0.109639915816    0.148770690029
C     -2.178829133826   -0.439323426884    2.923782686878
O     -3.116689512319   -0.212449965285    2.009344983745
O     -2.462351274941   -0.776086174703    4.049329404222
C     -0.689187796403   -0.214714060981    2.487172033204
H     -0.132277963356   -1.124861633134    2.776775083085
N     -0.688205394245   -0.040108220881    1.045745607550
C      0.039812897688   -0.460008161713    0.009725602494
O     -0.571423372582   -0.382045582180   -1.105673313642
C     -4.099889362370    3.408079241839   -2.885040544294
H     -3.031458391110    3.348091432592   -3.148715892110
H     -4.668916461556    3.079608443570   -3.769775754787
C     -4.499673357021    4.795606164098   -2.430658919991
H     -3.918943654381    5.105020335678   -1.548182081362
H     -4.314229389301    5.521025093250   -3.237876845145
H     -5.568788931827    4.833605523432   -2.171071312426
C      1.444602331483   -0.980543102174    0.084935309589
H      2.152486751052   -0.152820032707   -0.080310261281
H      1.666980534968   -1.430553697614    1.062385517533
H      1.592156740517   -1.717781202370   -0.716113119395
C     -0.051164659970    1.005478450238    3.254402150256
C     -0.943453927900    2.252326852533    3.112140560006
H     -0.460674276053    3.121223733477    3.587343775001
H     -1.117491864936    2.500997762835    2.053398138325
H     -1.921239226865    2.109373053736    3.597203314947
C      0.119836343229    0.641835106523    4.741086817918
H     -0.838496085136    0.387899351625    5.210991927455
H      0.792877827540   -0.223639813834    4.862157296889
H      0.568405963593    1.490697689909    5.282209714577
C      1.337636390623    1.310231329303    2.664263204989
H      2.008999967842    0.438798242397    2.733554627270
H      1.277068682141    1.623120985776    1.610985539564
H      1.809466719440    2.131805088564    3.226408917836
