83

C     -1.527805079003    3.714053008461    1.976320012705
H      0.148588680711    4.623868005803   -3.396564185008
C     -0.225775907651    4.349136727335    1.698268630540
H      0.388328578372    4.434881955308    2.599988882297
H      1.722636885964    2.983087489416    1.627779557350
C      0.268706403468    5.091388051997    0.617558483603
H      1.206291528308    5.627822694348    0.793339014104
C     -0.439344554310    5.683011518051   -0.562409891664
O      0.147367881462    6.331839323624   -1.401062703071
O     -1.762679918689    5.497784085882   -0.555395317618
Pd     1.040908561998    3.074351988641    0.268830200935
C     -0.497289333479    2.470796486405   -2.350646199036
O      0.306825010997    3.250420351933   -1.759880154563
O     -1.025843713216    1.451893139275   -1.841421704423
C     -0.827897415893    2.800964987295   -3.811966079726
H     -1.916893154018    2.693844826878   -3.942991785350
N     -0.462033834321    4.181615277953   -4.078225683520
C     -0.969753734995    4.894467575540   -5.124893995006
O     -1.756245773661    4.416691286205   -5.930236921180
O     -0.016320015403    0.129908920971   -0.007991947378
H     -0.435759074037    0.810321562052   -0.704237540420
C     -2.323981958975    3.062776114908    1.015695886862
C     -3.531828845025    2.445523573998    1.347869575549
C     -3.990555282507    2.495412546859    2.687932584399
C     -3.195366166132    3.136464114066    3.648190164517
C     -1.974492897698    3.717177025394    3.310146501131
H     -1.980665343093    3.005539738514   -0.014620046128
H     -3.534143818591    3.166978364622    4.687459267521
H     -1.365565817539    4.187548531651    4.087059066246
C     -4.324086314238    1.729053973984    0.281677827423
H     -4.550701556779    0.690741655916    0.575518050635
H     -5.294813971571    2.221290746225    0.096219017518
H     -3.768536844923    1.692435373877   -0.665945262302
C     -5.296641352637    1.854445707314    3.079767719808
H     -6.140209315777    2.268602314290    2.501889621922
H     -5.288740516028    0.768662090992    2.882957468671
H     -5.513158411546    2.001756655594    4.147630113061
C     -2.521896062966    6.108877341713   -1.618664760766
H     -2.253890888126    7.175805903142   -1.673699726648
H     -2.221805912368    5.643714002050   -2.569620970585
C     -3.993555489895    5.905835489040   -1.326686472328
H     -4.274852135458    6.368522044368   -0.368212793014
H     -4.595621351999    6.366809530418   -2.125016975190
H     -4.246540997542    4.835819977234   -1.281011827014
C     -0.464636787512    6.327080648539   -5.227213676102
H      0.356649965730    6.366478621654   -5.961627103095
H     -1.277977935805    6.958956242445   -5.610063057434
H     -0.098162743670    6.722142685654   -4.268146406022
C     -0.155279420121    1.803730855336   -4.810175647337
H     -0.372875604382    2.246070433565   -5.797081675897
C      1.365567998169    1.749445482782   -4.626444333236
H      1.849611452544    1.213551856226   -5.456858730279
H      1.796923015996    2.761753230221   -4.593766074674
H      1.644910498942    1.233652886605   -3.691784190540
C     -0.823039375841    0.417006298277   -4.781848640964
H     -0.637956672203   -0.064290434928   -3.807704586082
H     -1.916497116705    0.558753452756   -4.839311604794
C     -0.386787245124   -0.511901815628   -5.917712884914
H      0.681557180075   -0.774279879364   -5.854580411989
H     -0.954594074507   -1.456006747253   -5.892958392169
H     -0.556743807526   -0.048468219618   -6.904394170197
N      2.005662936211    1.208043386547   -0.073755410314
C      1.287228122276    0.098980458349    0.014416632310
C      1.919088033475   -1.205224222501    0.176198913578
C      3.333721428839   -1.298217588810    0.185547126593
C      4.104412820941   -0.076840993532   -0.005069504337
C      3.398499048022    1.151537915392   -0.134307937568
C      1.120626483709   -2.360630721582    0.322067151748
C      1.714555202933   -3.600200316065    0.494236465850
C      3.118517501201   -3.702683602228    0.516085696436
C      3.912823861112   -2.575972315350    0.362683187199
C      5.516170780904   -0.051872149653   -0.070559137115
C      6.212172895681    1.131996062671   -0.258943873826
C      5.507209159236    2.341074605435   -0.392461624312
C      4.122842029981    2.347797661121   -0.330861593476
H      0.036555363834   -2.247824524906    0.298265864207
H      1.097831609051   -4.494360196481    0.610676784571
H      3.589917867269   -4.679406188564    0.652216423627
H      4.997551080118   -2.685803084005    0.380410215120
H      6.074254616384   -0.984173897511    0.025087567457
H      7.303397238592    1.122701746044   -0.308084814962
H      6.046911679009    3.277924541385   -0.549971749449
H      3.565858291852    3.280932199796   -0.443225869438
