62

C      1.521937228011    4.013808525424    2.542952183865
H     -2.032149652492    1.438413847564   -3.361933082386
C      0.722513337539    5.236164687377    2.095949296531
H     -0.024639744197    5.499779676276    2.862263593262
H      1.401933912087    6.090978934316    1.968576627275
C      0.066196331004    4.861050162195    0.769298572776
H      0.299384273411    5.507535518087   -0.084770517367
C     -1.384849957054    4.526068452977    0.849292022074
O     -1.957162773822    4.161404841986    1.860275907067
O     -2.012062629082    4.648538036864   -0.335533209224
Pd     1.054430256324    3.101692551029    0.394085666742
C     -0.257708233344    2.619480631295   -2.126797576712
O     -0.882887123355    1.711433885762   -1.542191393235
O      0.678399194377    3.326610108777   -1.632606206220
C     -0.610302563426    2.952877150218   -3.572826289269
H      0.292977743160    2.842244067754   -4.197714884509
N     -1.683349094058    2.109489182950   -4.040146126273
C     -2.095112033544    2.111379267480   -5.339577071723
O     -1.609994848531    2.854633583714   -6.177669258015
O      0.111520442921    0.099022629554    0.220485512233
H     -0.283443305531    0.838532042461   -0.352583647309
C      0.848231426159    2.788375001312    2.786585146263
C      1.518718321159    1.665565472090    3.337019506406
C      2.889633307823    1.758600522636    3.623037176683
C      3.560045491956    2.974729235011    3.360822461677
C      2.906264101140    4.076174279933    2.829047792516
H     -0.243145437552    2.768428896906    2.717057027495
H      4.626066876824    3.047543836390    3.595388171928
H      3.448932984266    5.009923806415    2.659329567576
C      0.742727837674    0.410100819923    3.640659187834
H      1.193817967373   -0.471034918164    3.156536313029
H      0.730229362881    0.202867367658    4.724873307667
H     -0.295815173906    0.486079135276    3.292821037226
C      3.638452693460    0.591702099663    4.215915568049
H      3.193779113668    0.268093940192    5.171995436679
H      3.613239101338   -0.283700970025    3.545217568645
H      4.692503669125    0.842685189945    4.402709400679
C     -3.391349312812    4.242873047917   -0.376879419879
H     -3.456962816748    3.185634563718   -0.073301867585
H     -3.956907867531    4.830161338619    0.364522091903
C     -3.908736865583    4.456365389856   -1.784144013569
H     -3.371855308250    3.821479630461   -2.504962521882
H     -4.978273434709    4.197214416731   -1.830425402237
H     -3.796449403951    5.507505556947   -2.092058594274
C     -3.213164656229    1.133910817232   -5.673274649563
H     -2.891052866649    0.503564955562   -6.515621942380
H     -3.510187960108    0.492377149534   -4.830691130771
H     -4.089604897648    1.705761600693   -6.015253443008
H     -0.877310021990    4.022525844734   -3.622579767237
N      2.132454057182    1.197683404440    0.004853300209
C      1.429426140883    0.053290787488    0.124464269793
C      2.074633900699   -1.201041153334    0.172408332784
C      3.450799285591   -1.245601390827    0.022256947161
C      4.162805110972   -0.056054508533   -0.187011376155
C      3.473335139316    1.156186126949   -0.194952127755
H      1.462659059491   -2.095764052730    0.290584996136
H      3.974817534233   -2.204928427522    0.039680557828
H      5.241848286947   -0.066891155288   -0.346837756214
C      4.178043972316    2.462353420635   -0.436427504255
H      3.708802805527    2.997436846796   -1.277054463177
H      4.103686451950    3.115106234522    0.446958943676
H      5.240973442508    2.302679756418   -0.664417710813
