65

C      1.663670602297    5.881386982336   -1.283297923593
H     -2.585270855922   -0.130219102442   -0.675576832060
C      1.232844201964    5.479618244123    0.062893892778
H      2.312988714047    3.624555723148    0.900648734067
H      1.891781740352    5.777046245043    0.883974026535
C     -0.027019401749    5.016746763251    0.426839567969
H     -0.829075893449    4.936343221767   -0.310381824907
C     -0.448301024567    4.985376227731    1.863841306263
O      0.230659529596    5.331894037649    2.804640806554
O     -1.695517234970    4.503170934105    1.950000075190
Pd     1.075280080348    3.150230922556    0.159758485065
C     -1.793954695972    2.696874217818   -1.180213525354
O     -1.831253311770    3.725955810827   -1.838055129197
O     -0.734842702477    2.216917336616   -0.595716231351
C     -3.100955285719    1.905588993374   -0.986496006736
H     -3.538883224263    1.732472611759   -1.982334842163
N     -3.013533824130    0.676073709507   -0.236768505891
C     -3.266763423307    0.620810817514    1.109920669906
O     -3.685451819096    1.580078014390    1.738533564313
O      0.063868854421    0.047200144829    0.258696091770
H     -0.383455732766    0.937285126948   -0.053095715540
C      2.891309474533    6.557356539754   -1.418940177632
C      3.361921332461    7.011849607982   -2.654492252295
C      2.577537571816    6.778302186092   -3.809260621945
C      1.356368246114    6.097318713657   -3.672670376844
C      0.892244604174    5.649055356927   -2.438921880919
H      3.496243254319    6.735994314406   -0.524837998831
H      0.751244343255    5.912152870261   -4.564544490812
H     -0.054779391401    5.105796012265   -2.377405439559
C      4.681803012217    7.736523337378   -2.750356766072
H      5.386720457489    7.210844141298   -3.416704129116
H      4.559201523238    8.752439180136   -3.162951341323
H      5.160052597722    7.830624430729   -1.764797768406
C      3.042707962208    7.248105507938   -5.163584437173
H      3.184514672423    8.342248631569   -5.186550347951
H      4.014999845992    6.802684400143   -5.435675899078
H      2.320096756128    6.985730194680   -5.949436605514
C     -2.280348120933    4.304667795505    3.253770707517
H     -2.937691474233    3.434547852212    3.122251377156
H     -1.477023260855    4.060764196537    3.964884704298
C     -3.048786027441    5.535730856321    3.703133603415
H     -3.821059552400    5.806857602284    2.966553676319
H     -3.549037250895    5.331853194889    4.663664587775
H     -2.375457679452    6.395082938117    3.843962238664
C     -2.973163667588   -0.721370602179    1.758895681358
H     -3.453847437668   -0.752108058005    2.744351631665
H     -3.331873689895   -1.562033637820    1.144219731605
H     -1.883978023821   -0.833606904209    1.882339780089
H     -3.779924610040    2.578010168468   -0.442067704930
N      2.042975659834    1.237820853276    0.044412548605
C      1.367351884206    0.064689840968    0.177680076334
C      2.065771990602   -1.167938740006    0.242411170311
C      3.439183231130   -1.187957507984    0.131077429117
C      4.131285630614    0.028628082167   -0.046483825312
C      3.386390656195    1.202140634249   -0.076903843432
H      1.475931076861   -2.076850366800    0.364912294067
H      3.993087189806   -2.127021522398    0.170461284690
H      3.900889897166    2.155024319785   -0.198103026411
C      5.608285379991    0.131402085523   -0.191295352830
O      6.212424998119    1.167600736307   -0.345718511323
O      6.206234992783   -1.073615468095   -0.130833628785
C      7.628552731929   -1.079472717373   -0.258580917577
H      8.094791323884   -0.487552224872    0.543412266984
H      7.937497936632   -2.129416494506   -0.186723057062
H      7.935232715855   -0.655519426407   -1.226665128220
