61

C      1.548731654765    3.962053870386    2.284735585341
H      0.740171722541    4.205369616462   -4.090633692197
C      0.820054397927    5.223630073734    1.816936922224
H      0.101034468869    5.550944003159    2.584947432497
H      1.549626037660    6.030384618710    1.659004285069
C      0.126835199368    4.853186720004    0.508717113890
H      0.392407151057    5.457394499127   -0.366530662278
C     -1.343821217993    4.603609127337    0.603195319627
O     -1.914354151230    4.263461944339    1.623471139877
O     -1.963424536175    4.783544869059   -0.574395457785
Pd     1.022556619833    3.038422401284    0.204847722341
C     -0.346572474069    2.491328539044   -2.295258013685
O      0.611562518866    3.188259053630   -1.829759514272
O     -0.928135211200    1.555462525040   -1.709878992319
C     -0.785807532725    2.806619134928   -3.724041460437
H     -1.881801252738    2.880850716091   -3.749618096066
N     -0.243802956451    4.030999599240   -4.256894922157
C     -1.043160973736    5.078314936211   -4.624685949273
O     -2.261470276081    4.998208120170   -4.669879751407
O      0.147089506112   -0.113179983673   -0.211715177193
H     -0.280626640930    0.694346285406   -0.728099392635
C      0.795415220066    2.808862312707    2.628621953826
C      1.399881451938    1.672035578994    3.221353386515
C      2.785208698317    1.675627954338    3.451023821283
C      3.539123599492    2.810769735917    3.073332123905
C      2.948582392712    3.926936704573    2.500191580863
H     -0.295934999180    2.866790270128    2.581354787019
H      4.619312534479    2.805429081764    3.243346129430
H      3.555467331896    4.799248023734    2.243887161335
C      0.545060627575    0.495753804522    3.618250796605
H      0.870088079830   -0.430146188629    3.114723487625
H      0.607398659901    0.300947458628    4.702382235450
H     -0.510183269555    0.662738126540    3.362401582547
C      3.465678116176    0.496610783701    4.099309434438
H      3.056490047059    0.298607032792    5.104418070387
H      3.318052651065   -0.427521838381    3.515537734632
H      4.547485100623    0.661577436105    4.202887245313
C     -3.373305529475    4.478869475632   -0.661629948280
H     -3.458557862193    3.422583040012   -0.967950100427
H     -3.815761367484    4.577513225231    0.339651490322
C     -4.014428238988    5.408440039096   -1.672268299212
H     -3.550769067461    5.312361747616   -2.665695397764
H     -5.084886259286    5.164319070350   -1.765937190348
H     -3.932618838958    6.457004419709   -1.344131745151
C     -0.311338538405    6.363358180056   -4.974032234342
H     -0.760258007211    6.788312327811   -5.882761227009
H     -0.468211517962    7.089567452249   -4.160377537865
H      0.769717205999    6.228360812312   -5.126122102428
H     -0.512357197129    1.931050867736   -4.341595153829
N      2.097133943382    1.111791357948   -0.031284220518
C      1.437877922404   -0.075500637880   -0.072425259851
C      2.147431885313   -1.302579570068    0.061297759394
C      3.519554968343   -1.292347042733    0.187276530233
C      4.173087340232   -0.048456276559    0.185149249898
C      3.432694331427    1.120534776778    0.076172652062
H      1.571994681952   -2.228393295799    0.035715817558
H      4.104999348336   -2.207914374135    0.277261937772
H      3.936490992154    2.087447404936    0.092080457340
N      5.626191152254    0.028413027827    0.325682765537
O      6.135216238195    1.139664278760    0.365991400895
O      6.238629332741   -1.025768935839    0.401634332765
