62

C     -1.544076819381    3.777313920107    1.963246568801
H      0.059676534488    4.511570973264   -3.330112133061
C     -0.234292952532    4.399062975709    1.708018601610
H      0.369480349478    4.470855675232    2.618080751465
H      1.822491023575    3.098626251389    1.612158238276
C      0.297591992137    5.117502045647    0.628423036822
H      1.244767281997    5.633081285755    0.814887729481
C     -0.374358292602    5.707460059510   -0.575388197404
O      0.253167967587    6.238972709479   -1.464990196647
O     -1.708228204593    5.665833524082   -0.524465690008
Pd     1.018952163348    3.077615801814    0.320190762339
C     -0.599922550697    2.337195154655   -2.295535243315
O      0.099833968789    3.163005175188   -1.643008100627
O     -1.030780932754    1.236923780123   -1.867777682398
C     -0.933715209190    2.696264287658   -3.748109854851
H     -2.027511394296    2.607031231690   -3.865011180648
N     -0.544022097368    4.068286306890   -4.017752734768
C     -0.984257351887    4.757079782260   -5.110467665491
O     -1.743764515621    4.269043174299   -5.934804311734
O     -0.047298026719    0.129659993487    0.070665669780
H     -0.503122694336    0.708852576703   -0.734928712836
C     -2.362515477668    3.193952575168    0.976398029345
C     -3.574013582374    2.574667584895    1.288426682955
C     -4.016170505629    2.556317513661    2.635459866637
C     -3.201852256093    3.132850317114    3.620379999593
C     -1.976463468606    3.713021600613    3.300827618020
H     -2.031433138487    3.200721987156   -0.059326061664
H     -3.528951170718    3.110268871028    4.663449686822
H     -1.351219691405    4.129750529190    4.095080421593
C     -4.388740323939    1.924280789697    0.197575242145
H     -4.633903801323    0.878817523781    0.446423726298
H     -5.349831352580    2.444432546297    0.040728831155
H     -3.840792590432    1.915538603974   -0.754885309180
C     -5.325157034089    1.910430249744    3.007570876683
H     -6.169250048307    2.361159036584    2.458745731225
H     -5.329496990025    0.835818066782    2.756990490864
H     -5.530147468737    2.006504584499    4.083397991089
C     -2.431807964631    6.270880915292   -1.616526704685
H     -2.061883031046    7.298803999763   -1.756375604376
H     -2.202312582111    5.709164380963   -2.534672920100
C     -3.907766010843    6.237294097436   -1.281469707609
H     -4.116297993753    6.794308655403   -0.355133010411
H     -4.483248229846    6.697181293753   -2.099736104686
H     -4.263348834514    5.204119791920   -1.150366847950
C     -0.444053276465    6.174582111302   -5.236058114303
H      0.358163493322    6.184293834144   -5.991939822060
H     -1.248755009497    6.824679881151   -5.607543391273
H     -0.044791384791    6.570372754389   -4.290780851328
C     -0.284196288314    1.682304882777   -4.706260485572
H      0.814340094852    1.722511841230   -4.629266073377
H     -0.621840267332    0.664823590554   -4.462829402014
H     -0.578645216866    1.924883319226   -5.736386191090
N      1.985317327981    1.216296180077   -0.013389137134
C      1.246725637988    0.079709655507    0.026745211944
C      1.935051293680   -1.173758964607    0.047787384240
C      3.315978419032   -1.224745049925   -0.017678858680
C      4.030155296562   -0.018706371858   -0.104198305611
C      3.333940228818    1.178080947293   -0.091309964189
H      3.835059285227   -2.183893091241   -0.013590750777
H      3.859874232697    2.132538899835   -0.128668713964
Cl     1.001211254125   -2.630376611674    0.136023094542
Cl     5.768287901719   -0.020941079554   -0.205078164274
