83

C     -0.181337696739    3.935343256299    3.341745977855
H     -1.433350141324    5.547050690990   -3.357224885757
C      0.948974593273    4.332539349291    2.426229025139
H      1.810864884083    4.756372080253    2.963354699798
H      1.517458117872    3.287031145139    2.099731727374
C      0.648735426203    5.057399743232    1.175509936964
H     -0.385816472465    5.326782086827    0.946070734742
C      1.697836301207    5.995967066296    0.695408305502
O      2.850289554541    6.001230874152    1.083440016842
O      1.247891960034    6.844963114182   -0.251277369872
Pd     1.158282334348    3.233785720702    0.381377039869
C     -0.836833069524    2.945185215793   -1.677515419077
O     -1.207836164409    1.898958047899   -1.110180564696
O      0.259812810607    3.562798300997   -1.483811439875
C     -1.805957842101    3.545984781912   -2.720901500145
H     -2.789150214807    3.149726789123   -2.424288154659
N     -1.860380228909    4.994579200202   -2.625073301767
C     -2.197213955823    5.614659823879   -1.458909021122
O     -2.527861784037    4.987699036926   -0.459619495778
O      0.041871061226    0.176150296297    0.167609136541
H     -0.408284197495    1.000011172330   -0.292280037300
C     -1.464105160877    3.647157265252    2.849002973201
C     -2.518951320418    3.295491498454    3.698698780211
C     -2.286993873055    3.215282744898    5.093750541951
C     -1.003853902294    3.498657438140    5.579102310419
C      0.039390328488    3.854991533218    4.721363983217
H     -1.662390973536    3.699081804938    1.775128021074
H     -0.816403538137    3.441910301210    6.655256034124
H      1.029002607984    4.075489957043    5.131829964678
C     -3.882450521458    3.008314585069    3.119935668389
H     -4.192358693855    1.966398671799    3.311510131531
H     -4.656725134500    3.653381765005    3.568872519588
H     -3.893679912193    3.173015671866    2.033364660204
C     -3.397638877090    2.832052417644    6.039162105302
H     -4.240638663110    3.542114927433    5.984735651134
H     -3.811946319956    1.838503397233    5.797076232963
H     -3.047104698115    2.805831341195    7.081237863828
C      2.230293334678    7.725924854752   -0.824256892630
H      2.689641126147    8.320497846722   -0.018227369915
H      3.033775520802    7.117079401075   -1.269521155154
C      1.553049197338    8.602930914063   -1.856314893365
H      0.765837266148    9.222970601292   -1.400199684956
H      2.294276463645    9.275548154501   -2.315548434054
H      1.098868674463    7.996964951728   -2.655299396705
C     -2.110619879212    7.129789754881   -1.462963242526
H     -2.935239044264    7.530702218556   -0.858004220470
H     -1.162415697440    7.419215332451   -0.983908019384
H     -2.147633563749    7.566814838234   -2.472207279804
C     -1.524308922158    3.070968627716   -4.183363232632
C     -1.501995867099    1.530522937686   -4.219866961714
H     -1.398095425263    1.182386717372   -5.260080826721
H     -0.665777338160    1.115443524463   -3.638967759951
H     -2.430393882001    1.106033438329   -3.807489184607
C     -2.668967302974    3.564641836823   -5.091804527065
H     -3.639880312733    3.167152936841   -4.755157786261
H     -2.746850418958    4.662769850670   -5.105808161695
H     -2.507253750208    3.228463005737   -6.128671197825
C     -0.175432071584    3.604196575609   -4.705762177537
H     -0.154534662354    4.704777218095   -4.779022501809
H      0.657023110775    3.300566736681   -4.054819048801
H      0.015324135335    3.216412813130   -5.719341374339
N      2.053351148105    1.263486679492    0.025905768134
C      1.345205207284    0.153055744521    0.119577946306
C      1.974505420500   -1.161563611411    0.202394620547
C      3.386867186259   -1.258632401260    0.140431864928
C      4.153307033026   -0.029994754580   -0.018711513368
C      3.443043412212    1.203075532068   -0.070282926923
C      1.179054116042   -2.319944184780    0.338446595699
C      1.774231286856   -3.568132116798    0.424652305076
C      3.176889075766   -3.675893923681    0.370538149636
C      3.967696681741   -2.545230245757    0.229737382238
C      5.562867033438   -0.003186089551   -0.117943133695
C      6.257311323288    1.188444723248   -0.258394448240
C      5.551573775984    2.403407693884   -0.304314496537
C      4.168582156467    2.408292891032   -0.213137192049
H      0.095617195399   -2.203991075560    0.374610302558
H      1.159210888241   -4.464654124803    0.532599038030
H      3.649636627308   -4.659173788642    0.438293405733
H      5.051543039129   -2.658352105129    0.188999979078
H      6.121189565168   -0.939762013812   -0.083034105613
H      7.347297884092    1.180954846612   -0.331948193445
H      6.088471498796    3.348889536092   -0.412061801360
H      3.618326881290    3.352151212388   -0.248472908154
