75

C      1.565817154806    4.043861782014    2.398398908091
H     -2.462484874319    1.816950384163   -3.375542644477
C      0.751981966012    5.270448539474    1.990291551846
H      0.087017421693    5.576118568194    2.814566004934
H      1.433292099212    6.104416395699    1.769786464818
C     -0.033402779281    4.866481380150    0.742865242562
H      0.118711844913    5.488080926279   -0.146805149434
C     -1.469471000679    4.544876071859    0.978230632085
O     -1.937166771004    4.208409484166    2.051267646256
O     -2.222158724189    4.642548969542   -0.136189851160
Pd     0.909226886947    3.083505864722    0.344071302678
C     -0.437451119532    2.651980978637   -2.187598553128
O     -1.112000841478    1.781380722025   -1.600789816727
O      0.523127183729    3.315194380388   -1.679800944282
C     -0.763981399425    3.001150219760   -3.649949231231
H      0.113912289753    2.732955486369   -4.260981394063
N     -1.867964693809    2.185404033755   -4.111494082925
C     -1.808458217176    1.501586434167   -5.299671626113
O     -0.902276032477    1.643166314720   -6.102776888565
O     -0.052715981815    0.029410825780   -0.041635912804
H     -0.461377220814    0.823476519825   -0.530118793017
C      0.894804463583    2.840411257628    2.741585665784
C      1.595520032331    1.716410456101    3.252741984471
C      2.988044047160    1.787404326958    3.404457700846
C      3.653716606506    2.979719226387    3.038217040008
C      2.973931006675    4.079916940920    2.538819790403
H     -0.198114269542    2.844025455272    2.781311841578
H      4.739244487217    3.033843960388    3.162434428849
H      3.516725286562    4.993727652710    2.283413802816
C      0.830774673515    0.478031396902    3.642530140177
H      1.189235694656   -0.406214734419    3.089573806788
H      0.954260432175    0.249476835346    4.714998425776
H     -0.242787936974    0.588235470812    3.437833094282
C      3.769098157123    0.619664191143    3.952044025884
H      3.408794316951    0.322896011525    4.951328534987
H      3.670266107648   -0.267983917692    3.304550953360
H      4.839568073995    0.855843015180    4.036910436185
C     -3.594796377904    4.232077572539   -0.010966790380
H     -3.618879310318    3.165241605410    0.264872623097
H     -4.060240150664    4.790966064495    0.816315530653
C     -4.299407036812    4.485231490457   -1.327279364831
H     -3.851270884874    3.894123825116   -2.139961080897
H     -5.359939054764    4.200841150071   -1.241540086847
H     -4.250391508486    5.549593061749   -1.605177117480
C     -2.991940982113    0.586048945246   -5.572860113020
H     -2.627693163344   -0.325697874355   -6.066142476323
H     -3.559727945387    0.319167821950   -4.668926120621
H     -3.673158620487    1.092912452923   -6.275221511574
C     -1.003572057492    4.529061554799   -3.793941814997
H     -1.778284730804    4.833960868755   -3.074210947299
H     -0.072984213962    5.026984986121   -3.482514749664
C     -1.394321865079    4.973955110044   -5.184790849610
C     -0.439316645324    5.065357858569   -6.210320099766
C     -2.724750991708    5.300802550162   -5.487546084797
C     -0.801082508396    5.472852538263   -7.495375068505
H      0.602628312668    4.808432655264   -5.999594216242
C     -3.093420921823    5.708954077233   -6.773568481362
H     -3.482427575383    5.239703783502   -4.701236587622
C     -2.131306971018    5.796795496653   -7.782607111684
H     -0.041211344632    5.535350333089   -8.278844201029
H     -4.135874468617    5.961879652823   -6.985935385511
H     -2.415240408556    6.116130309439   -8.788847230557
N      1.951718608733    1.183298206630   -0.030420760594
C      1.269027129682    0.024378420905   -0.063612429248
C      1.930592239509   -1.236094917327   -0.093401257001
C      3.319519611191   -1.226127083803   -0.140158442357
C      4.025501199501   -0.012103874922   -0.157718761703
C      3.299105813077    1.165069146068   -0.098076423246
H      3.860732658949   -2.175832186064   -0.181387256395
H      5.114622728547    0.013964655870   -0.214874129461
H      3.791984144047    2.140029872702   -0.094141441321
C      1.109599192872   -2.494986787658   -0.105154087788
H      0.475486139833   -2.566346559722    0.793684827543
H      0.421698398634   -2.504927778043   -0.965873032279
H      1.750486436004   -3.387088589941   -0.153856538797
