72

C      0.197788111784    4.876954951439   -2.803156256169
H     -3.197636259063   -0.004253027882    0.065680797376
C     -0.150187575952    4.784890687488   -1.378149926477
H     -1.139913024068    4.336762914493   -1.237601316618
H      2.284654897813    3.742853483094   -0.833841999709
C      0.365972620013    5.305578969505   -0.181147421454
H     -0.321963316226    5.239793447094    0.668365595039
C      1.492418382100    6.257761177823    0.048829364713
O      2.307549045585    6.680413821195   -0.742168720686
O      1.487160379619    6.633623162072    1.344009769795
Pd     1.019922178396    3.213769500033   -0.192139657413
C     -1.905379172222    2.863348920692    0.952708477087
O     -2.026854924683    4.011007014452    1.342396821271
O     -0.794020288677    2.294329087301    0.590587089993
C     -3.167818358206    1.950801581571    0.912326378608
H     -4.003807719166    2.647368301008    0.751858607617
N     -3.125073035008    0.977906000519   -0.169495771411
C     -2.990070303898    1.344903288107   -1.473254592773
O     -2.911642807199    2.521025094887   -1.810083302268
O      0.045076272363    0.216288041850   -0.497889191493
H     -0.416670844352    1.043492827685   -0.090000482842
C     -0.718548830303    4.275767659470   -3.696792070475
C     -0.540263249867    4.305714330922   -5.082502120098
C      0.597016766709    4.958831114852   -5.613184923589
C      1.508822428901    5.552680840756   -4.725215017811
C      1.329125205925    5.519308550005   -3.345125651060
H     -1.591798429334    3.762282697435   -3.284083321197
H      2.388922185827    6.059049829179   -5.132332827435
H      2.049463396428    5.994378034416   -2.681707125678
C     -1.552175773889    3.650515557550   -5.990910475564
H     -2.005911808455    4.377041804588   -6.686809709931
H     -1.092375914724    2.865051122301   -6.615172932139
H     -2.363943775895    3.189360063596   -5.410573026082
C      0.828894427179    5.017742937279   -7.101015359844
H      0.903852720991    4.007968967691   -7.540110812712
H     -0.004471028312    5.520658581788   -7.621156678193
H      1.754054220051    5.560400706640   -7.343158066215
C      2.493244050617    7.571507354274    1.752441630469
H      3.488429995244    7.139073464231    1.555044666460
H      2.411608424208    8.477646423755    1.129966154060
C      2.284718254769    7.871911836618    3.222445260715
H      2.375653239037    6.958023562846    3.829489557345
H      3.039395317401    8.595040673718    3.569284708246
H      1.286509031956    8.301347213924    3.397921850760
C     -2.885322028623    0.201033516879   -2.465835513722
H     -3.229228349936    0.545468701302   -3.449470343805
H     -1.826401990905   -0.094211125742   -2.543923989485
H     -3.466308631902   -0.682455510405   -2.160027182298
C     -3.342350482782    1.252533041069    2.249591097418
C     -2.462918576344    0.230397643325    2.646753985898
C     -2.617613940691   -0.398817922786    3.884439724934
C     -3.645398243339   -0.008239075860    4.748688200860
C     -4.516652347518    1.015629634115    4.366905247142
C     -4.366107496539    1.640050532308    3.125372862281
H     -1.641987003511   -0.062930224657    1.987623100254
H     -1.925772669676   -1.192370362422    4.178883057982
H     -3.764444426227   -0.498588190178    5.718280080321
H     -5.320721340623    1.329819323729    5.037418898612
H     -5.049358642872    2.440596666265    2.830887860584
N      2.007682663736    1.309658852199    0.095232722066
C      1.335168163310    0.179331783558   -0.235788674610
C      1.994173685731   -1.067577599860   -0.315579889355
C      3.333678149249   -1.140621236786    0.013401536393
C      4.002337380214    0.018514031482    0.430301671336
C      3.318655073094    1.231466531469    0.460440949984
H      1.408557705352   -1.937715127322   -0.613166581239
H      3.861383095163   -2.096853835759   -0.030534216547
H      5.050689977845   -0.014669587201    0.728726475854
C      4.019067000575    2.485698313390    0.903510719807
H      4.204131156469    3.155548105518    0.048520945916
H      3.402743287442    3.045524963238    1.623272846711
H      4.984194893316    2.245862504303    1.371065386754
