78

C      1.295218753039    3.851306828468   -3.447472417420
H     -3.128554900329    2.220676018457    1.668582756423
C      1.580812022235    4.920761875744   -2.414668141535
H      2.247109341168    5.685591678856   -2.857852553903
H      0.657867580595    5.457770291111   -2.149814423782
C      2.252053769803    4.412115955043   -1.137452991204
H      3.143298530458    3.807034905035   -1.348872570436
C      2.589314580621    5.528739411846   -0.189804027884
O      2.128386186855    6.645467146479   -0.236376195084
O      3.502553266545    5.151506736623    0.745880222301
Pd     0.929852350272    3.214306287455   -0.128987854438
C     -1.383105473282    3.781014378226    0.766221336261
O     -1.110209632676    2.540519995482    0.717919350101
O     -0.532516195874    4.644449520275    0.395632285096
C     -2.729139233222    4.255019386831    1.292581322321
H     -3.190826420420    4.868958739996    0.500666364566
N     -3.586274118307    3.115459842349    1.535153525869
C     -4.946250647526    3.211647056052    1.471385317995
O     -5.516132237630    4.270304974159    1.255977207686
O     -0.261333035729    0.693691124853   -1.188820454437
H     -0.568295359257    1.426722270832   -0.600271185878
C      2.334339454688    3.275646305963   -4.195736906554
C      2.109444992027    2.280143307530   -5.155211813762
C      0.786044411791    1.833957759591   -5.386314820791
C     -0.252235311638    2.411411775143   -4.644712362378
C     -0.008391094056    3.403716415030   -3.691196225575
H      3.360537599235    3.621954816631   -4.032887741008
H     -1.279438824103    2.077948064031   -4.819025563126
H     -0.842378839166    3.838218156505   -3.133044478332
C      3.263170031055    1.700742195061   -5.937213475777
H      3.349889316997    0.610410484533   -5.789487610308
H      3.140417391994    1.858462791678   -7.022538780918
H      4.218953533483    2.155868745653   -5.639130945392
C      0.496602715033    0.768937742348   -6.415561456058
H      0.817363969700    1.077875917280   -7.425458385021
H      1.030298742847   -0.171574366750   -6.194217245869
H     -0.578147680825    0.540282156648   -6.462584232434
C      3.907757875278    6.141761863256    1.706977559430
H      4.913738734794    5.829145382412    2.024650046838
H      3.978715624774    7.117158335145    1.203312679237
C      2.954436764153    6.214792224233    2.888120346040
H      2.857605561363    5.234214176821    3.380081908320
H      3.331438834594    6.935936505176    3.631203713014
H      1.958703292485    6.548843936095    2.562263245111
C     -5.707581188573    1.915114834310    1.698317919734
H     -6.338398817269    2.028320235955    2.593378923438
H     -6.383934449724    1.752047215999    0.845993679976
H     -5.060274759280    1.035046332361    1.823927818239
C     -2.565804834396    5.192007070393    2.525136495072
H     -1.920332291337    6.028374070681    2.217091305766
H     -3.565650663216    5.600672655260    2.731700641249
C     -2.009017518401    4.515535253408    3.756527638402
C     -2.866902585912    3.958907529054    4.719563471686
C     -0.622480461770    4.404545011312    3.958670006401
C     -2.358256874631    3.307794603277    5.847181422551
H     -3.948669470890    4.048798681014    4.587446706806
C     -0.110566180154    3.754133682910    5.085006459246
H      0.062327044133    4.838084442194    3.225415176483
C     -0.976853934769    3.201570386556    6.033169543082
H     -3.044471693718    2.886813767331    6.587038717842
H      0.971491302514    3.683332325632    5.225082150381
H     -0.577178020776    2.696187318148    6.916234680656
N      1.871164508084    1.399584259927   -0.602061197491
C      1.046818983964    0.501169970890   -1.143959858062
C      1.516872035977   -0.719253136512   -1.717334819125
C      2.849158553721   -1.013034895771   -1.660546857639
C      3.746789734873   -0.124246132689   -1.001177074206
C      3.213842791117    1.086607308672   -0.458253150643
C      5.126417478220   -0.413334142737   -0.847511452239
C      5.956533681106    0.452341031231   -0.163136329655
C      5.420797719484    1.633931993630    0.395000239595
C      4.080502123657    1.949779999516    0.253955117903
H      0.779757523403   -1.378301731132   -2.176159022178
H      3.234383525491   -1.939533007543   -2.094567445385
H      5.516738680812   -1.341583061096   -1.273189804077
H      7.017763569949    0.222411698769   -0.044339329597
H      6.071340235389    2.313571913620    0.950971618536
H      3.683724438451    2.865112970156    0.691784656199
