68

C     -0.537320957526    4.618972544534   -2.299551458354
H     -2.330441708138   -0.263197981551    0.612412853095
C      0.510094873921    5.004919243996   -1.348726970179
H      2.480455434593    3.690471028890   -0.455940573616
H      1.442430663051    5.338423073950   -1.811566613309
C      0.392292489584    5.225412337167    0.025967147697
H     -0.554760028690    5.090336809893    0.560092396504
C      1.398005564073    6.014743358869    0.801847342949
O      1.298529083983    6.244630665166    1.983637646355
O      2.421302419716    6.469506030294    0.046039748961
Pd     1.099580748469    3.164649859149   -0.119017141118
C     -1.885992097613    2.684310171733    1.025283703963
O     -0.831129443988    2.258560220629    0.385827330534
O     -2.049040608009    3.826833223423    1.424218732169
C     -2.989741287366    1.634655464939    1.305048109324
H     -3.934836130416    2.166310882055    1.127830749686
N     -2.969025779921    0.496910578463    0.405900219892
C     -3.531153307111    0.548660053915   -0.841960481332
O     -4.194069575625    1.499841774083   -1.225070906790
O      0.019111791511    0.062385216948   -0.280171647177
H     -0.437641876477    0.979377603723   -0.025660641339
C     -0.183221920955    4.476311504927   -3.657382815636
C     -1.108587674606    4.103607399011   -4.635288554616
C     -2.446531527266    3.850243834684   -4.245640190467
C     -2.802861190155    4.001083149011   -2.895538963860
C     -1.876191966457    4.389456268421   -1.932973560836
H      0.854217125941    4.660651170924   -3.952951751252
H     -3.824974134784    3.778073961845   -2.583207357104
H     -2.193248925242    4.501088810788   -0.895847438222
C     -0.685313960984    3.966732011363   -6.077200464077
H     -0.851586406300    2.943406562641   -6.454825539801
H     -1.260607398096    4.639649723431   -6.735619748896
H      0.381101121640    4.202112176083   -6.206563306067
C     -3.477109645948    3.423315014467   -5.258573055449
H     -3.624350678026    4.192312082476   -6.036800420642
H     -3.170931966440    2.502928831716   -5.784589882115
H     -4.448172038754    3.231551316928   -4.781275656238
C      3.440585988345    7.216615716257    0.726921368291
H      2.972786187322    8.064158196338    1.253185896155
H      3.898483120658    6.575590322330    1.498801825854
C      4.453856157866    7.676214102831   -0.300912096070
H      3.981832522190    8.319315509190   -1.059814146380
H      5.252844523151    8.253091436658    0.190461211799
H      4.914542425216    6.818057352980   -0.814586091975
C     -3.250594585978   -0.661569144781   -1.719038491614
H     -3.323764603314   -1.605858305868   -1.157003696335
H     -3.964178235189   -0.669973178475   -2.552190129202
H     -2.227974693010   -0.587459138222   -2.124040305857
C     -2.918914260370    1.186118310591    2.768117959986
H     -1.977747690771    0.647986850130    2.973766097721
H     -2.958058461034    2.063617727476    3.428576160787
H     -3.760911441708    0.519519509645    3.009653317413
N      1.992352196360    1.209995358555    0.059037774369
C      1.315431582735    0.067087044119   -0.115685948839
C      1.991124427554   -1.213612684594   -0.137564829923
C      3.398665176482   -1.251929440721    0.070571700505
C      4.069405665089   -0.012450669122    0.292340129601
C      3.352758107297    1.149705646266    0.274535253002
C      1.276374220485   -2.416669880033   -0.354356965719
C      1.943725025593   -3.627739558912   -0.369537823162
C      3.342331955111   -3.670877234007   -0.164132740152
C      4.057668786667   -2.507825747488    0.052640328623
H      0.198675050726   -2.366695296781   -0.511469008614
H      1.391650947784   -4.555038793690   -0.539632458766
H      3.860087026015   -4.633475282189   -0.176552791383
H      5.138276134387   -2.541583556205    0.212507737537
H      5.146105321074    0.013112710317    0.468603441626
H      3.840966247054    2.109807676625    0.432734406492
