74

C      2.315593227307    5.393986912409    2.593831006778
H     -0.230401860251    4.790050576350   -3.567937249717
C      1.088441329053    4.585009574586    2.251907531015
H      1.499890220572    3.454292932792    2.029074327387
H      0.471881729659    4.343799362986    3.130018762902
C      0.246309038352    4.990216063814    1.103946053421
H      0.568578057079    5.838916976324    0.491641182576
C     -1.234161892790    4.869445194242    1.281030637605
O     -1.763629027823    4.317214337930    2.223185713599
O     -1.899724777919    5.430572772376    0.261020789275
Pd     0.975349425175    3.234426456274    0.364320004270
C     -0.859534018499    2.817066811584   -1.821353315411
O     -1.391494375097    1.953028630882   -1.101712089514
O      0.239907108936    3.418733062475   -1.568032933339
C     -1.530349986270    3.190496420816   -3.153084392083
H     -2.615009960909    3.157843064787   -2.988803570836
N     -1.216709936267    4.557660211328   -3.529517384352
C     -2.111244153576    5.580296109692   -3.384103958750
O     -3.291504706273    5.402887926307   -3.116148823226
O     -0.085510922914    0.153251219084    0.159100883717
H     -0.548935752518    0.975179551991   -0.231498461740
C      2.495302139118    5.857428379475    3.904034531227
C      3.599183666064    6.638040792958    4.274651921921
C      4.568041178416    6.964796268826    3.297852477487
C      4.388236588753    6.492664412833    1.989416591005
C      3.283778230258    5.717361086342    1.634983289149
H      1.747830163715    5.608260437854    4.663189308001
H      5.135627479795    6.737600455099    1.229325180507
H      3.175581048906    5.360271484946    0.606441255518
C      3.746197813147    7.118962111416    5.697029804272
H      4.682241259154    6.755384266785    6.154178257340
H      3.779189935812    8.220423629169    5.751569074269
H      2.911164962269    6.777264909083    6.325306298561
C      5.772598300301    7.800220942853    3.652749476289
H      5.480200269482    8.791782299179    4.038451900116
H      6.379916617962    7.325235115682    4.442104928464
H      6.422021318988    7.958674900165    2.779720643522
C     -3.344834043171    5.322601657935    0.261574542990
H     -3.622985905107    5.400882064701   -0.797669922301
H     -3.617002617215    4.326636338354    0.639535108902
C     -3.984726111778    6.419349734945    1.095549003503
H     -3.676176136075    7.415691194505    0.741185584336
H     -5.081462979410    6.353898254748    1.010518288465
H     -3.717442415980    6.319722090855    2.158141797876
C     -1.532651754533    6.974748099757   -3.559597807951
H     -0.603449081153    6.990220731403   -4.148663879515
H     -2.286262623046    7.614711842193   -4.037980677201
H     -1.323008071300    7.390304395534   -2.560175242298
C     -1.136667768321    2.208360390087   -4.278726076354
H     -1.644414623128    2.557397068532   -5.195340354232
H     -0.052531508328    2.315409399913   -4.466118009734
C     -1.462200338218    0.719444432200   -4.054882209933
H     -0.912796314599    0.378143144232   -3.160126220751
C     -0.966792045389   -0.103850124836   -5.251521118157
H      0.111617857416    0.043551589155   -5.428438338082
H     -1.136056380669   -1.180813241802   -5.090694059949
H     -1.497253031111    0.181127640896   -6.176803010730
C     -2.954174719908    0.476392414268   -3.793287260950
H     -3.165195568648   -0.602425955999   -3.713195510951
H     -3.276895982263    0.944193218356   -2.852039748799
H     -3.574232104768    0.876868150206   -4.614544682192
N      1.924768015275    1.307151316219    0.028855321682
C      1.225953262886    0.155894117391    0.085392612251
C      1.905541408131   -1.087489281577    0.093797779026
C      3.283102158920   -1.113657561894    0.009598617335
C      4.017285880284    0.089347189923   -0.091063360894
C      3.274176083542    1.261572136083   -0.073243148357
H      1.305611083921   -1.996222253660    0.155305065207
H      3.808454548465   -2.073493928284    0.010386432932
H      3.775367115058    2.231864912888   -0.134190282796
C      5.519732281396    0.100372783306   -0.205871105793
H      5.912387317241    1.127038491032   -0.250486149342
H      5.993002380421   -0.402478088627    0.653967997441
H      5.857511719165   -0.426437373470   -1.114159206589
