39

Pd     1.234378556313    3.001155194040   -0.620818392734
C      0.405020753824    5.689834702472   -0.588539413466
O      0.787226215769    4.739736371133   -1.415515797750
O      0.206464764954    6.833959000528   -0.926336036060
C      0.229031127655    5.215369302425    0.878661667163
H     -0.737295214997    5.635871262405    1.199795524978
N      0.157668552320    3.752440511481    0.876587944247
C     -0.781501363693    3.045629114242    1.518477154580
O     -0.999619396594    1.834000602022    1.320769951069
O     -0.086623218738    0.137783897973   -0.244387753439
H     -0.464797468488    0.938773749672    0.303573014720
C     -1.630183065377    3.753261146931    2.566274751779
H     -2.088567296709    2.979721120153    3.194580052821
H     -1.050869297732    4.448354566858    3.189454982961
H     -2.437741791636    4.320385835289    2.074825666621
C      1.315296261378    5.786037310095    1.797650724781
C      2.019114104096    4.967346921213    2.692069900463
C      2.983201463290    5.510466246469    3.549771630620
C      3.255070055142    6.879666580019    3.524528145960
C      2.553467930930    7.703028066177    2.637112321801
C      1.590165104528    7.164382243659    1.781868982160
H      1.805738824529    3.897337212355    2.721583418840
H      3.520208121093    4.856622755324    4.242321247469
H      4.007083848355    7.305038329895    4.193993972523
H      2.757241251967    8.776669900736    2.609466377227
H      1.051820792010    7.805543561743    1.081456623594
N      1.973000317225    1.146121899142    0.009817136382
C      1.205043466151    0.028369944836   -0.093927490514
C      1.798294433476   -1.255124906297   -0.060493545873
C      3.159632972356   -1.362563387432    0.143472707356
C      3.930884762619   -0.201081657754    0.314711406404
C      3.316750069445    1.042854596600    0.238752443471
H      1.144313011608   -2.120323949078   -0.170841569878
H      3.632917080827   -2.346812479463    0.188086750905
H      5.004901742237   -0.260632046942    0.494179122954
C      4.111149981003    2.314080438370    0.377682389584
H      4.151656039265    2.873324806782   -0.573114106904
H      3.665776731548    2.985498706040    1.127604264040
H      5.145754430221    2.092364999792    0.673336551169
