72

C      1.305838940659    3.906096209462    2.577428121245
H      0.954622226370    4.236144207653   -3.936070803314
C      0.510365883836    5.159639472146    2.202614431264
H     -0.292468611852    5.331068539357    2.937442098194
H      1.178289093828    6.032679830063    2.208983793840
C     -0.044178671725    4.908371516171    0.802357579566
H      0.244140837334    5.634543682729    0.032889268928
C     -1.495001105508    4.559193720792    0.734529263822
O     -2.123515572900    4.057838189625    1.648255928094
O     -2.028962946800    4.855099049149   -0.462083812680
Pd     1.034384657002    3.221794959950    0.374594805858
C     -0.252663556936    2.711526040369   -2.144656738139
O      0.659388579799    3.458591366651   -1.663109999302
O     -0.779348770389    1.740275454529   -1.562975719331
C     -0.742203272404    3.039494761168   -3.561409290224
H     -1.790271153893    3.361260531150   -3.455153596617
N     -0.035880705933    4.163905649746   -4.135802957349
C     -0.696428045933    5.258430443214   -4.619479475598
O     -1.914093881863    5.306889448693   -4.717238902346
O      0.542453978605    0.042493419844   -0.247083578285
H      0.011550072022    0.829654305284   -0.656385093690
C      0.626133313959    2.666925387630    2.714857368355
C      1.276043902827    1.506497503662    3.202954239408
C      2.637065665623    1.579164763259    3.542645386716
C      3.318310495576    2.807834977963    3.385309218782
C      2.682481643868    3.945360988262    2.911036244692
H     -0.459200777882    2.650855845250    2.579154697010
H      4.377476249337    2.859088036236    3.653010040679
H      3.230897684873    4.887145374240    2.824009390873
C      0.496679520094    0.225569760750    3.358001929327
H      0.873684173691   -0.562357425718    2.684097004945
H      0.569493674478   -0.171542618216    4.384042574327
H     -0.565999443080    0.374721547207    3.122742877534
C      3.366840757033    0.371216498433    4.072936962096
H      2.917440645281    0.009434377034    5.013290739819
H      3.321878969329   -0.470583943156    3.361915254247
H      4.425670696278    0.592721486190    4.268390955672
C     -3.404031799176    4.490252110415   -0.703396389784
H     -3.414240773857    3.437885571042   -1.034816790792
H     -3.955899168222    4.545203896968    0.246180427559
C     -3.972727166672    5.420109657747   -1.756717586738
H     -3.399690097300    5.377499408463   -2.695823662306
H     -5.014464641833    5.135113247377   -1.974807813511
H     -3.972847660538    6.461343444595   -1.397103517432
C      0.185724872775    6.425169819762   -5.031949922639
H     -0.134640991219    6.775836953908   -6.023594114169
H      0.023943835364    7.254641354309   -4.325407813438
H      1.257949167307    6.181564208963   -5.057616813764
C     -0.754032124449    1.779626482722   -4.467298132425
H     -1.413681171811    1.043461071875   -3.986496853223
H     -1.222915125492    2.075491520316   -5.418626699982
C      0.602671317730    1.162115617204   -4.725910816069
C      1.431549995391    1.640706576585   -5.755269503352
C      1.072890757072    0.098552918343   -3.935610476799
C      2.691215008210    1.079535829938   -5.985371960894
H      1.078055098425    2.457850389067   -6.389941754654
C      2.329979985080   -0.468214962108   -4.167043642964
H      0.445404215269   -0.291216506268   -3.130389766754
C      3.145416535603    0.021894956925   -5.191544263077
H      3.317138687748    1.463921676281   -6.795397907334
H      2.665575601445   -1.302590048494   -3.545251268304
H      4.126588599520   -0.423274347364   -5.376438551772
N      2.341998136103    1.475650862952    0.003548614347
C      1.831694655943    0.240569476395   -0.157216997507
C      2.716032599501   -0.876503111751   -0.198602336939
C      4.085275140790   -0.688873570380   -0.109349895075
C      4.574683553482    0.619226574176    0.018531744877
C      3.671820799185    1.671019569995    0.068529177129
H      4.763996251500   -1.541413150112   -0.152722995000
H      4.017705280957    2.700363922408    0.175946212909
Cl     2.051604451256   -2.468320755090   -0.394255969861
Cl     6.287169957309    0.923110632177    0.124089391107
