53

C      2.060470663291    3.110239268095   -2.336612392325
H      2.866998041293    2.373743408467   -2.374834001269
H      2.320609511487    4.170526564246   -2.328528720262
C      0.768004388955    2.709565039883   -2.572652031174
H     -0.028700481017    3.441200122862   -2.727033333200
C      0.444542947189    1.279575075450   -2.891771021957
O      1.265286782909    0.395119490273   -2.978531318804
O     -0.868570831185    1.123833969223   -3.071617114372
Pd     1.000464251863    2.958708086955   -0.336368322468
C      0.116283699983    5.533471772437    0.443122716383
O      0.258601197117    4.778797579601   -0.633672296207
O     -0.237985623164    6.690726898654    0.384120766900
C      0.466251100709    4.834009954418    1.778906543866
H     -0.304491812472    5.147283080288    2.496689711354
N      0.390273948362    3.386310347943    1.554632983589
C     -0.481998633439    2.597149429510    2.189209884879
O     -0.771003605674    1.434385610751    1.814384968424
O     -0.037676533393   -0.030010379843   -0.015913164251
H     -0.391604915375    0.690583995742    0.675628754159
C     -1.346743767606   -0.219718328811   -3.289318443582
H     -0.780987791738   -0.665010703865   -4.123044485803
H     -1.127588436347   -0.804043604176   -2.381991283745
C     -2.831117927123   -0.146696739474   -3.576046966174
H     -3.032764797728    0.454804601612   -4.475873411654
H     -3.228296859821   -1.160189535979   -3.741983694866
H     -3.374092811393    0.301791808890   -2.730243903567
C     -1.205802288779    3.090852233425    3.434840231750
H     -1.657387092297    2.218680195424    3.922641911838
H     -0.545375372822    3.610715190265    4.140739886176
H     -2.014208302823    3.784900073503    3.151718441339
C      1.842919814719    5.343508434874    2.358020559792
C      1.651559009826    6.785864845807    2.867116189616
H      2.603350531614    7.181408656458    3.257730545554
H      1.292353228284    7.449071325807    2.068605264218
H      0.914376961803    6.820362927703    3.686435091331
C      2.270694612176    4.448538928600    3.534522393168
H      1.526686063961    4.465117817069    4.347097537959
H      2.410834768222    3.402942451619    3.222014859507
H      3.221777196035    4.810317052372    3.957731167356
C      2.953438953738    5.333656854979    1.290587968072
H      3.112347815046    4.324876150951    0.875634775973
H      2.723246856051    6.013138004814    0.455484663412
H      3.907680681058    5.661341628801    1.733591193850
N      1.945702189936    1.124865564437    0.055873075294
C      1.269398173155   -0.048918713045    0.028035979775
C      1.974917174384   -1.275058520248    0.041574595293
C      3.353422517272   -1.271932752550    0.136992667440
C      4.037004578521   -0.046048553879    0.227990666693
C      3.293407301214    1.118688132825    0.179051416270
H      1.391484209260   -2.194916788071   -0.005041201847
H      3.905081922194   -2.215252467398    0.156395349242
H      5.122292838171    0.002333589788    0.323868532247
H      3.776234342302    2.097486553024    0.224945914707
