72

C      1.645945687053    3.987438011787    2.227396604685
H      0.579885576853    4.371854660768   -3.912024441721
C      0.962586586743    5.265530679957    1.738843481883
H      0.280209830535    5.649317603608    2.514210911786
H      1.723387558546    6.032859684148    1.537087806936
C      0.217692625738    4.888666620603    0.460375548600
H      0.485384857473    5.455569097418   -0.438792713060
C     -1.258735577080    4.709408263568    0.603178174468
O     -1.812781516787    4.423444005293    1.649059544526
O     -1.908424147253    4.883541268120   -0.560344816948
Pd     1.010941110249    3.018824668667    0.189503018711
C     -0.423088375892    2.514194362174   -2.274943833397
O      0.598904332954    3.147104426334   -1.845706451883
O     -1.075193289055    1.663084864449   -1.644646329436
C     -0.840358980175    2.821416309961   -3.722686761161
H     -1.936927297934    2.862543863669   -3.740763368042
N     -0.376257857762    4.130715649649   -4.145266723598
C     -1.232727093062    5.103359571643   -4.573046923439
O     -2.430805497344    4.911330245752   -4.728208714852
O     -0.100136458348   -0.055214629269   -0.079195314427
H     -0.469825378851    0.751229106710   -0.610956576119
C      0.852541561299    2.877115232190    2.618656260816
C      1.423337694769    1.727991460363    3.222575104140
C      2.812990127258    1.673951044899    3.414579778670
C      3.603557331375    2.768913149509    2.995671965414
C      3.047537390221    3.896990201348    2.411579791676
H     -0.236073367275    2.982998665549    2.601059102376
H      4.685800203819    2.721931828529    3.146392442199
H      3.683712623183    4.737730773708    2.122543846548
C      0.529241539390    0.599479944301    3.668108936925
H      0.801327415342   -0.349944501576    3.177457582189
H      0.612417120645    0.425951173586    4.754497061309
H     -0.524150073253    0.806373076757    3.435012315800
C      3.461361769445    0.476990449667    4.062382643592
H      3.088934890143    0.324388304522    5.089617360968
H      3.241315618850   -0.449575231534    3.507001647129
H      4.553707609689    0.584954443900    4.107005510714
C     -3.328124694857    4.614981752404   -0.593836547699
H     -3.450451292826    3.551771862217   -0.860465575605
H     -3.735344462650    4.760673649745    0.416496003117
C     -3.980987501900    5.526325632828   -1.613559081757
H     -3.575027998464    5.371110968101   -2.624642239230
H     -5.063023399000    5.320260587262   -1.645831774148
H     -3.845669719245    6.583743660147   -1.335088180931
C     -0.599721408253    6.461718496965   -4.825344418280
H     -1.043292534366    6.893286460483   -5.733241121411
H     -0.850583646701    7.129053182709   -3.984978584277
H      0.494480130834    6.422831239962   -4.931755660550
C     -0.384482501351    1.706680913151   -4.662829452439
C      0.945786186188    1.257795303499   -4.661750551340
C      1.362993201895    0.268035949983   -5.555208567825
C      0.454820560584   -0.287265230908   -6.462419058488
C     -0.871184832249    0.154379229927   -6.470484626809
C     -1.286967469972    1.145704427982   -5.576640632022
H      1.661215695758    1.684887371600   -3.953190439812
H      2.401678855116   -0.073047235854   -5.541918251816
H      0.780333746894   -1.062841877451   -7.160560041744
H     -1.587361319642   -0.274171945422   -7.176507230470
H     -2.322768221458    1.494744126098   -5.589918412711
N      1.943577157774    1.024032692160   -0.016908452991
C      1.201706342159   -0.107167064326    0.006836405529
C      1.825831888537   -1.373822341498    0.155014585098
C      3.200584097111   -1.451253097922    0.241828982096
C      3.961243885786   -0.267071469173    0.175854309254
C      3.283535213461    0.937060594293    0.044756483563
H      1.188792541665   -2.258553420116    0.173130940078
H      3.697191484457   -2.419116865881    0.341531058370
H      3.831044427224    1.880398051989   -0.001181163998
C      5.454496342238   -0.293298414084    0.331567742840
F      5.818430370460   -0.329261314327    1.634136046205
F      5.996092233737   -1.378245316140   -0.247427527860
F      6.036245230643    0.793436134039   -0.202941694323
