40

H     -2.582514059759    5.459599961182    0.848894628451
H      2.421400354401    3.668302519889   -0.649410298281
Pd     1.095820658354    3.111341741137   -0.153555589684
C     -1.602881874411    2.698041563236    1.439203804039
O     -2.491332744031    2.029181559910    1.929035990882
O     -0.829367629469    2.315738502131    0.462229500894
C     -1.284391299689    4.157266453524    1.898625039729
H     -0.188277188517    4.213081135305    1.997261916391
N     -1.643838615004    5.077500579685    0.813289592844
C     -0.884967806441    5.435617579276   -0.230744093584
O      0.256947987375    4.992934776594   -0.470278301740
O      0.015126262683    0.083837527004   -0.178643172475
H     -0.455924311811    0.974951187924    0.077690496203
C     -1.454770430434    6.471708300213   -1.171040517658
H     -2.423128461234    6.874285158925   -0.842967649540
H     -0.730629918231    7.294488736886   -1.264462279777
H     -1.565002574240    6.020588250666   -2.169041771763
C     -1.899569327235    4.623466923616    3.252116345881
C     -1.450444268017    3.642494935526    4.353391984776
H     -1.795023951396    3.998307836975    5.337441581538
H     -1.860031655603    2.638470895076    4.183547898903
H     -0.350490011827    3.569403884493    4.394770030227
C     -1.351061103790    6.025315193423    3.588980875523
H     -0.250749277682    6.020528548060    3.658028496406
H     -1.635441155324    6.776851205266    2.835474018759
H     -1.745641617479    6.365029147800    4.559649483113
C     -3.440305820325    4.669209119564    3.201022382515
H     -3.816002993378    5.424096135346    2.486073725288
H     -3.850358502106    3.688695862336    2.926513068561
H     -3.839915604407    4.958613792349    4.186009735832
N      2.018425602092    1.258204715740    0.015887905518
C      1.308885230660    0.102927325028   -0.076121740666
C      2.010824429594   -1.144161686984   -0.076519667906
C      3.384657589539   -1.183550232117    0.054500485994
C      4.076449730611    0.030990541147    0.184712395257
C      3.369080160325    1.218324985869    0.157160462861
H      3.913061012907   -2.137343816782    0.063608980323
H      3.883096868133    2.172771482763    0.241025664611
Cl     1.095202489885   -2.607590296830   -0.227330014834
Cl     5.808667834940    0.050269911714    0.367819428602
