40

H     -2.533849010631    5.511118423325    0.906781991201
H      2.404769918988    3.615702135991   -0.710996974558
Pd     1.091006517551    3.079762751512   -0.159438850726
C     -1.595480879709    2.752183552583    1.465769711469
O     -2.556880357322    2.173532099114    1.933931628858
O     -0.818039983315    2.303767435091    0.525909107929
C     -1.218052112338    4.195675476149    1.924658926898
H     -0.120265464054    4.248968206076    2.012237390641
N     -1.598211561685    5.123221441445    0.851246683657
C     -0.875278594428    5.437401491667   -0.233303431997
O      0.245544857883    4.963833144477   -0.503724586773
O      0.016158019855    0.052672119463   -0.136929445144
H     -0.446904484358    0.934201227807    0.116952766305
C     -1.462891365079    6.460638386292   -1.177544090337
H     -2.404280883197    6.898496927794   -0.817452035391
H     -0.723390232575    7.260538811429   -1.329908075806
H     -1.632015029423    5.983249594668   -2.154954826766
C     -1.858350012799    4.610934996501    3.261822108992
H     -2.946889861239    4.451608479946    3.154719471069
C     -1.370077207408    3.696827683328    4.393772124123
H     -1.844885084274    3.980247473482    5.346317091531
H     -1.617638523855    2.646692486037    4.190765654557
H     -0.278000424992    3.784866090174    4.529071423792
C     -1.588220686522    6.082666045751    3.605544566746
H     -0.506308843069    6.272110928356    3.711710690837
H     -1.970966694285    6.779851784764    2.843926632165
H     -2.066195334562    6.346951780368    4.561863102375
N      2.015053212658    1.238031953880    0.037265708660
C      1.321940007380    0.073712834939   -0.034542099889
C      1.985806872419   -1.191545822321   -0.017725598101
C      3.363894409492   -1.202326742306    0.113298944693
C      4.074318872563    0.005201698359    0.225000447474
C      3.368297827617    1.189177454258    0.178408970864
H      3.894648366841   -2.158285456233    0.137203737994
H      5.159134162719    0.023250126968    0.337530616707
H      3.872652773988    2.151158224048    0.245867890001
C      1.152932671968   -2.437447460296   -0.126112407304
H      0.410974386272   -2.486359203084    0.687208007291
H      0.576724932524   -2.447605894004   -1.065624140027
H      1.782314302580   -3.338205952488   -0.088244258115
