77

C      3.719348680560    4.884117144470   -0.658582027051
H     -2.901358206582    5.981249349177    0.324559841687
C      2.787763264717    5.195100286878    0.493274607644
H      3.314500665793    5.828953868880    1.230674331206
H      1.931290574170    5.794920328198    0.148763129713
C      2.268730545930    3.956063187116    1.220060047433
H      3.072305729976    3.262909544219    1.504675936250
C      1.421370222573    4.279473935125    2.420925172193
O      0.902520606942    5.354733485992    2.637777282085
O      1.289185820740    3.216849297142    3.241675670729
Pd     0.934738834860    2.913995271763    0.066123769181
C     -1.476150999829    3.523796473164   -0.376654535364
O     -0.573749493812    4.360304477856   -0.063033725245
O     -1.166371985508    2.338501223450   -0.706097691207
C     -2.942908050177    3.964427977916   -0.301278897296
H     -3.483120765620    3.093185718988    0.097920696832
N     -3.072547168552    5.042037500211    0.664678798514
C     -2.770514252413    4.808887122446    1.984678106247
O     -2.646763354628    3.674837961772    2.425383743934
O     -0.005287052922    0.029855427677    0.242394482149
H     -0.422896532206    0.896783796580    0.003689362775
C      5.100606867921    4.744862953243   -0.451610294653
C      5.991053482283    4.427709316242   -1.487760586829
C      5.484431595785    4.239393299190   -2.794914707782
C      4.105580210834    4.381943747213   -3.003841107411
C      3.233493049962    4.699071629921   -1.959673566695
H      5.502036904073    4.898733387459    0.555688395934
H      3.705043145342    4.245413503928   -4.012793963225
H      2.163272400911    4.806284408452   -2.156561593388
C      7.469570871758    4.302962849268   -1.210037380523
H      7.855017482464    3.305077838963   -1.481464113126
H      8.056370234145    5.031552525972   -1.795597305759
H      7.694016920165    4.471491511481   -0.146663286860
C      6.405658605054    3.904203596724   -3.942182168756
H      7.166453835457    4.688457689004   -4.098163658596
H      6.958407155792    2.965658036746   -3.763935542827
H      5.847307224553    3.789282061733   -4.882687858980
C      0.382454659328    3.351934305692    4.352725894894
H      0.635656399845    4.268181494681    4.910003782867
H     -0.640432772028    3.466217459753    3.957916609991
C      0.513814896569    2.113078951341    5.214839673136
H      1.541878456862    1.998131462784    5.593309116206
H     -0.166642576050    2.184423068579    6.077939757069
H      0.250715026829    1.207279615544    4.646992318515
C     -2.559967256854    6.039690719779    2.840522226581
H     -2.978782098626    5.858317725790    3.839892280369
H     -1.470703826709    6.180590019543    2.945326283766
H     -3.004043413300    6.950910299593    2.412826331060
C     -3.571025787125    4.328515324586   -1.687431330284
C     -3.505871621347    3.103150949792   -2.619006246145
H     -4.001052559843    3.334733806853   -3.575708517994
H     -2.471318330750    2.799671699945   -2.831934585879
H     -4.019131183848    2.236215070732   -2.173481162426
C     -5.049413274092    4.705683707707   -1.469996335897
H     -5.605558155634    3.873527704727   -1.009286580245
H     -5.158763319410    5.581519898623   -0.813867628868
H     -5.528303768154    4.939080416685   -2.434561408420
C     -2.823898661186    5.504662259810   -2.346845092024
H     -2.878067249171    6.428846353720   -1.747668487059
H     -1.759593839580    5.274253023363   -2.508429835824
H     -3.271973493756    5.735278440336   -3.326500741246
N      2.015150590692    1.152501865278    0.077265865052
C      1.314623562014    0.022271340626    0.183954378876
C      1.958052504308   -1.264080536001    0.247944746811
C      3.379597709219   -1.314065449155    0.156631915025
C      4.081470511011   -0.083246965682   -0.005737330540
C      3.383141662340    1.091339520816   -0.039935386356
C      1.211970159561   -2.460395582792    0.393507900895
C      1.864706515339   -3.676824596373    0.454615502857
C      3.276168936460   -3.733682579151    0.367541498065
C      4.020254884071   -2.578530422005    0.220031913915
H      0.125141680199   -2.399013639790    0.457093035568
H      1.291227811388   -4.599585292646    0.569057871057
H      3.780313477044   -4.702303184241    0.416242083008
H      5.109926008684   -2.624101456995    0.150532605658
H      5.168158067195   -0.073232229444   -0.104957248750
H      3.885898675356    2.049380898651   -0.171413365154
