76

C      3.710696013670    4.859145276984   -0.645702970164
H     -3.015348013647    6.043661338465    0.341688045873
C      2.795072347434    5.185729330763    0.514333353513
H      3.336727089723    5.817911881844    1.242268461544
H      1.941953184295    5.793914498289    0.176329692405
C      2.266978224600    3.959882434349    1.257593373000
H      3.063717300433    3.259734466355    1.545279449172
C      1.435788863661    4.315058123019    2.462751572643
O      0.956358920667    5.408236328266    2.678030645966
O      1.273928503642    3.261349618742    3.288392200193
Pd     0.920582032867    2.915581159012    0.121350799812
C     -1.497479263340    3.537335024247   -0.249546432909
O     -0.585883062806    4.359551378472    0.072480560688
O     -1.213356826991    2.362294941006   -0.625752754461
C     -2.957963827285    3.990200011944   -0.165308394809
H     -3.505755152664    3.135596552065    0.259411520880
N     -3.094589126645    5.114021727218    0.737400622365
C     -2.769009047863    4.957082509313    2.061214831828
O     -2.613745221793    3.847698016580    2.552272523665
O     -0.007912458589    0.024118516823    0.268015947792
H     -0.429044996672    0.891231196827    0.047238111664
C      5.092357883289    4.704292580674   -0.452238725619
C      5.968751492909    4.374504407450   -1.496380746533
C      5.447009267052    4.189395878134   -2.798051870577
C      4.067953241199    4.347987572684   -2.993663557102
C      3.210016376928    4.677645066150   -1.941673588994
H      5.505481118569    4.855805172636    0.550682948555
H      3.655805140428    4.214260419952   -3.998309236700
H      2.139332446154    4.797465943777   -2.128692239736
C      7.448473813864    4.233507149242   -1.233077449265
H      7.820156020735    3.231005403563   -1.506717024833
H      8.037599708981    4.954622708005   -1.825514028441
H      7.685297241935    4.401113021275   -0.172244996968
C      6.352865840633    3.841313105443   -3.953729046018
H      7.120706403286    4.616713297972   -4.119269959983
H      6.897067564607    2.897118542842   -3.778876512242
H      5.783797473274    3.730516778737   -4.888296126849
C      0.383962278968    3.435176104291    4.408272927443
H      0.685737826954    4.336591423753    4.965761714008
H     -0.635609702915    3.599014959501    4.023129378396
C      0.465286421466    2.188386078716    5.265023513886
H      1.490349081574    2.023344866129    5.633238873592
H     -0.202764001578    2.288646616242    6.134932773593
H      0.153761187084    1.298440193024    4.696598317453
C     -2.568960761063    6.230892409350    2.853366094099
H     -2.984990652529    6.096983960520    3.861367023160
H     -1.480588328794    6.383125759739    2.950297196638
H     -3.019381996105    7.116769411429    2.381498466541
C     -3.510185654312    4.302223996782   -1.571733356511
H     -2.923321790567    5.126322356677   -2.011889591340
H     -3.320138896391    3.413438392305   -2.193944460469
C     -4.983171214663    4.650138457300   -1.591148068387
C     -5.954128563059    3.662365016393   -1.356667664441
C     -5.414442597378    5.962760356311   -1.832568504220
C     -7.313982329080    3.979117985753   -1.358106202220
H     -5.640704192922    2.630318152995   -1.172903185786
C     -6.775602580481    6.284834107920   -1.835716724650
H     -4.674601313602    6.744675720425   -2.029617863778
C     -7.730094415828    5.293476671546   -1.596702438946
H     -8.053822711321    3.195430262973   -1.175098551553
H     -7.089693468989    7.314132391519   -2.028034024476
H     -8.794514923414    5.541650095198   -1.599310070213
N      2.018904965600    1.162455198298    0.079306633508
C      1.310250273910    0.026956894067    0.176656747123
C      1.963510373891   -1.246463110810    0.195485897255
C      3.345611740011   -1.284985260946    0.070996602178
C      4.058021207845   -0.079987716820   -0.072217416562
C      3.370277462970    1.114728400945   -0.063837576415
H      3.877809777638   -2.236422586087    0.072290115016
H      5.142426301371   -0.082438505436   -0.189847580057
H      3.877578853568    2.072294898115   -0.178083039441
O      1.146223900880   -2.308200931926    0.326873337667
C      1.709300194558   -3.601524654756    0.361631684519
H      2.402478946628   -3.722488309086    1.213654252472
H      0.872279402662   -4.301723467651    0.479377066655
H      2.247460654019   -3.838175850417   -0.574144172617
