73

C     -1.502140655896    3.859878019252    1.963473063607
H     -0.088093914588    4.454466165421   -3.350491092235
C     -0.208041655128    4.480586042613    1.637985887933
H      0.421704094976    4.606843859321    2.524158527092
H      1.901362181569    3.240390191188    1.553715381471
C      0.280956676337    5.138441634307    0.502896320475
H      1.230529746001    5.669518096668    0.621319465688
C     -0.443910344627    5.648974566712   -0.703768262712
O      0.137683796215    6.054458004915   -1.687929778439
O     -1.770436615222    5.692091407049   -0.554301828625
Pd     1.037929905459    3.080653693406    0.324345131968
C     -0.628099165563    2.199668566083   -2.379306278814
O      0.030966073511    2.971109915529   -1.667590559746
O     -1.108497203037    1.065876632144   -1.984395954968
C     -0.895042880921    2.546470515726   -3.836249081792
H     -1.954420639217    2.333918332085   -4.053309136481
N     -0.657770557235    3.963139435105   -4.035246260053
C     -1.186277038917    4.633035420465   -5.104953763886
O     -1.905103921610    4.084625731585   -5.926782433180
O     -0.059981071975    0.252782599711    0.113224906580
H     -0.722494064658    0.773341276301   -1.051310051777
C     -2.361771305882    3.252861131487    1.026796574985
C     -3.559577618805    2.644093460083    1.403793004805
C     -3.942061090637    2.653422888887    2.769416823085
C     -3.086431636927    3.251446028658    3.704685017043
C     -1.877945854925    3.826936845817    3.318913881320
H     -2.076144332190    3.236351995126   -0.023016778625
H     -3.367332538534    3.251396535149    4.761281571894
H     -1.220666063732    4.263750333282    4.075491852228
C     -4.426319655850    1.973806955745    0.366526438905
H     -4.622961559552    0.920295677442    0.625286996726
H     -5.410685707307    2.464921924119    0.277327979500
H     -3.947489742767    1.986152111706   -0.622675781173
C     -5.232316081089    2.014495431572    3.211846544050
H     -6.101322598088    2.458616740843    2.697487371686
H     -5.249083953878    0.936475845880    2.977118127467
H     -5.386208522413    2.126081446642    4.294566282732
C     -2.548822164531    6.247265341770   -1.635392141476
H     -2.135994313706    7.234975010780   -1.894068810195
H     -2.429630304327    5.598752913425   -2.516827862175
C     -3.990588535800    6.333996055755   -1.181996066450
H     -4.087882556725    6.980406267034   -0.296429289673
H     -4.607644636523    6.757355670347   -1.989547484785
H     -4.389400195744    5.340071556111   -0.928918590620
C     -0.796715032824    6.098807424541   -5.206104490364
H     -0.050066992999    6.209373978971   -6.009177690451
H     -1.682006032579    6.677291940969   -5.506480735932
H     -0.377712433209    6.500777695765   -4.272865897619
C     -0.051452352813    1.658030122609   -4.815804465043
H     -0.242527378990    2.129377635752   -5.794090886004
C      1.449163888487    1.743251005497   -4.516394011444
H      2.041422585622    1.292826361784   -5.326590063810
H      1.777989783350    2.788944937804   -4.414898251952
H      1.711744452488    1.212521927088   -3.584885283927
C     -0.575856292841    0.213571599342   -4.907607838914
H     -0.376216953602   -0.320526695867   -3.964122028110
H     -1.674908498959    0.247297196983   -5.006251866554
C     -0.000673843078   -0.581184036614   -6.082990263703
H      1.086939347604   -0.731126178002   -5.992024055682
H     -0.462008600202   -1.579721020222   -6.142767999323
H     -0.187526867541   -0.070967788550   -7.042767629140
N      2.010913556460    1.231782651245    0.135882137631
C      1.191259132859    0.110120756230    0.128487819949
C      1.825506182760   -1.182649677734    0.139098025645
C      3.192056346480   -1.304301232361    0.129897158139
C      3.970699551765   -0.126995549283    0.116411066714
C      3.346882467081    1.110402533837    0.129924496296
H      1.167223659880   -2.052219508789    0.147193051888
H      3.692686355880   -2.273242985350    0.130339137538
H      3.949151404804    2.019143590370    0.140650739835
N      5.425244256544   -0.195950403971    0.105219048639
O      6.049179850043    0.857451352975    0.097662456374
O      5.935266408321   -1.307871704984    0.104029275983
