32

Pd     1.179324201209    3.008032499286   -0.594956381744
C      0.330911344256    5.683228055731   -0.509097500373
O      0.679739302164    4.741764754020   -1.366280854067
O      0.190127297810    6.845426599621   -0.809000113814
C      0.146305140116    5.186423371613    0.940691945822
H     -0.833244456783    5.568286598071    1.267555807028
N      0.132663375347    3.716004803915    0.938917829352
C     -0.745001253681    2.969596559103    1.616732333986
O     -0.918374733043    1.745972490771    1.437936966208
O      0.001273090866    0.018770909316   -0.073242166508
H     -0.390816244782    0.833448704113    0.453840908422
C     -1.600004298688    3.642099349355    2.683724999346
H     -2.001296777621    2.851253416963    3.329213663560
H     -1.044417969697    4.370972502969    3.289061446659
H     -2.447595795701    4.164307903508    2.210119637265
C      1.233463567007    5.784201711356    1.840494691933
H      1.081184897432    5.501424745679    2.893487123582
H      2.231366114338    5.433972326511    1.531682407259
H      1.209135644074    6.880907552108    1.758225824212
N      1.985615632564    1.184119276537    0.006829306468
C      1.305454328354    0.013341488254   -0.031318710861
C      1.993320893304   -1.237400817868   -0.045490671972
C      3.376866509624   -1.213457288925    0.039755718670
C      4.071731011702    0.006393525585    0.141389244241
C      3.339697548146    1.175662497304    0.122615793416
H      3.929191848844   -2.157362682729    0.045020759914
H      5.158125830213    0.039787481519    0.231162987046
H      3.821958972503    2.154203252769    0.191877412298
C      1.185436346573   -2.500889915591   -0.128702978660
H      0.468925433366   -2.561362273364    0.706177989914
H      0.583296632333   -2.525135655876   -1.051542528573
H      1.833076000445   -3.388844918679   -0.107852087269
