65

C      3.717683824675    5.167287283723   -0.641183309882
H     -2.653696292079    6.183374965546   -0.020631995423
C      2.794514940130    5.279662884393    0.552471372992
H      3.281790105323    5.893847337591    1.332110529473
H      1.880452739142    5.827047569521    0.278197647039
C      2.388621568938    3.955251999665    1.199650468618
H      3.244013737000    3.314716891189    1.455230972602
C      1.500356939014    4.163142014587    2.398550259180
O      0.956227147633    5.210164094101    2.682384692336
O      1.354815693396    3.040638654619    3.132677998721
Pd     1.137714306300    2.867323654729   -0.009632593809
C     -1.198990219274    3.593603578489   -0.634178549993
O     -0.239780405464    4.396260428348   -0.402981025854
O     -0.989271677473    2.361925576085   -0.822474392917
C     -2.618023468522    4.155709064862   -0.638442509933
H     -3.303459096934    3.328302866346   -0.408041484536
N     -2.771690659605    5.234972970361    0.314065274653
C     -2.508914593886    4.985558737524    1.637880498981
O     -2.369504621921    3.841334747890    2.047640674898
O     -0.180613318000    0.392589386670    1.041375925138
H     -0.471945026706    1.160098789020    0.488809487247
C      5.111027227593    5.216804347529   -0.485577057706
C      5.996193157206    5.107710687881   -1.567918857676
C      5.471125192931    4.938809912844   -2.870539173935
C      4.078690982986    4.892626785531   -3.028268084173
C      3.211674635308    5.007090875782   -1.938866857961
H      5.525687453751    5.353391451922    0.518614450649
H      3.662420777047    4.770651157535   -4.032743005498
H      2.130230652164    4.975415436562   -2.096147808779
C      7.487188686684    5.183685437005   -1.342979002408
H      8.003966562143    4.276020731699   -1.700056939468
H      7.938318595764    6.030535816416   -1.888292491377
H      7.726338968340    5.307682773830   -0.276742845550
C      6.384840332258    4.825040060189   -4.066297417972
H      7.015808312371    5.722799084398   -4.185465079433
H      7.076041373074    3.969258870030   -3.975953280765
H      5.811937026117    4.694162017711   -4.995908047277
C      0.389745882243    3.087765454741    4.202116944611
H      0.695975367361    3.863125023101    4.923706908059
H     -0.584888650866    3.381970108848    3.781339065075
C      0.332594534219    1.713976446655    4.837892379890
H      1.317505795021    1.411977250384    5.228011611078
H     -0.383663589906    1.718999339159    5.674544483396
H     -0.001194616628    0.961390646939    4.107079530817
C     -2.367587717953    6.194082039512    2.536002377821
H     -2.896360749389    6.002322815654    3.480229107993
H     -1.294341031759    6.300494760772    2.765238805643
H     -2.742775479885    7.124838077225    2.085601413638
H     -2.856957295537    4.525755425639   -1.647659405220
N      1.976497041478    1.009387269492    0.438602649908
C      1.115611255493    0.140360195353    0.969245226242
C      1.536332804717   -1.114011731879    1.508532067055
C      2.855252274703   -1.462079292834    1.440609131827
C      3.790278577703   -0.593429021136    0.806434563403
C      3.305429959164    0.649343851023    0.292717805370
C      5.159620466827   -0.927056905032    0.651502916094
C      6.023694192745   -0.072331159439   -0.004592631827
C      5.535332833805    1.143445707968   -0.532783443223
C      4.206248251520    1.501077727625   -0.389422821688
H      0.774045791798   -1.754607192212    1.952349601482
H      3.201214901009   -2.414747081137    1.850441015157
H      5.515055441515   -1.879166007450    1.054518859731
H      7.076883005367   -0.336764000920   -0.123681893319
H      6.210010930692    1.816862704439   -1.066025063689
H      3.834919200284    2.436478119356   -0.807751500193
