65

C      2.303948836769    5.375581641325    2.637468031949
H     -0.134225736415    4.620085602919   -3.672941737763
C      1.096086610400    4.553256954116    2.259082652157
H      1.535175400800    3.436328068280    2.022964044300
H      0.467229687265    4.288185408812    3.121406398602
C      0.269082258202    4.966090873166    1.102969183401
H      0.601593684707    5.818133060091    0.500717347937
C     -1.214146127747    4.852397142309    1.253761298858
O     -1.765791916835    4.291134023416    2.177642728993
O     -1.854355150837    5.434464021974    0.229243767219
Pd     1.018435353937    3.222890595506    0.354823545720
C     -0.777148371730    2.710744364441   -1.864345831092
O     -1.222671461856    1.744179308185   -1.223814837214
O      0.247926138629    3.410322033452   -1.559632551251
C     -1.495946528221    3.100704242361   -3.168894716705
H     -2.568271349284    3.141045314613   -2.930303771802
N     -1.128739517343    4.431581472044   -3.612822454676
C     -1.969717655585    5.500810444617   -3.476965595089
O     -3.149075829295    5.388600358395   -3.172584800864
O      0.070371038066    0.113744277955    0.236483853826
H     -0.413385686801    0.873637291198   -0.253304072289
C      2.450501571055    5.822744379378    3.957342338984
C      3.534798963312    6.614509856184    4.360757374612
C      4.517609935189    6.969810592930    3.408187483519
C      4.370929768814    6.513854840421    2.089907594876
C      3.285691210799    5.727182522256    1.702765032195
H      1.692102974421    5.551510773740    4.697850909785
H      5.129323258257    6.780910995430    1.348387119236
H      3.203094528906    5.383420081469    0.667348201540
C      3.646411838804    7.077139645883    5.792404638545
H      4.578369217175    6.720449332529    6.263154501536
H      3.662320211606    8.178073722718    5.862984340680
H      2.804105674477    6.714623727185    6.398913773351
C      5.701899211804    7.818129093770    3.798931486736
H      5.386631287564    8.799139299149    4.193524301037
H      6.301147768835    7.340576907461    4.592913243055
H      6.365575483770    7.999696554715    2.941241518655
C     -3.299794885998    5.352886760908    0.201364520630
H     -3.555151907677    5.431731381185   -0.863713026454
H     -3.599602554730    4.364799807940    0.579680766617
C     -3.933903759616    6.465500730187    1.018742573190
H     -3.598499956336    7.453859201778    0.666575753145
H     -5.029990054342    6.421674989773    0.913915488876
H     -3.688277196886    6.365039953708    2.086611102342
C     -1.333261582217    6.859835648566   -3.716542465296
H     -0.409998957187    6.810713328717   -4.312930350578
H     -2.063297728601    7.511104656423   -4.216002352792
H     -1.097632296655    7.308722842933   -2.737633887181
C     -1.259783699726    2.034246967099   -4.246693976159
H     -0.196298298679    1.989981929545   -4.535454958642
H     -1.555358889597    1.045761798667   -3.866660449909
H     -1.851671604017    2.263818323840   -5.145289506126
N      2.030636293213    1.326692418097    0.010384350622
C      1.377935762596    0.152581221818    0.131246595287
C      2.106061068531   -1.061956234928    0.176358154039
C      3.481519352571   -1.038750452274    0.057751748746
C      4.164950738846    0.185642801938   -0.114962786442
C      3.377081484757    1.328825387049   -0.126858301257
H      1.544137824685   -1.989684302761    0.290864769439
H      4.044419900133   -1.976683707443    0.085936121373
H      3.838436280255    2.314105675014   -0.241011946989
C      5.662457475354    0.248798352247   -0.270882598407
H      6.013395185061    1.286800833903   -0.369150331003
H      6.176957634594   -0.198235982744    0.596087807264
H      5.997463589656   -0.303253983819   -1.165130290126
