29

Pd     1.213274608577    3.028416023018   -0.582513207892
C      0.314337014962    5.696768851750   -0.570700792789
O      0.779625838739    4.764476358545   -1.383301952467
O      0.147451592894    6.847701115457   -0.893185355157
C      0.020526070014    5.187744101782    0.848557799619
H     -0.962848109001    5.579311300548    1.147355651340
N      0.066766895703    3.727842814219    0.884528733549
C     -0.739431915140    2.970884837016    1.632742999554
O     -0.856621056840    1.732916884043    1.518017301116
O      0.002126691454    0.037621607273   -0.058471760089
H     -0.377042441627    0.840450843119    0.498983048847
C     -1.573824755153    3.657880641832    2.706128438198
H     -1.959990635854    2.878209532726    3.373780676151
H     -0.997108977153    4.394196190140    3.284118036434
H     -2.430003407452    4.180357396861    2.248772919674
H      0.769888705905    5.638918373616    1.526104603728
N      1.988972622186    1.195475559677    0.032793361738
C      1.306079767749    0.026713554515   -0.018989329398
C      1.991731888557   -1.224983230707   -0.048136476224
C      3.375339216803   -1.204889506824    0.038276379109
C      4.072689211763    0.012090773570    0.156120964549
C      3.342960702352    1.182965319068    0.150991020004
H      3.925776373590   -2.149888124501    0.032566357579
H      5.158976118034    0.042099106941    0.248475322474
H      3.827503059084    2.159589742140    0.234348292536
C      1.181359874860   -2.485696982085   -0.147218394789
H      0.464592299820   -2.554877027865    0.686762865639
H      0.579397109169   -2.497250947186   -1.070414624633
H      1.827158115678   -3.375171250763   -0.137263643157
