69

C      1.677400924878    3.937406919867    2.499079967908
H     -2.236266784527    1.604274496599   -3.483590895180
C      0.925005362926    5.242920792900    2.234851932781
H      0.375838662105    5.555850674374    3.137899115265
H      1.644254520553    6.032263330234    1.975413118233
C     -0.014447102645    4.959298905118    1.063855817810
H      0.067250783684    5.628484661647    0.199313193963
C     -1.433553682668    4.697114406458    1.448405913638
O     -1.802949650670    4.393534474460    2.567779243164
O     -2.282738620977    4.825567185072    0.410931122370
Pd     0.830513221835    3.193167210230    0.453844828375
C     -0.524027209602    2.801958512172   -2.099041828197
O     -1.151017554535    1.864459779233   -1.559616486878
O      0.332980526207    3.546882777670   -1.530900459381
C     -0.752237151911    3.086659392492   -3.596013356426
H      0.229697312371    2.969689068423   -4.083784503575
N     -1.616715678243    2.054837462276   -4.148607530968
C     -1.381913060998    1.481274655774   -5.362941986482
O     -0.508643922879    1.873241055238   -6.124539149679
O     -0.135473376262    0.149741511023    0.028812234595
H     -0.556032707981    0.932316451537   -0.483709447426
C      0.949614898833    2.765015232243    2.836313568688
C      1.600984019544    1.566447270750    3.229349738017
C      3.003089284107    1.529715656026    3.260233293395
C      3.725034038000    2.691580886361    2.899494545769
C      3.092063732801    3.865704393288    2.522174503150
H     -0.132371046969    2.841311879885    2.970287495612
H      4.817938880322    2.659113083695    2.927453056603
H      3.680013703844    4.752235448688    2.270594034134
C      0.776617239067    0.369178915143    3.628753568843
H      0.937753122622   -0.484008941414    2.948164349554
H      1.039015098210    0.018710698682    4.640862566168
H     -0.297100764421    0.601198613543    3.615383142054
C      3.737184345785    0.282485565707    3.683416362110
H      3.502703189578    0.011605443365    4.727061398418
H      3.451697124602   -0.583633384356    3.063915904611
H      4.826228364149    0.409350015455    3.604605483258
C     -3.673109876312    4.519483931977    0.639793499842
H     -3.972719013566    4.937806533651    1.612255549183
H     -4.204245498539    5.054907403904   -0.160368569771
C     -3.943627289438    3.025191671548    0.577180459228
H     -3.466933530600    2.506629022984    1.421659143990
H     -5.028841188538    2.841288577937    0.630160968703
H     -3.556768615338    2.595118579150   -0.358748738340
C     -2.307192477850    0.331974311383   -5.731047681705
H     -1.698397430765   -0.499540159636   -6.114541066645
H     -2.929705310185   -0.021540515683   -4.896134406915
H     -2.965147640793    0.658844076737   -6.551700100409
C     -1.238912962450    4.504522196290   -3.907314469893
C     -1.076181793171    4.991751012175   -5.215407538646
C     -1.545540052766    6.260152940529   -5.564251478435
C     -2.182077817335    7.062765928614   -4.611826805816
C     -2.342724402522    6.585993996906   -3.308625780834
C     -1.875333565494    5.314641965523   -2.957218574126
H     -0.587628272970    4.357425789848   -5.958866268299
H     -1.409557247074    6.624986098003   -6.585977001754
H     -2.546190500941    8.057172585203   -4.883762715342
H     -2.830007047831    7.208078213278   -2.552705250812
H     -1.989780460159    4.975168422684   -1.926536320038
N      1.856204018587    1.307712312226   -0.113035392280
C      1.172512510159    0.149577664306   -0.060855366265
C      1.886013746026   -1.081726632625   -0.065012365872
C      3.265588998984   -1.084843075104   -0.202025084662
C      3.931345097908    0.143494496283   -0.323082893164
C      3.192097851304    1.317060508817   -0.268353996634
H      3.815659372875   -2.026317438383   -0.224260645686
H      3.678799950470    2.291636076504   -0.332536415509
Cl     1.006608337650   -2.568326286029    0.096175285109
Cl     5.662250465847    0.202724451055   -0.507902507606
