74

C      1.180491402247    3.970335860547   -3.381589680596
H     -3.229086969655    2.209702917277    1.471477490250
C      1.748985192041    4.838426450025   -2.278475937142
H      2.512467035213    5.516270714976   -2.706424121514
H      0.970632263683    5.493155054559   -1.860907035485
C      2.412805732429    4.058656619108   -1.142605859027
H      3.136341742990    3.321976739092   -1.515916371257
C      3.030518218405    4.945576557965   -0.104946849952
O      2.689824004021    6.077475740239    0.151494583480
O      4.053333684486    4.330391109723    0.553665800907
Pd     0.981988349422    3.032934332553   -0.097152246890
C     -1.376962216168    3.701984574051    0.579023539537
O     -1.038376093674    2.500668393876    0.840434567788
O     -0.558305323999    4.479298606735    0.007310062104
C     -2.754698874438    4.204287162667    0.990213350815
H     -3.146359559302    4.827541717741    0.172180678016
N     -3.642570933567    3.062444213512    1.111743066300
C     -4.852334648654    3.004015885525    0.471434403145
O     -5.325264971979    3.947922019761   -0.139121539152
O      0.004044544999    0.157375586951   -0.120413880259
H     -0.376012457036    1.037739443398    0.121195188094
C      2.021619972407    3.373027947682   -4.333211372210
C      1.535054415428    2.552970214768   -5.359730601936
C      0.142692784066    2.316864238668   -5.448706904067
C     -0.698484185542    2.918326871466   -4.503526872114
C     -0.195596823041    3.731932659514   -3.484509416630
H      3.099725456342    3.560010151368   -4.280496648844
H     -1.777526339290    2.749432908513   -4.568843193014
H     -0.877107519959    4.191708687051   -2.764565361070
C      2.484214862934    1.940046395395   -6.360694714537
H      2.427511310031    0.837813573242   -6.355654198324
H      2.251818668819    2.258309567915   -7.391583037764
H      3.526301839797    2.222512443117   -6.150862539842
C     -0.426728673390    1.445652606338   -6.541414515413
H     -0.192055840277    1.841363205713   -7.544738792452
H     -0.014744179373    0.422218898967   -6.506367464149
H     -1.520864060697    1.368265278330   -6.461080085274
C      4.670424948507    5.075844436563    1.615350484108
H      5.005675788857    6.048465834971    1.221240591175
H      3.914963694549    5.289028917731    2.389827107296
C      5.823885264852    4.259990736998    2.162513454984
H      6.569839993106    4.055384956740    1.378561091535
H      6.322560993325    4.812308154216    2.974246075997
H      5.474901634326    3.297627650946    2.568827289928
C     -5.587640023034    1.678395183981    0.595452557175
H     -6.537991847082    1.852381828733    1.123122661363
H     -5.840131050034    1.321233410752   -0.414017945084
H     -5.019821844486    0.900506189634    1.126574117760
C     -2.705220521773    5.110655646646    2.281480170488
C     -2.024630043026    4.365434707360    3.443627519487
H     -2.068784417525    4.972222713762    4.362317452924
H     -2.524828829506    3.406840675575    3.656831107984
H     -0.963035410431    4.156528322988    3.235993483296
C     -1.943704306677    6.412985087615    1.974649035784
H     -0.898087623361    6.230010608547    1.691141027073
H     -2.421125895280    6.965629654003    1.149363469869
H     -1.950126852896    7.066335509484    2.862132599119
C     -4.151908684064    5.463150876680    2.676250695578
H     -4.694882778055    5.928864653606    1.840271005892
H     -4.715983775962    4.570457427935    2.984734988763
H     -4.146479814128    6.167638077265    3.523508395511
N      2.055393000760    1.255331170470   -0.026608212234
C      1.330352511727    0.118349954393   -0.081458430955
C      1.936032237516   -1.165513673843   -0.110371792593
C      3.321885181876   -1.216236729020   -0.037828525224
C      4.072350079305   -0.035249729235    0.067144052974
C      3.405032104776    1.175840808391    0.068128217196
H      3.823388310325   -2.187839805913   -0.051680247699
H      5.160217952537   -0.055891803999    0.144554576665
H      3.933955502200    2.125263304858    0.154997363393
C      1.063442111290   -2.385763487199   -0.203792767003
H      0.356966270548   -2.431415508143    0.640695375484
H      0.450532539650   -2.365765862938   -1.119522433649
H      1.668549757211   -3.303398753575   -0.207034159147
