56

C      1.952717054145    3.320966518316   -2.314885978075
H      2.815437533429    2.653052397026   -2.377356329018
H      2.128453441411    4.397617235555   -2.263587289865
C      0.696310027654    2.831921131125   -2.588614195388
H     -0.150867326062    3.508674421257   -2.725376992332
C      0.480961309215    1.393439668290   -2.968255084853
O      1.367151413930    0.577885422087   -3.071759060011
O     -0.813631990921    1.155937661936   -3.174271349178
Pd     0.897631560418    2.984398516042   -0.356159512701
C     -0.073164058066    5.474595366412    0.535288094414
O      0.035076122506    4.769150420518   -0.573274595922
O     -0.391203738805    6.640606033884    0.565422407527
C      0.286232670474    4.714916532429    1.836890480391
H     -0.458209564863    5.020622606606    2.584500192196
N      0.211014665670    3.271619062778    1.572328469180
C     -0.507687797828    2.468974679281    2.310111221190
O     -0.776441857341    1.239656088653    1.992339045916
O     -0.023124726488    0.084586086606   -0.100848328897
H     -0.484484075736    0.890185893818    1.062537417586
C     -1.200515813530   -0.213076141934   -3.424440176032
H     -0.571221441386   -0.614834339298   -4.233899953613
H     -0.987806773951   -0.787916309240   -2.509403521096
C     -2.671951735111   -0.226221200618   -3.777632443323
H     -2.868910427835    0.367976384778   -4.683348014359
H     -2.999053424416   -1.260570093716   -3.965855524332
H     -3.278689169324    0.182191210234   -2.955191772389
C     -1.134903481186    2.886396753444    3.617941320392
H     -1.452884132384    1.982338405120    4.150796815432
H     -0.442182707406    3.463765766615    4.242829002383
H     -2.027553296338    3.503863285812    3.424505845826
C      1.681599941767    5.178158958128    2.326020087781
H      2.433070817517    4.884417562244    1.573860673787
H      1.649880753774    6.278292221010    2.338192540984
C      2.073826079679    4.651029473145    3.687427167309
C      1.688405468841    5.334764579644    4.853508066997
C      2.803661712328    3.459467804312    3.824589182854
C      2.014056153613    4.837884795070    6.118433306843
H      1.132641556463    6.273527636479    4.767413858616
C      3.131936632667    2.959352465442    5.088665100861
H      3.127169339370    2.919712699657    2.930595567195
C      2.735486283257    3.645600603835    6.239864741827
H      1.710600128487    5.388207142927    7.012863318996
H      3.705362825411    2.032668376934    5.173084299363
H      2.994927652533    3.257907167995    7.228175735462
N      1.946661280551    1.222382462552   -0.065284071340
C      1.233988266000    0.033105355497   -0.078743345491
C      1.982244571002   -1.194765503135   -0.046379503416
C      3.349790171414   -1.186841014982    0.051591887727
C      4.014338955432    0.058411364974    0.110581577262
C      3.282768282094    1.231139632933    0.037766389712
H      1.409993039848   -2.122124942831   -0.085409288321
H      3.937697982378   -2.104489660507    0.091848165065
H      3.799295281663    2.192491339138    0.057779675457
N      5.464038440678    0.129549759330    0.229435262667
O      5.979505642986    1.239599264577    0.278745328108
O      6.076663877616   -0.927089192514    0.275334190207
