39

C     -4.028461097716   -1.151278621218   -1.028325450371
H     -3.618114799848   -1.492439469259   -1.983679406433
H     -4.335452595918   -1.902295740750   -0.296906556854
C     -4.388853000248    0.166178824234   -0.878314935339
H     -4.968562281759    0.504076597228   -0.015492061057
C     -4.226591072393    1.136098300352   -2.009859516738
O     -3.741896539959    0.866447521863   -3.083110817260
O     -4.695798053422    2.344222767593   -1.670218057347
Pd    -2.334128020929   -0.115314590849    0.009793426694
C     -2.031606290705   -0.390572388567    2.799528773432
O     -2.987101659709   -0.349115562947    1.879926611672
O     -2.258769024875   -0.601684830536    3.964158384514
C     -0.552347353459   -0.187208363781    2.290887043895
H     -0.071332557847   -1.173192657766    2.440453359977
N     -0.623202799755    0.145920695543    0.885851460848
C      0.165650838247   -0.021727099248   -0.177892358039
O     -0.461776774670    0.002118228594   -1.281594631629
C     -4.596077375135    3.383083516446   -2.663713087759
H     -3.535112627857    3.510692133024   -2.933402429665
H     -5.122466488562    3.052769570564   -3.573789047607
C     -5.194595698754    4.646327647783   -2.082879002680
H     -4.654210826797    4.958803713152   -1.176223821525
H     -5.133382044776    5.461840211881   -2.820038740463
H     -6.253053498093    4.497313766558   -1.819731868419
C      1.647906401208   -0.228314680078   -0.098849481664
H      2.106705267195    0.510441660084    0.575240036671
H      1.863768140384   -1.229917508665    0.309494588903
H      2.083455905563   -0.151524155385   -1.103483694749
C      0.182018059868    0.836371652024    3.143951131708
C      0.663731949411    0.456334170610    4.405776937711
C      1.304568048240    1.385612769435    5.227351191860
C      1.475452636374    2.705909477983    4.797888386199
C      0.995874203370    3.091056410560    3.543342569386
C      0.349648113014    2.162255477194    2.721244160271
H      0.520697509022   -0.570190724733    4.750670634416
H      1.673866507301    1.076496962350    6.208572765633
H      1.980987694536    3.431580659593    5.440124658116
H      1.121449195146    4.121564568193    3.200855386673
H     -0.030303623182    2.466574207196    1.743670656560
