75

C      3.990854935909    4.868136746649   -0.204092755458
H     -2.979510359685    5.070180612465    1.082881409157
C      3.065766403789    5.085960229927    0.974679364232
H      3.643715688297    5.523314229784    1.809924655400
H      2.291408630017    5.823628779458    0.721687035212
C      2.390131275761    3.805574023436    1.477527108879
H      3.115948216607    3.000861883513    1.650300997395
C      1.591348607181    4.011655376471    2.725720178236
O      1.057937636362    5.045770451108    3.077928695704
O      1.505660247012    2.875799446015    3.463584984956
Pd     0.995027049382    3.060580342159    0.141477168826
C     -1.723868473687    2.976644468220   -1.009475760986
O     -0.624363529093    2.280216213793   -1.127965074278
O     -2.353613084509    3.467052221160   -1.925377889399
C     -2.202280601156    3.180285769426    0.469153036560
H     -1.492319361095    2.642850255252    1.120232833087
N     -2.124734965539    4.601977023249    0.807683083213
C     -1.036011215148    5.363106526270    0.650182581731
O      0.060733275737    4.931824812314    0.234655548513
O     -0.054637265991    0.144955793939    0.119956790711
H     -0.389345463480    0.994899661505   -0.341138462790
C      5.353959428515    4.595158692205   -0.009907679252
C      6.236233304435    4.357611482437   -1.073994345197
C      5.739604332200    4.391672065961   -2.397831509514
C      4.379180923990    4.667832754611   -2.593877224954
C      3.514959171631    4.904029851343   -1.522091424732
H      5.747614521552    4.573507963810    1.011918389056
H      3.985629730107    4.701801852433   -3.614046118207
H      2.460186093724    5.118963714730   -1.712798533654
C      7.695883203118    4.080581291381   -0.806286844931
H      8.008757532434    3.102658928180   -1.211123596998
H      8.347166299382    4.834775176186   -1.280825704872
H      7.913781719103    4.082532506461    0.271784838031
C      6.651929718336    4.146780094005   -3.574718523056
H      7.473390635659    4.882901882384   -3.615803378957
H      7.127669285939    3.152050570914   -3.525141920061
H      6.102179437117    4.206568202537   -4.525309356667
C      0.722254515567    2.939212876785    4.661271221750
H      1.095549519934    3.760236055064    5.295172394740
H     -0.320040021998    3.189817086500    4.399252757180
C      0.818123818324    1.597731394748    5.359553797391
H      1.863277180222    1.361079259287    5.612530927963
H      0.232402633615    1.614291041225    6.292160432584
H      0.428481760983    0.789930425583    4.720884984236
C     -1.130550068385    6.819478524297    1.021261518834
H     -0.482503937564    6.968142513148    1.899455537246
H     -0.727531609175    7.426118918472    0.197767691441
H     -2.154389454825    7.145342080543    1.252066700789
C     -3.621218149714    2.603197360571    0.764619674495
C     -3.647778975494    1.139816428895    0.281042544173
H     -4.596416983412    0.662204427367    0.573146911764
H     -3.565515990727    1.076759508467   -0.814459014372
H     -2.825692854622    0.552220949476    0.720422807945
C     -3.861620637611    2.626866420288    2.288373136556
H     -3.112055660943    2.018900223977    2.820467806668
H     -3.819673980046    3.647017110507    2.704543327876
H     -4.857140764777    2.218930178134    2.525836255646
C     -4.732572617800    3.396082320031    0.048351041059
H     -4.841336578409    4.421254906977    0.444412923927
H     -4.530134615655    3.470046551553   -1.028127789734
H     -5.703886521373    2.899518368216    0.202982550023
N      1.982786522895    1.238824429623   -0.002431126173
C      1.257224507094    0.108908838026    0.081243600547
C      1.902612045118   -1.169753792729    0.127340242321
C      3.283701919985   -1.226214728695    0.008946555596
C      4.007972655821   -0.029893283421   -0.150693750134
C      3.333646644730    1.172318965999   -0.148445518472
H      3.806214864918   -2.183119700660    0.018273570722
H      5.091818937962   -0.043514176494   -0.272222522188
H      3.855968204854    2.121123756701   -0.264217819376
O      1.071931956021   -2.222399293905    0.266648863134
C      1.621537652319   -3.520326803428    0.301769880167
H      2.313934935063   -3.649653122132    1.153645070598
H      0.778021703060   -4.213113018356    0.418865512035
H      2.158143672004   -3.763004151741   -0.633535134020
