34

H     -2.502599581902    5.526063779659    0.920329541128
H      2.433233139076    3.671921716395   -0.727531912373
Pd     1.112642104009    3.126643295865   -0.206763651212
C     -1.457901254727    2.732391352249    1.533816500803
O     -2.204263470044    2.037921410966    2.190878512724
O     -0.815892687430    2.364219120000    0.458630559112
C     -1.185408558779    4.213148069959    1.932353484620
H     -0.094342632614    4.315780857383    2.056012675274
N     -1.573198846529    5.125766660592    0.848990918632
C     -0.848299802011    5.470005567654   -0.223866400553
O      0.280390205477    5.015657610441   -0.497980482952
O      0.006684886096    0.101157509018   -0.082915980845
H     -0.447468815075    1.014329097193    0.141766514778
C     -1.442531076930    6.503202031625   -1.152334344270
H     -2.384532654434    6.932903857193   -0.784224812236
H     -0.706291244452    7.307369510891   -1.297359340649
H     -1.612889668204    6.037241477399   -2.135109994144
C     -1.898848693504    4.608197955541    3.218164728265
H     -1.666543678750    5.647268828404    3.498788362463
H     -2.988735668528    4.489409297809    3.111449264300
H     -1.589375124989    3.941171443589    4.033440929936
N      2.021763100650    1.270465913660   -0.057895127060
C      1.304385821587    0.110735827981   -0.070529032306
C      1.974637335957   -1.144688779328   -0.083204749434
C      3.347193652460   -1.199833226071   -0.046609108153
C      4.076120496372    0.007347880209    0.002426857193
C      3.376416518706    1.199131452308   -0.009491526439
H      1.351732807973   -2.039064597353   -0.108840250341
H      3.865768926636   -2.161446917007   -0.049399463344
H      3.905096681995    2.148862013573    0.013065465408
C      5.577363661051   -0.015237386299    0.063716278096
F      6.015321079679   -0.632466055765    1.178313838587
F      6.101227679915   -0.690014675158   -0.977577561730
F      6.105464126655    1.219110439693    0.053337336510
