50

C      2.004199610115    3.137021527911   -2.444307018792
H      2.816396468210    2.408354532186   -2.492093358900
H      2.256318956545    4.199397079324   -2.451858082775
C      0.708289020449    2.728517767711   -2.644251869401
H     -0.094677363165    3.456127930037   -2.783302322850
C      0.379053981175    1.296005015094   -2.945427465340
O      1.197531263440    0.412191326025   -3.056272903439
O     -0.939343952296    1.136470514128   -3.080496270464
Pd     0.986423776289    2.993169511150   -0.415553536370
C      0.078017940745    5.557672232449    0.335619048936
O      0.191271599233    4.790602571389   -0.733464661985
O     -0.178429564945    6.739020394137    0.282224993230
C      0.327679802752    4.850536795725    1.687443775987
H     -0.528401592075    5.129591713637    2.320510517259
N      0.358373872467    3.400221277323    1.473812095234
C     -0.318513999458    2.549920748736    2.239926983705
O     -0.540645752214    1.347664602466    1.936223078206
O      0.032766260383    0.055413864905   -0.033804522646
H     -0.274966231410    0.733626694559    0.764787701915
C     -1.421350915218   -0.209111666399   -3.272818007750
H     -0.883043221219   -0.659550582627   -4.121824070977
H     -1.170785459110   -0.787000161040   -2.369378921153
C     -2.914735836513   -0.141388954067   -3.509946838060
H     -3.147695664084    0.453337819364   -4.406699435389
H     -3.315079703209   -1.156799518003   -3.655348311905
H     -3.429997620367    0.312211250424   -2.649646733555
C     -0.894837506114    3.013682216444    3.569363842369
H     -1.106683582500    2.121676789845    4.171584493410
H     -0.222050340859    3.684279183259    4.120934454121
H     -1.846022776895    3.545598065440    3.402019425497
C      1.604374234381    5.401303379546    2.335111004356
H      1.760758640151    4.968334253491    3.335236805908
H      2.489162751764    5.166761702450    1.721787126165
H      1.526409037798    6.494608557528    2.426184904645
N      2.012976768019    1.192417247537   -0.032884081935
C      1.333862131611    0.038331546358   -0.075958872786
C      2.017565731759   -1.218253219052   -0.167240998968
C      3.380646490568   -1.251602465527   -0.138496634168
C      4.123089214767   -0.039745059351   -0.004192533654
C      3.393231192613    1.187404775322    0.050720505052
C      5.537620914252   -0.014866304081    0.072619850514
C      6.221182555012    1.179176753155    0.203940526202
C      5.498750012438    2.390416272886    0.264068312083
C      4.116372037011    2.397773657040    0.188606712828
H      1.403464314940   -2.115977174088   -0.239214608138
H      3.918015474646   -2.201879653071   -0.199897468855
H      6.079298827428   -0.963461610046    0.027583401515
H      7.311673167117    1.188679568177    0.264002027231
H      6.034432993835    3.336325587300    0.376199430073
H      3.565710852485    3.338374988111    0.244890066697
