65

C     -0.536687939647    4.642981539319   -2.281793052330
H     -2.342092482080   -0.213889357429    0.588336950032
C      0.517470636650    5.028486404749   -1.338203270290
H      2.488065134015    3.708939004616   -0.427229949425
H      1.450541978490    5.352734237015   -1.806186825631
C      0.406239913136    5.255252383852    0.036003112091
H     -0.538729195624    5.126024841290    0.575095584883
C      1.418525560512    6.043394402317    0.804721965574
O      1.323834692547    6.279910176171    1.985512401672
O      2.441471062471    6.488872217843    0.043118867284
Pd     1.100671392854    3.189201043253   -0.106864999191
C     -1.897469185660    2.722070753899    0.993330841386
O     -0.842109249994    2.291398375760    0.359242204187
O     -2.040938017576    3.850220587275    1.435462458402
C     -3.034948951269    1.699566402186    1.191243241742
H     -3.974855569358    2.234237961189    1.002543034520
N     -2.994888076485    0.524411901215    0.353239564510
C     -3.545266004281    0.522085525894   -0.902650775394
O     -4.220952397556    1.446521246170   -1.324846883038
O      0.008007930766    0.098962100392   -0.328841142078
H     -0.448328612891    1.013259366109   -0.072713968503
C     -0.185899877585    4.461698939933   -3.635732186709
C     -1.117390821265    4.077318481535   -4.603423296940
C     -2.458511239841    3.853067232037   -4.207083568050
C     -2.812269201183    4.047431018150   -2.861861272570
C     -1.879330978258    4.446680161053   -1.910098059990
H      0.854160744375    4.622078446382   -3.936014604885
H     -3.838564099034    3.850030455482   -2.545953831608
H     -2.193495952195    4.592029941436   -0.876255290916
C     -0.697020518710    3.896555065747   -6.041329393914
H     -0.875208645195    2.865249193293   -6.390764052440
H     -1.265429902783    4.557708614904   -6.717352971061
H      0.371861051785    4.116218076724   -6.177748688291
C     -3.495416998997    3.410708870632   -5.206674001358
H     -3.642159559142    4.164163816961   -6.000140392989
H     -3.195816163592    2.478053027974   -5.714285931052
H     -4.464889270360    3.232829376483   -4.720982050930
C      3.467081716246    7.234151367140    0.716578117108
H      3.005541572131    8.086847536629    1.240035182427
H      3.924261838729    6.594686902698    1.490177694680
C      4.479134449764    7.682989190554   -0.317187775640
H      4.007883668798    8.324729217599   -1.077725142403
H      5.282944900827    8.258066032635    0.168390962663
H      4.933357668645    6.819711100720   -0.828031985778
C     -3.235266242134   -0.714178341188   -1.731446356400
H     -3.299175990935   -1.638103195213   -1.135477239655
H     -3.939659141384   -0.765341089606   -2.570803637695
H     -2.209587117588   -0.637779752810   -2.128284849726
H     -3.030919123352    1.406258500627    2.254063996265
N      1.978366602313    1.229701537812    0.077608296706
C      1.299802859407    0.093267071897   -0.127969179842
C      1.967691470890   -1.191228919287   -0.144720082969
C      3.368644717873   -1.240401419545    0.102587324948
C      4.040355485925   -0.007660616884    0.356528116834
C      3.331583568119    1.159220566998    0.330839119748
C      1.252181490114   -2.387540336184   -0.394332955711
C      1.912611751060   -3.602408203030   -0.403699393840
C      3.304644655496   -3.656340681580   -0.159535973377
C      4.020441044769   -2.500143080131    0.089742533650
H      0.179616762641   -2.329444091828   -0.581071446027
H      1.360148022132   -4.524455691213   -0.599155041568
H      3.816839629624   -4.621945996952   -0.167702010420
H      5.095878880914   -2.542310068542    0.279610693919
H      5.111751040466    0.009088491900    0.563471641823
H      3.820540942005    2.114776416366    0.512798949525
