39

Pd     1.242331856157    2.986712126803   -0.648824300756
C      0.447680915998    5.680235101287   -0.591912072930
O      0.822283019222    4.733140561208   -1.429069653517
O      0.252519677880    6.826028941831   -0.920893288715
C      0.282774282644    5.195673917971    0.873584318245
H     -0.669528338481    5.630108256968    1.215619305838
N      0.183499332338    3.734015967561    0.856141227616
C     -0.745490111765    3.033539804389    1.514007830035
O     -0.981879861181    1.822177881969    1.317205929986
O     -0.086953609605    0.054995915412   -0.130167796257
H     -0.464656691874    0.904162259932    0.378919539335
C     -1.565793703915    3.742350928454    2.581401386506
H     -2.027908322147    2.970417331757    3.208764170808
H     -0.961626810349    4.418614988580    3.201674744611
H     -2.369663119286    4.330830426383    2.109588323821
C      1.400562205915    5.737011141199    1.769734742874
C      1.632059035694    7.122470484171    1.821223461024
C      2.632345574163    7.641096691467    2.644992595976
C      3.415597641175    6.788680922455    3.431315620303
C      3.189230731267    5.411938392549    3.386441644451
C      2.186712108390    4.888700992660    2.561139026119
H      1.033412299789    7.786352054315    1.194471478031
H      2.801962386871    8.720618580811    2.672032388105
H      4.197667127451    7.197738882388    4.075982812173
H      3.793072222656    4.736064257716    3.997834412716
H      2.011262492486    3.811704632426    2.535471907827
N      1.946608132490    1.128429638243   -0.013978694216
C      1.203969071600   -0.011248613759   -0.065490000248
C      1.853016441522   -1.275730473289   -0.064797298132
C      3.222468295227   -1.344804902905    0.058452333935
C      3.969413292842   -0.152604723428    0.185217224264
C      3.289970332477    1.050421736786    0.141943598340
H      1.226660239755   -2.164902728660   -0.140960600952
H      3.727933790323   -2.313393919128    0.073175377272
H      3.826032887150    1.998912503056    0.221158788779
C      5.461913005191   -0.203836286567    0.369780487124
F      5.791940373733   -0.785926402918    1.536732934923
F      6.047097710794   -0.925283919961   -0.602646142679
F      6.010734956146    1.020844752604    0.358358927702
