38

Pd     1.171096647253    2.973550340377   -0.595133767508
C      0.141323417171    5.593200901963   -0.760205715799
O      0.651045261119    4.630851143424   -1.506835109146
O     -0.085449354023    6.708696514725   -1.161773623012
C     -0.121183569606    5.172926390208    0.692836830906
H     -1.121821330164    5.536024834425    0.970131921518
N     -0.002453971527    3.723140230641    0.833624412179
C     -0.719656252296    3.005885622424    1.694957041015
O     -0.772119693513    1.753555766916    1.706682119072
O      0.039329688263    0.058870283008    0.163232373151
H     -0.320563591240    0.891352561816    0.744623478802
C     -1.538738782817    3.741368272872    2.745371227769
H     -1.853843055792    3.006232821768    3.495609654082
H     -0.973810074599    4.551336426894    3.228706284331
H     -2.439833380368    4.182442855521    2.288720013994
H      0.606949323549    5.708088270666    1.331492242921
N      2.021894348704    1.186205694427    0.088843821064
C      1.331827559951    0.048837698675    0.095130648209
C      1.998788150779   -1.243885328281   -0.003406859144
C      3.414181483118   -1.297883569559   -0.054665307818
C      4.156377868596   -0.046689955044    0.041348089829
C      3.421756116622    1.168576837480    0.127420418378
C      1.228644076563   -2.425634517465   -0.056330618761
C      1.852412980762   -3.656903695788   -0.175850049071
C      3.257108767520   -3.722052518435   -0.238648497828
C      4.023773407930   -2.567261231219   -0.177263622451
C      5.567555244658    0.018392164175    0.062186730108
C      6.238188062397    1.227912663142    0.164631585843
C      5.506298477308    2.423099672546    0.260921755677
C      4.119859767790    2.391780318334    0.246394055358
H      0.142870174398   -2.340677679634   -0.004382643451
H      1.258532129878   -4.572619260427   -0.220346093620
H      3.751966925294   -4.691855906815   -0.334374143957
H      5.109952387472   -2.649585757858   -0.225485835968
H      6.147219218943   -0.903497338786    0.000858983179
H      7.330131803481    1.248208025486    0.177740527507
H      6.024216171234    3.380321415195    0.355773821177
H      3.547770596261    3.318234939664    0.342616787561
