73

C      3.686787737324    4.919169037529   -0.652346323874
H     -3.010568688375    5.971275718307    0.332681195260
C      2.768313055120    5.289384883339    0.492921915914
H      3.305152482420    5.945813755396    1.203026805983
H      1.911134867922    5.879786487166    0.134395144415
C      2.255057055385    4.078446246301    1.266583933398
H      3.063903360759    3.402260976693    1.578016273390
C      1.397924454585    4.427208111314    2.454735280776
O      0.863923353904    5.500390586268    2.636824476591
O      1.278764936779    3.385026994028    3.302634484400
Pd     0.944377273016    2.986937932937    0.134959867369
C     -1.474816337808    3.538974671565   -0.329050034901
O     -0.593188684774    4.394409942335   -0.010686648843
O     -1.134081123488    2.358145557386   -0.650213524539
C     -2.950973448002    3.947071616129   -0.276158517161
H     -3.476336281773    3.063962297127    0.117523789938
N     -3.117877308850    5.026054837476    0.681673948328
C     -2.798049754144    4.818130570494    2.000890513039
O     -2.610764261976    3.694071801300    2.445640823097
O      0.042964619248    0.080100085281    0.208594461373
H     -0.387706721282    0.952649079679   -0.005465665427
C      5.055155933989    4.698849482714   -0.431955910977
C      5.928849867459    4.293878575422   -1.451092976740
C      5.417112165415    4.105965177435   -2.756613502791
C      4.053309424579    4.340137784962   -2.981719733698
C      3.196417345781    4.738554508944   -1.952255305291
H      5.460267902850    4.846835593205    0.574621685200
H      3.651785678942    4.207226149292   -3.990859536958
H      2.136957735584    4.912110772628   -2.160519242995
C      7.386373108620    4.048560601097   -1.150726641178
H      7.644795000370    2.984361047611   -1.281651020650
H      8.046251651524    4.627660621038   -1.818125087648
H      7.631494611656    4.320266515601   -0.113843131670
C      6.318005838634    3.665041810536   -3.883804237463
H      7.131000830364    4.389295455056   -4.064151555287
H      6.804741990621    2.700041293254   -3.661804203885
H      5.757622493118    3.551336750499   -4.823373540278
C      0.371767402084    3.537410133435    4.412772635657
H      0.604794459992    4.479055556075    4.934953996950
H     -0.653838786704    3.611494543268    4.015753680508
C      0.536136710995    2.334228685329    5.318331164831
H      1.567491399234    2.258305051104    5.697515626350
H     -0.143480560509    2.420442031570    6.180630001454
H      0.292843148814    1.402017508322    4.785332950177
C     -2.649845760349    6.062600278540    2.849564235380
H     -3.062300700657    5.867307438584    3.848963350909
H     -1.569195264462    6.257218178007    2.956745663388
H     -3.136272516976    6.948861130848    2.415797535820
C     -3.567361449416    4.290894285889   -1.673220005060
C     -3.461836213163    3.063217413367   -2.598063727031
H     -3.950535598002    3.279238517075   -3.561543394950
H     -2.417984475209    2.783709180859   -2.798244794042
H     -3.960147847261    2.186235357939   -2.155274104263
C     -5.057119164305    4.634413811092   -1.477669957923
H     -5.599989987625    3.792229015354   -1.019461538301
H     -5.197282999781    5.511776493688   -0.829465954620
H     -5.527691879177    4.850572867084   -2.450169171949
C     -2.837947120718    5.480748256833   -2.327798582180
H     -2.918890035352    6.406180370079   -1.733653002085
H     -1.767002706250    5.273234556443   -2.476140626586
H     -3.279033704188    5.697555364395   -3.313619875736
N      2.061881377322    1.239582610988    0.152850625978
C      1.354920737963    0.079295880113    0.199475038775
C      2.009989012645   -1.174855231214    0.243183846290
C      3.386516977147   -1.227807715416    0.191340651240
C      4.088475388411   -0.016742769192    0.098592098417
C      3.405301109616    1.189751609306    0.084000508709
H      1.392456856209   -2.071265881335    0.301521113748
H      3.935315205757   -2.169598718113    0.209887754803
H      3.948692821099    2.132511447065    0.011336805051
N      5.552899351836   -0.020063397370    0.015053936385
O      6.120051667821    1.060228891166   -0.030529283110
O      6.106845417663   -1.107302451917   -0.002408439730
