72

C      2.308606050128    5.334211499068    2.632531617780
H     -0.092242577207    4.687706318998   -3.625701557438
C      1.106059328980    4.519027400759    2.222590174697
H      1.550483982646    3.408642965145    1.967986034029
H      0.467134308039    4.236273751232    3.071746732124
C      0.292499116560    4.956337107798    1.065679286511
H      0.636480593746    5.816939216678    0.482217512399
C     -1.192831974370    4.852300397828    1.199462227801
O     -1.759603099530    4.278775007925    2.106300413812
O     -1.817870324466    5.460772901708    0.179973496706
Pd     1.044557097738    3.225237078420    0.292649790493
C     -0.751875496101    2.749167864038   -1.935678738104
O     -1.182147578655    1.757734269630   -1.322382664768
O      0.272551959472    3.444520724738   -1.617474847329
C     -1.500734206980    3.187195930852   -3.205227784029
H     -2.558854434432    3.274050899751   -2.918279485778
N     -1.090449216572    4.510593887971   -3.636750006512
C     -1.917423351994    5.594883112900   -3.521099340618
O     -3.110191278222    5.501248012031   -3.267811572664
O      0.122235436469    0.112258863444    0.102719869394
H     -0.367009927914    0.877503421815   -0.376717358029
C      2.434847401617    5.760411603405    3.961393285773
C      3.513089803020    6.545056471731    4.393846895704
C      4.510653998386    6.914608786012    3.462270361855
C      4.384228103062    6.479491682073    2.134901134272
C      3.304762309810    5.699740968425    1.718744471723
H      1.665089702257    5.477918477539    4.685795373345
H      5.154279486763    6.757207824437    1.409515022136
H      3.238365840861    5.372046798338    0.676982982718
C      3.602861295440    6.984891293325    5.834201849447
H      4.527415024155    6.620329125851    6.313449365354
H      3.617936532949    8.084567336659    5.922542838714
H      2.751265629767    6.613173886109    6.421896656230
C      5.689251025509    7.755627149380    3.884731141319
H      5.368517752903    8.730552792182    4.289871993014
H      6.275740285648    7.264973977215    4.680247746094
H      6.366330399471    7.950111586982    3.040456137101
C     -3.263666022423    5.397401057731    0.139512061026
H     -3.510885341808    5.502729815764   -0.925359580399
H     -3.578692205003    4.405129513253    0.493871405838
C     -3.891347839282    6.499670669634    0.975753959954
H     -3.541225134562    7.491272984883    0.647920922410
H     -4.986969009548    6.471345139044    0.861309903920
H     -3.655584960448    6.372908282548    2.043009876569
C     -1.244678915107    6.944215670612   -3.710769204391
H     -0.306244176183    6.886099437572   -4.282082299475
H     -1.945022670885    7.623637315060   -4.215017328207
H     -1.025899806927    7.364533347046   -2.715317733544
C     -1.398270396813    2.105088895685   -4.313235970369
H     -1.726348228705    1.170924888329   -3.827387922895
C     -2.354680981567    2.413599330038   -5.469514874905
H     -2.328903915064    1.610321357221   -6.223576921718
H     -3.392804250691    2.517876301069   -5.117290702737
H     -2.078080816959    3.355448382505   -5.970774358983
C      0.039366782580    1.906875783836   -4.809570232794
H      0.428201198868    2.823889865765   -5.284196807556
H      0.724968419455    1.630571663413   -3.992434075671
H      0.083330000845    1.105611527344   -5.564495706360
N      2.073541222174    1.342924930795   -0.081356015623
C      1.426097638448    0.172532000807    0.010395154700
C      2.161741384720   -1.062727225261    0.038953505267
C      3.543700104898   -1.021967280421   -0.074359491868
C      4.189183026092    0.223564976609   -0.211659552703
C      3.425852095523    1.371095668927   -0.209152042843
H      4.130938829530   -1.940700370645   -0.070147911641
H      5.273863979716    0.283057109963   -0.312819726396
H      3.879806865415    2.360028446539   -0.300905112030
O      1.409554460905   -2.172857095324    0.163925605727
C      2.048913665332   -3.428842789390    0.197683975455
H      2.743479681396   -3.512286205491    1.053498410552
H      1.255562877307   -4.179653606843    0.307070440315
H      2.607384725839   -3.629453029496   -0.734949008531
