51

Pd     1.086835600688    2.929817165973   -0.542718313635
C      0.051050734104    5.540879657491   -0.451121487033
O      0.432405522866    4.618168877693   -1.313412626987
O     -0.200599828127    6.684413824612   -0.751695845230
C      0.000651091409    5.048454068753    1.012644793658
H     -0.941958892076    5.417456720152    1.441915925081
N      0.018271526197    3.581436484201    1.008960939588
C     -0.883781127350    2.811402261999    1.623226203658
O     -1.016533055407    1.583867643342    1.410025470186
O      0.050129040555   -0.032282234983   -0.062625522074
H     -0.394728851971    0.775424860228    0.490712920879
C     -1.820910200157    3.433060957416    2.646571547969
H     -2.279067560998    2.612340032775    3.211512152190
H     -1.308347783207    4.119490063908    3.332567654391
H     -2.621438913188    3.989343427287    2.131424723325
C      1.172943746333    5.692981354429    1.795229252546
H      2.119654934664    5.343426173218    1.350862183391
H      1.107474297150    6.774849693212    1.602926382528
C      1.167209229387    5.422898830285    3.281500509076
C      0.496821836773    6.288583941721    4.162443132915
C      1.803331707802    4.290543101191    3.816229593827
C      0.455227948779    6.027460156458    5.534842027686
H      0.005679729184    7.182601187546    3.766336657713
C      1.763401520694    4.025857333162    5.188565652811
H      2.338579490538    3.609635920561    3.149250987440
C      1.087151630195    4.892206864487    6.052504705448
H     -0.067608399191    6.716512632870    6.203394141307
H      2.266162774159    3.139648475494    5.584743955428
H      1.057796116913    4.687416015573    7.125733638916
N      2.008529971239    1.140437965228    0.032524355915
C      1.344031976326   -0.010332388754   -0.041109660012
C      2.042542561310   -1.287049347028   -0.130528323106
C      3.458365374532   -1.313900507654   -0.078345272478
C      4.165991211117   -0.051662166402    0.098307770374
C      3.403506667188    1.148113796538    0.156571834773
C      1.302266797686   -2.480874980928   -0.270289674541
C      1.957745970618   -3.696975360172   -0.373856967999
C      3.364243139242   -3.734973912752   -0.332941148128
C      4.100798034683   -2.568423797979   -0.186025048450
C      5.571090097020    0.037625646127    0.217654382756
C      6.210854878074    1.256043630334    0.387376223900
C      5.451863316992    2.436502044269    0.448416808916
C      4.070760254764    2.380685581301    0.336009698352
H      0.214145070742   -2.417457276013   -0.296573829593
H      1.387222972576   -4.621753686348   -0.485599793181
H      3.884247252480   -4.692769989858   -0.415462719756
H      5.188971414963   -2.629778541671   -0.155391888100
H      6.170530530151   -0.872725193952    0.178952034816
H      7.298677117041    1.295034289273    0.476847102127
H      5.943989928791    3.401607064247    0.589390753855
H      3.476676285643    3.295534242607    0.393526661883
