68

C     -0.143585565710    3.945490638713    3.341464472328
H     -1.560685791991    5.543005891169   -3.387423403131
C      0.974700281561    4.328242577578    2.405355051766
H      1.851811283158    4.741470047939    2.925878727784
H      1.523100348269    3.273636193723    2.070024529192
C      0.662877932479    5.056873421874    1.159678891061
H     -0.371850447128    5.338676046583    0.945842595026
C      1.716136941456    5.984467607315    0.666840210191
O      2.866205805482    5.996232819419    1.059603936759
O      1.269025959702    6.817264380495   -0.296219440825
Pd     1.121916108490    3.222582840361    0.362824570372
C     -0.897544738391    2.929617172885   -1.671067652902
O     -1.264136522497    1.867352437589   -1.134874124772
O      0.200865177604    3.545535623556   -1.485025641931
C     -1.862466947300    3.546136022511   -2.706977883860
H     -2.849520094698    3.132287022040   -2.448851397160
N     -1.919699139481    4.994918541356   -2.615477483332
C     -2.207510148243    5.622182334184   -1.440800255310
O     -2.490653381924    4.998437688672   -0.425017173735
O     -0.016251032509    0.101411844071    0.100094425337
H     -0.470759372901    0.931690926471   -0.337549925519
C     -1.436893527152    3.666722379451    2.871241463295
C     -2.480204123163    3.326736420007    3.739739870068
C     -2.225811104472    3.249972175775    5.131051885124
C     -0.932547453144    3.524696791363    5.593937402186
C      0.099284199239    3.868672917102    4.717528544777
H     -1.652364459879    3.717618480715    1.800611216089
H     -0.727783792107    3.470690288668    6.667068783236
H      1.097420063937    4.082327207546    5.110605722706
C     -3.855431530278    3.048000436098    3.185113857179
H     -4.171268071235    2.010108622221    3.388286018132
H     -4.616717738280    3.702643369048    3.642349601472
H     -3.882982749631    3.205703319565    2.097819113756
C     -3.323665335698    2.879308019283    6.096213921039
H     -4.162243421443    3.595293065104    6.052228266635
H     -3.749086119903    1.887735821507    5.865570641261
H     -2.956373064485    2.855222095976    7.132549871559
C      2.254601199350    7.681625991643   -0.887089932342
H      2.709062763361    8.299592164369   -0.095849374882
H      3.061343242235    7.061221391875   -1.310051293591
C      1.582859694480    8.528039441738   -1.948077881560
H      0.794914989065    9.163074382574   -1.514240653163
H      2.326482267356    9.185178625245   -2.425527512033
H      1.130368218524    7.897611398101   -2.728996940985
C     -2.125267436456    7.137113035623   -1.456297121831
H     -2.927153985237    7.540133566690   -0.822825428434
H     -1.160253210229    7.429621289835   -1.013806961613
H     -2.200265691916    7.569435050878   -2.465466683320
C     -1.476335909592    3.116006717088   -4.122479626138
H     -0.472218529126    3.487896216029   -4.383345159588
H     -1.463313087213    2.018745159662   -4.190231781579
H     -2.201044990247    3.497467914060   -4.859724976143
N      1.969611648869    1.253186010082   -0.011748379589
C      1.287744070513    0.108685463408    0.055800830745
C      1.970044342268   -1.167755611725    0.103778835618
C      3.393234134374   -1.186315806584    0.044661795542
C      4.072381329506    0.064598769454   -0.069356577845
C      3.339438654488    1.218930134072   -0.092683335970
C      1.248425703659   -2.381724559705    0.200232942096
C      1.923840375095   -3.587756593782    0.247478059095
C      3.336977649763   -3.612955277299    0.194089681438
C      4.059277471042   -2.438178229578    0.092812774700
H      0.159224190489   -2.338564850511    0.236711822786
H      1.367104446031   -4.524813583273    0.323858975981
H      3.861267860165   -4.571557108427    0.231168519614
H      5.151239471242   -2.459725261569    0.048623894170
H      5.161325845231    0.102371586882   -0.132554481504
H      3.826820465103    2.193811596535   -0.170585621753
