50

Pd     1.208885723880    2.995636057612   -0.492290067144
C      0.182028280639    5.619980078844   -0.485018970063
O      0.632986334004    4.689911778510   -1.304546480586
O     -0.135955600146    6.731146141423   -0.846773251340
C      0.128546860299    5.182975831725    0.991505588217
H     -0.822164215979    5.556776250523    1.395746554985
N      0.138719376905    3.710789657380    1.027493191175
C     -0.690318042297    2.972786366169    1.762924715878
O     -0.832179802873    1.732976723720    1.640900297370
O      0.052197438224    0.080941883369    0.090354101425
H     -0.324047478796    0.901438342679    0.677534732606
C     -1.537328005487    3.654021010006    2.828545583564
H     -1.901934292345    2.873209710709    3.507051760875
H     -0.985968281901    4.414271628130    3.398011975492
H     -2.408982108732    4.140435069119    2.360904283568
C      1.294934287354    5.776871667139    1.811620789453
H      1.200049212779    5.392002411118    2.843635428597
H      2.236898774936    5.355625110858    1.418316000792
C      1.407189494949    7.313094926611    1.853406623410
H      1.590658640804    7.665039814182    0.824534397313
C      2.609713275983    7.717040474150    2.716625879734
H      3.542776662588    7.252919460262    2.356523190023
H      2.754946017890    8.809133304061    2.707723144752
H      2.469232081531    7.408718747723    3.767497209635
C      0.119381008303    7.990027577076    2.340179169287
H      0.268782281330    9.076301778174    2.449392225733
H     -0.701095418743    7.846707687627    1.621689527607
H     -0.195677080496    7.600283497820    3.324853729734
N      2.056187615493    1.175800324671    0.101632757249
C      1.345672479728    0.051593046457    0.053920079316
C      1.990999367758   -1.249770921120   -0.071975439759
C      3.405862061398   -1.329385057322   -0.087841504944
C      4.167957604503   -0.096255578913    0.066835856037
C      3.454311851286    1.130075878269    0.171440120911
C      1.200849977131   -2.414204413034   -0.183536555636
C      1.804740659309   -3.652839567733   -0.326617333539
C      3.209197393464   -3.743060288208   -0.354386675495
C      3.995029342491   -2.605812716085   -0.235363097993
C      5.579232323805   -0.060091786811    0.125092879060
C      6.270074162696    1.131945801925    0.281518635323
C      5.558539104392    2.338010408350    0.394053874126
C      4.172805448751    2.334715654548    0.342202501493
H      0.115831912711   -2.310132848180   -0.157260694813
H      1.195425117694   -4.555001216737   -0.416588376154
H      3.688506417281   -4.718690799908   -0.468517413312
H      5.080397930855   -2.707506406304   -0.257671253622
H      6.142372920765   -0.991115212285    0.049772855842
H      7.361497469408    1.130145091717    0.323180281665
H      6.092036170140    3.281679860707    0.529716177624
H      3.615495549993    3.268402910181    0.447309300736
