74

C      2.309456295374    5.471784997321    2.606667589219
H     -0.127438265765    4.788642220865   -3.450702179536
C      1.128316286743    4.618601549211    2.213607965520
H      1.599368247721    3.508955691310    1.983963348576
H      0.500996033500    4.334240074086    3.070810335997
C      0.299118236615    5.001554835685    1.050611324566
H      0.604040156260    5.864176897144    0.449193994994
C     -1.180267461232    4.832521492192    1.195879088288
O     -1.712241816104    4.258379155692    2.122925632096
O     -1.842896718314    5.380739694813    0.165713959942
Pd     1.097010388886    3.270871196972    0.318510494758
C     -0.740066119212    2.810410511652   -1.849123089406
O     -1.258623992791    1.963388099370   -1.102102270536
O      0.361714205381    3.421669745246   -1.618863416983
C     -1.447768674983    3.182024265341   -3.164135165297
H     -2.525417133334    3.178461091510   -2.950072101376
N     -1.108973729858    4.546923608837   -3.532042714951
C     -2.018411195087    5.565976005447   -3.456847323928
O     -3.216626668796    5.382494852393   -3.294722536893
O      0.009328782928    0.306869096874    0.383747997826
H     -0.441389146555    1.077885066863   -0.112338198751
C      2.485877480032    5.827006158178    3.950813454798
C      3.547904655628    6.637181166414    4.376176542080
C      4.477306743840    7.108485283835    3.420274821632
C      4.301118757712    6.745490062756    2.076973297554
C      3.238456239885    5.938843857146    1.668180943370
H      1.768293929791    5.466660132571    4.694026326293
H      5.017483185418    7.103476825363    1.332028697478
H      3.134067806606    5.671314185588    0.613048461071
C      3.691432707659    6.998001922326    5.833980326029
H      4.656225582218    6.654437633762    6.244416019085
H      3.658094231903    8.090190974466    5.986711098438
H      2.890545453958    6.550359601706    6.439729582720
C      5.635805697623    7.981362838800    3.833212986458
H      5.291398831304    8.914510781543    4.310810266783
H      6.285038169347    7.475856874261    4.568420425692
H      6.258223539743    8.256910098291    2.969660815073
C     -3.284024081552    5.229306665318    0.139723731631
H     -3.548261483577    5.320843230336   -0.922201541839
H     -3.531437001956    4.217711952525    0.492394189901
C     -3.972726196811    6.289129131105    0.982504985034
H     -3.689432897293    7.301330361228    0.652889328183
H     -5.065091226889    6.191131608754    0.875816208078
H     -3.721389959287    6.176570811714    2.047553452897
C     -1.430011724310    6.963266047528   -3.564328810954
H     -0.466204068525    6.988515166296   -4.094510829384
H     -2.151781614270    7.615668935869   -4.073610005094
H     -1.280256032853    7.354791499262   -2.544543285214
C     -1.192589291951    2.150040309060   -4.320613335530
C     -1.973103812495    2.620569321902   -5.562436334846
H     -1.854933932312    1.895193722518   -6.383746479390
H     -3.048398708793    2.717104996608   -5.344205294491
H     -1.614880010233    3.598204415077   -5.917458564191
C      0.306945503625    2.062549657936   -4.659275742062
H      0.712841025164    3.042652126355   -4.958238929257
H      0.899599453483    1.696425649554   -3.806303453310
H      0.468589625438    1.370569805485   -5.501712024035
C     -1.711229363625    0.760293158970   -3.906790006325
H     -1.180420477887    0.361860329349   -3.031209170698
H     -2.782359836526    0.795741191709   -3.651641509530
H     -1.585375704011    0.050175906522   -4.740461329487
N      2.051098167051    1.331436934729   -0.005031878916
C      1.309349303813    0.221067421370    0.205982149590
C      1.914638587353   -1.055394559549    0.270482290246
C      3.277162971640   -1.161705156983    0.065059955890
C      4.028092313450   -0.008149053321   -0.209328773703
C      3.386496761372    1.226745262415   -0.235176482633
H      1.275060782638   -1.917399174765    0.461668313357
H      3.764007164420   -2.139809178094    0.100589877457
H      5.101270808630   -0.065690146785   -0.395818535206
C      4.142756497431    2.498413944750   -0.506307421517
H      3.672423672336    3.060931818274   -1.328279198097
H      4.142312905553    3.153717619695    0.380658242541
H      5.187476979444    2.288235812276   -0.774217755719
