56

C      2.031810100505    3.173395382359   -2.332963915722
H      2.838297198502    2.439896311523   -2.409207055157
H      2.287653933594    4.234750862421   -2.313291783049
C      0.737090717973    2.770464371145   -2.546444187269
H     -0.067684780333    3.499996518747   -2.662339493844
C      0.417477829816    1.347697796169   -2.901687059671
O      1.243808372320    0.474262573747   -3.034019906291
O     -0.896631157612    1.189558922860   -3.067385001258
Pd     1.010717511824    2.996062462158   -0.303142876204
C     -0.103678977843    5.485521401470    0.475892198543
O      0.172453415480    4.774825424111   -0.605341432824
O     -0.634590153886    6.572821694158    0.425348405119
C      0.342733740385    4.829795971297    1.803910544291
H     -0.407586805414    5.108916046907    2.557755306571
N      0.355839498025    3.378145040932    1.586432190347
C     -0.453767767408    2.534307261574    2.232575083575
O     -0.682805778076    1.360239077643    1.852091627894
O      0.024630226915    0.077684729883   -0.125430612271
H     -0.324445189794    0.719824464998    0.641330423198
C     -1.369956014828   -0.149102606597   -3.319667938943
H     -0.816116091420   -0.564114001912   -4.176783788460
H     -1.130998310201   -0.759979019612   -2.435194016093
C     -2.859575018608   -0.077163179332   -3.578328029059
H     -3.080596748722    0.551067545575   -4.455086330031
H     -3.253465452303   -1.087540544647   -3.769333776577
H     -3.390313847072    0.341126527649   -2.709579298022
C     -1.162986220709    2.976786770538    3.505317755386
H     -1.546859960109    2.077072807373    4.001273675175
H     -0.507454831593    3.529532147458    4.191383836937
H     -2.018849497604    3.625444695214    3.256589127002
C      1.719149780441    5.393862017395    2.274239837168
H      2.438720743823    5.197262844192    1.455550094604
C      1.654118601190    6.910631868158    2.500791836355
H      2.649717640714    7.316282393920    2.735417803298
H      1.265282556888    7.441432917901    1.622347504544
H      0.987990678375    7.148894408798    3.347912749363
C      2.222112763080    4.650350715698    3.526677773903
H      1.541295736791    4.874639492157    4.368799066090
H      2.141585004295    3.565560509023    3.349588049870
C      3.658179137075    4.981988016237    3.940796158687
H      3.776499582495    6.036594735134    4.233871557417
H      3.971097546466    4.367030159369    4.799787766304
H      4.369101190307    4.787788539539    3.119437852272
N      2.025303120763    1.183820907159    0.073277141971
C      1.332957412698    0.025003500318   -0.056820755396
C      2.005878149906   -1.213352679807   -0.121124719772
C      3.380105883797   -1.238391817402    0.015079980702
C      4.074329402973   -0.038606479172    0.233406970713
C      3.374590752946    1.163366595016    0.260976783736
H      1.406897808981   -2.113901951333   -0.255616998428
H      3.921553962188   -2.187004476410   -0.024020939331
H      5.155184423342   -0.033280334599    0.379241743902
C      4.081214825308    2.465693925099    0.516192171673
H      3.966471148571    3.167368363186   -0.324550498981
H      3.664464445467    2.960333324953    1.406592648128
H      5.154483784205    2.299384646130    0.679665319262
