65

C      3.938399678125    5.126179089016   -0.127526820143
H     -2.773950965954    5.203099355435    0.721121366566
C      3.035906704138    5.074036776426    1.087136164933
H      3.602778525068    5.446177860266    1.960935250101
H      2.194439533138    5.766021103885    0.955486895791
C      2.485710982841    3.690892209048    1.458802293907
H      3.287029597008    2.953314400800    1.586579530419
C      1.628969838492    3.733475373745    2.685131231485
O      0.908668781032    4.655264698206    3.020844166705
O      1.721565994444    2.593366987643    3.412836755564
Pd     1.125414661162    2.875132916019    0.122515956242
C     -1.551091847560    2.777053553482   -1.095665918903
O     -0.527002792607    1.965774512985   -1.036571557294
O     -2.075696379670    3.207705709898   -2.098587105829
C     -2.103576715553    3.224166806665    0.294829014783
H     -1.607636785022    2.680336279719    1.114810248777
N     -1.953036661834    4.660970946158    0.483304483213
C     -0.809228570093    5.329053467585    0.294854191796
O      0.263560853271    4.788705537053   -0.045651250522
O     -0.209689857212    0.246964014358    0.790918073987
H     -0.442907209113    0.957068183311    0.077581566022
C      5.333947949458    5.093967513648    0.009867464054
C      6.203345087138    5.142857941757   -1.089607562504
C      5.658891337780    5.223890335790   -2.392287635237
C      4.263889576189    5.258631518397   -2.531471024424
C      3.412698751104    5.214434876754   -1.424835102703
H      5.764246191754    5.034773657150    1.015032406583
H      3.832110139342    5.327922899462   -3.534341620957
H      2.330367054315    5.251764093150   -1.567934751034
C      7.698313512363    5.119185704158   -0.880067595605
H      8.172084279933    4.264970226519   -1.394239879492
H      8.180318601628    6.027243032372   -1.281574884689
H      7.952845296586    5.049917961638    0.187632042821
C      6.554667913965    5.284709793183   -3.605399317929
H      7.220140997827    6.164955166690   -3.578560994611
H      7.211642806675    4.400629413811   -3.676429449590
H      5.967058186933    5.338563084454   -4.533429066513
C      0.889672848068    2.495057054225    4.576112661890
H      1.050903736797    3.380631295889    5.211876916658
H     -0.168976788799    2.512944710011    4.265295080032
C      1.238999686914    1.209052602316    5.297455833356
H      2.296941544713    1.205322815438    5.602621703915
H      0.618240901251    1.101947153690    6.200891017624
H      1.064585389527    0.333826886108    4.652748044471
C     -0.822237445344    6.816957385716    0.530996407670
H     -0.272294688819    7.004423197275    1.467216100063
H     -0.281871582497    7.315536409988   -0.285495868174
H     -1.835230749970    7.235260935682    0.612734804239
H     -3.178790371998    3.000935731470    0.323457037741
N      1.933031458517    0.955661239212    0.328102334482
C      1.083770047666    0.025466839268    0.780644280215
C      1.542953490409   -1.237884581253    1.270594154894
C      2.871158750205   -1.545616091582    1.193515596169
C      3.780844941516   -0.627339655441    0.592948972722
C      3.265915798672    0.630112986389    0.146713447542
C      5.153183500246   -0.928675859013    0.403379575399
C      5.992900447266   -0.030632252236   -0.225909852210
C      5.475023527293    1.198612176826   -0.690328227980
C      4.143154335213    1.526739155400   -0.507784352476
H      0.795282089808   -1.923542787751    1.670262663232
H      3.243357828063   -2.507034004430    1.557833665866
H      5.529917425774   -1.892795409430    0.755478750918
H      7.047984909828   -0.271619907303   -0.374480830011
H      6.127929405573    1.907269317596   -1.204380513502
H      3.750934568132    2.473939865158   -0.877094739570
