41

C     -4.248140918775   -1.057440841980   -0.923484607351
H     -3.827820219066   -1.538296118135   -1.812009880713
H     -4.681047546001   -1.690560563596   -0.145715565152
C     -4.459100125472    0.300321862525   -0.924365764299
H     -5.042723289023    0.787231065216   -0.138897472049
C     -4.121371696637    1.125285312432   -2.129266052181
O     -3.623744608147    0.693924550122   -3.141994916417
O     -4.450219657370    2.409738398701   -1.932645624892
Pd    -2.505952599031   -0.115584064204    0.125759762535
C     -2.384380190434   -0.152104212412    2.941587607447
O     -3.280498221435   -0.107485843488    1.961362871867
O     -2.717645371552   -0.220122952132    4.101733744777
C     -0.874342427435   -0.123384548602    2.529003123647
H     -0.464245780724   -1.109047753005    2.822868618291
N     -0.831514694111    0.035871828862    1.088917252660
C     -0.007447739446   -0.276628016453    0.091671090369
O     -0.571579780885   -0.291285471038   -1.048932696490
C     -4.172528814977    3.323399693480   -3.011296018569
H     -3.092166025863    3.294591355624   -3.227319414369
H     -4.691611592296    2.969237362663   -3.916609299643
C     -4.634751205906    4.701686766970   -2.589130187597
H     -4.103570757099    5.036741406625   -1.685066012203
H     -4.436213137045    5.425431623585   -3.394728913496
H     -5.714981564805    4.708443198869   -2.377224118784
C      1.456729476226   -0.562585336632    0.251683534280
H      2.017443424123    0.386333109748    0.262038537771
H      1.666229455321   -1.090126943822    1.194141500792
H      1.804075402662   -1.159624216082   -0.602123171743
C     -0.064242723375    0.976759412318    3.273100464243
H      0.916205920311    1.004315256937    2.760293953707
C     -0.711571002439    2.358381388092    3.117999440184
H     -0.049430449549    3.153701687162    3.491186183658
H     -0.926570895439    2.576484114198    2.060281707216
H     -1.657482077873    2.415433946092    3.680325322438
C      0.204461876221    0.581843495543    4.738477907911
H     -0.755421321504    0.514522253047    5.272356886070
H      0.625977208697   -0.439900449196    4.749477229153
C      1.162852388114    1.518207930997    5.477236719572
H      0.745137291008    2.530278983159    5.596511870730
H      1.378573710045    1.136151271356    6.487612330160
H      2.126464591154    1.616704112051    4.947681044567
