68

C      1.187497127220    4.098877945161   -3.404970249696
H     -3.060596789148    2.058596826916    1.610711493687
C      1.728838230593    4.924300391857   -2.256384295039
H      2.484476894581    5.635317897926   -2.641257515370
H      0.935191959979    5.545820924354   -1.816967796969
C      2.396126424842    4.103506448696   -1.153600228607
H      3.128049541255    3.391297044587   -1.558773028277
C      3.018056902620    4.952132895480   -0.081592021597
O      2.745123928639    6.106879951164    0.150139841881
O      3.954985739172    4.265488800423    0.622294721117
Pd     0.981949362480    2.997013196063   -0.176736507289
C     -1.415952965860    3.550588095098    0.469366894129
O     -1.048786205850    2.350403583199    0.689059908654
O     -0.610675480538    4.384119631805   -0.036942557102
C     -2.815845181111    4.008898724622    0.845475336787
H     -3.294304212958    4.384290823176   -0.076047157663
N     -3.585689912259    2.877045356143    1.323506129299
C     -4.947257005775    2.844245881988    1.230754538376
O     -5.594828299490    3.782415825739    0.793493887152
O      0.097308892901    0.087835487571   -0.309324439986
H     -0.317905847949    0.951506519358   -0.056057257782
C      2.048955502120    3.566596003702   -4.376871186977
C      1.588561611169    2.786000509703   -5.445395145730
C      0.202570645022    2.523257057835   -5.557251946256
C     -0.658929148933    3.059964199025   -4.591641820595
C     -0.182021024122    3.835016225481   -3.530877065987
H      3.122059557809    3.775054719499   -4.306310677278
H     -1.733265497472    2.869853527636   -4.674343598170
H     -0.878200600519    4.245013378679   -2.795104975671
C      2.558666016394    2.243362904355   -6.466595060013
H      2.525713267369    1.141285510585   -6.516112867534
H      2.327283912735    2.606955054179   -7.482590307833
H      3.592637177550    2.537456778893   -6.234024905361
C     -0.338795313662    1.692567345136   -6.694776144825
H     -0.105197070093    2.140511360441   -7.676103539882
H      0.095778966483    0.678001776449   -6.704306166031
H     -1.431489632832    1.587246818210   -6.627854525571
C      4.634747864151    4.968484146935    1.676490916099
H      5.260754901153    5.756356938849    1.224747611029
H      3.888985674187    5.474832484507    2.309362723633
C      5.465374061504    3.967692731839    2.454161234019
H      6.154889111640    3.422884961052    1.791707860283
H      6.053657062560    4.489689343265    3.225191608505
H      4.822673620726    3.228266541837    2.957613089611
C     -5.607967970149    1.565734107452    1.723044178323
H     -6.254003699293    1.810451376942    2.580281422516
H     -6.261478796712    1.179445890398    0.926788334758
H     -4.895990872964    0.782701732023    2.022452040789
C     -2.763101924525    5.176407420330    1.846067480757
H     -2.301526873475    4.857807937611    2.794066412561
H     -2.178978839658    6.009349446861    1.429588149145
H     -3.787697033352    5.519954471576    2.044938146060
N      2.110965919253    1.248080055482   -0.155945235300
C      1.415016942240    0.088072885987   -0.259440111733
C      2.076906793910   -1.157059568243   -0.323505754721
C      3.453810578981   -1.200148463458   -0.232155645752
C      4.169998156751    0.002758117285   -0.069720047018
C      3.453510398945    1.195917807793   -0.042579653866
H      1.466636057840   -2.054354570736   -0.428983879931
H      3.988456375040   -2.150160633994   -0.270644390819
H      3.974478490704    2.146295132210    0.083899889710
C      5.650722378870    0.068363744047    0.077547521155
O      6.279618495264    1.086110295500    0.255802011506
O      6.219473657739   -1.147638431736   -0.009176442711
C      7.641384550096   -1.192839286849    0.123593821784
H      7.953911213960   -0.800661158897    1.103029570602
H      7.923410664934   -2.248240038369    0.027156941584
H      8.125105872232   -0.593587704100   -0.662257860382
