74

C      1.241305237100    3.591387607643   -3.656819432626
H     -3.310628579396    2.345254684485    1.175615187842
C      1.552098124566    4.713167080683   -2.689207920326
H      2.218143745997    5.443926702993   -3.187547192040
H      0.638942805967    5.274962309583   -2.443204415670
C      2.238923946018    4.280574089967   -1.390752923594
H      3.115861850536    3.646787728261   -1.579839244653
C      2.608617974105    5.459835409079   -0.536297682480
O      2.107824772416    6.557867385254   -0.605366423184
O      3.599200285683    5.169897864055    0.347982293810
Pd     0.904962949252    3.191431773667   -0.273755561762
C     -1.389963340481    3.854426340336    0.578267808653
O     -1.122331459296    2.609768279436    0.618536527026
O     -0.540958625780    4.675224360527    0.117136583999
C     -2.708019560283    4.366645983622    1.131889296991
H     -3.074512113374    5.168852754748    0.475133092217
N     -3.678327180119    3.287127777660    1.099496371826
C     -5.014442864643    3.516541530951    0.941423540098
O     -5.478419769445    4.640506151585    0.831985678319
O     -0.268814889403    0.699497452193   -1.379314614220
H     -0.574519919389    1.440399135893   -0.806562111767
C      2.267313184883    2.942448340417   -4.362518286753
C      2.017901119404    1.905601545489   -5.270488631267
C      0.682165747157    1.492572325104   -5.492692858264
C     -0.342379903071    2.142153593562   -4.793355781721
C     -0.074055054012    3.174629251732   -3.890578007801
H      3.303018446731    3.264285931439   -4.209319689447
H     -1.378469718028    1.833367580717   -4.960122521311
H     -0.897897604761    3.665142783765   -3.364741208171
C      3.158390448284    1.247391140021   -6.008276440205
H      3.207533654534    0.164370916762   -5.801268995552
H      3.050555939972    1.350184463866   -7.101729765782
H      4.126235893657    1.686474140061   -5.725206173773
C      0.366222968030    0.385369688565   -6.468208090235
H      0.704991737238    0.630852028134   -7.489604288269
H      0.866870117019   -0.559207304210   -6.193488528269
H     -0.715040403625    0.189550907921   -6.513714642745
C      3.999059316099    6.230530852705    1.229943612763
H      4.296401364411    7.104204871301    0.627626520098
H      3.130314815113    6.541271119273    1.833397961937
C      5.136692566630    5.727708006947    2.094957738943
H      5.996256154680    5.420521643985    1.478877284125
H      5.470687704904    6.525644065405    2.776454789096
H      4.822940611793    4.866188218590    2.704891454975
C     -5.893231947409    2.274930056521    0.917852884124
H     -6.589366854456    2.319400343000    1.769614654028
H     -6.502704186234    2.294573089573    0.002121255557
H     -5.331647428363    1.330197313937    0.961035729435
C     -2.542875162114    4.939342807321    2.564534680621
H     -3.559340820685    5.216232040362    2.892063534572
H     -2.209961183135    4.115299830428    3.220177919475
C     -1.609723683923    6.150760142237    2.742872474221
H     -0.593011513167    5.852869336305    2.432101609744
C     -1.551500118039    6.536771776043    4.227528003453
H     -1.224634981555    5.691258425393    4.855384722739
H     -0.849717448462    7.369937729855    4.394043432903
H     -2.542124966076    6.858528127002    4.592895526680
C     -2.024867426926    7.348144487379    1.878042735858
H     -1.383633570283    8.219611562619    2.086809060392
H     -1.930044649451    7.128504327139    0.804491200302
H     -3.069346654788    7.642359258411    2.079945077886
N      1.830090418810    1.337523207359   -0.601943327498
C      1.025832432796    0.449180004138   -1.229429052346
C      1.518531848504   -0.766207005945   -1.739748568868
C      2.848273127225   -1.080222911396   -1.526575412180
C      3.650171934312   -0.207817313112   -0.778377903833
C      3.116011181664    0.989445561600   -0.307210916806
H      0.827891495745   -1.423300253149   -2.268077171861
H      3.260890815108   -2.016643357455   -1.910224839028
H      4.684298670134   -0.460873831037   -0.542091002660
C      3.906318868556    1.877741152955    0.608169694078
H      3.921243686883    2.927495209039    0.290363891836
H      3.445849073763    1.865656234305    1.610979058896
H      4.939234904151    1.515699016183    0.702071527079
