74

C     -1.522585068354    3.829023320722    1.919010053496
H      0.819477345389    4.314544849207   -3.931787700238
C     -0.248938745309    4.473109228358    1.549543861334
H      0.389587796271    4.648542165473    2.420896188501
H      1.533863502083    3.046457019235    1.583036056945
C      0.188756295159    5.144062340854    0.397219036953
H      1.113857068654    5.718828257737    0.507739384629
C     -0.594394229577    5.691870929641   -0.759520560624
O     -0.095619820105    6.477686265053   -1.534737419119
O     -1.874237817369    5.316153586511   -0.793607155671
Pd     1.016186910330    3.137905311041    0.150793800960
C     -0.384647748830    2.585071935734   -2.478885443274
O      0.557139068725    3.254590717339   -1.957718864089
O     -1.065484914713    1.719723027792   -1.873395207952
C     -0.697089401335    2.862662267517   -3.959241207639
H     -1.785103636704    3.006447102135   -4.041958667112
N     -0.078870749039    4.114015602066   -4.359122888294
C     -0.805844564844    5.170444901415   -4.836536624221
O     -1.997508610147    5.084201213509   -5.105606136731
O     -0.049626411193    0.132124736073   -0.250880594390
H     -0.452262330897    0.915295778198   -0.824098757765
C     -2.331850474167    3.087625042652    1.037161886864
C     -3.516147346219    2.477485061899    1.456715982868
C     -3.932632409624    2.621093888881    2.803772360600
C     -3.122052072855    3.350140598135    3.685661893784
C     -1.926749113085    3.928173644818    3.263134561908
H     -2.020723472982    2.955817396897    0.002524308342
H     -3.428597136980    3.454336633272    4.730109210261
H     -1.305416957953    4.471499965116    3.980449420438
C     -4.329946424450    1.671810729513    0.473736018377
H     -4.491239771965    0.640699345224    0.830510227183
H     -5.330948220045    2.110701170735    0.319696751416
H     -3.826848684911    1.614612456938   -0.501792852461
C     -5.211401869127    1.987150296381    3.286084477600
H     -6.082237679631    2.347876400359    2.712800188896
H     -5.190508667215    0.890962390887    3.161712273411
H     -5.392762056225    2.203002472431    4.348789732830
C     -2.744816530551    5.960074395057   -1.754721831918
H     -2.549714689139    7.043296706038   -1.725096465921
H     -2.499597120106    5.605523667829   -2.766656109873
C     -4.175712282344    5.628937121472   -1.386448489318
H     -4.422524638656    5.987114948768   -0.375046526388
H     -4.858086024783    6.110471783137   -2.103889427043
H     -4.354137627552    4.543536210297   -1.423554642535
C     -0.031096131720    6.468202974640   -4.972096829979
H      0.992014958243    6.304118580896   -5.343836505081
H     -0.572464632591    7.137679561125   -5.652273989134
H      0.035585760972    6.937722684793   -3.976889034756
C     -0.317210680678    1.662051210687   -4.908239652736
C     -1.195265770922    0.434488635239   -4.602475334470
H     -0.961844078274   -0.376619547687   -5.311713678668
H     -1.044962707342    0.060268920356   -3.581740382725
H     -2.264743098486    0.677357616590   -4.712435222009
C     -0.579505296662    2.097730175722   -6.362957875252
H     -1.618336443747    2.436386683546   -6.497696325016
H      0.081969761380    2.922933835457   -6.664209012787
H     -0.400605459492    1.252385950492   -7.047032975625
C      1.168948693954    1.295480703836   -4.745749610807
H      1.821259423813    2.164151760360   -4.930401265382
H      1.389850737194    0.912457329191   -3.736215374602
H      1.452668111907    0.510515352703   -5.465367373151
N      1.967893583129    1.257770456761   -0.075713440044
C      1.245688542058    0.110787187988   -0.130290227051
C      1.903616355082   -1.145134953619   -0.027959512944
C      3.275444828521   -1.197464387829    0.077209782664
C      4.011982413912    0.006019825113    0.080441825295
C      3.314607664716    1.199081687992    0.010163474227
H      1.284602198323   -2.042234723090   -0.054023228382
H      3.789613890714   -2.158842671669    0.149082296786
H      3.840822416228    2.153677591174    0.039027327856
C      5.513181779006   -0.020301642047    0.160745231532
F      5.933205368237   -0.747870073346    1.212519449096
F      6.056244525939   -0.580276929476   -0.936230903285
F      6.033600091155    1.211372258874    0.283891842980
