80

C      1.348564643808    3.513932454180   -3.355701054540
H     -3.042846312929    2.240555478229    1.706929467076
C      1.627916496643    4.694949612664   -2.450374886249
H      2.293557849381    5.407263731479   -2.975275938874
H      0.702087287418    5.254753010441   -2.251607157801
C      2.294539565924    4.338821002173   -1.121252304489
H      3.207433698408    3.744509171015   -1.257206715219
C      2.577522752683    5.553077017437   -0.281536122391
O      2.095351557613    6.648033326669   -0.455252097463
O      3.458798017205    5.289446930734    0.720824836613
Pd     1.001921863762    3.211598304272   -0.000266581178
C     -1.309846231526    3.811781883789    0.880821811217
O     -0.998341976333    2.577735702562    0.955379288441
O     -0.496814194617    4.647164368498    0.386447487228
C     -2.645602895758    4.292193469034    1.426261000936
H     -3.112162944222    4.938511227023    0.665060461093
N     -3.503984608173    3.140534649569    1.632595160791
C     -4.864640378485    3.232571967647    1.569463509085
O     -5.442272236007    4.293628546439    1.392717310598
O     -0.128738773741    0.577827076515   -0.772912733911
H     -0.441361981605    1.359370429093   -0.251178330572
C      2.394246957033    2.829323107985   -3.995336382010
C      2.172569337387    1.728572421198   -4.832840927116
C      0.845561388059    1.286474613450   -5.051365188684
C     -0.199042398761    1.973334763266   -4.420253502889
C      0.041739899501    3.068409077812   -3.585670326060
H      3.423838009078    3.169806898121   -3.842342253397
H     -1.229003261592    1.644409164531   -4.587457475947
H     -0.796881674464    3.585515820083   -3.111073382287
C      3.334050366776    1.030081902043   -5.497211433589
H      3.386425459358   -0.034530605368   -5.211389323290
H      3.249345998866    1.054025876998   -6.597296558461
H      4.291755949717    1.497273616465   -5.225125877696
C      0.560311756875    0.106328558570   -5.947453160623
H      0.936528260538    0.269110586055   -6.972103687618
H      1.046249273902   -0.813360370316   -5.578189741841
H     -0.519594567745   -0.090798862136   -6.016148298180
C      3.773971619970    6.365029649753    1.621714857061
H      4.781763640315    6.132395543829    1.997099881654
H      3.811849083338    7.305833739875    1.053205033164
C      2.770496934013    6.461415630817    2.759285857849
H      2.711142955750    5.513281978736    3.316485626928
H      3.073835255821    7.254992116778    3.461218347233
H      1.769617612808    6.707915322458    2.375716448090
C     -5.618790137197    1.922891512771    1.744163018262
H     -6.275094355330    2.009570748374    2.623576646424
H     -6.270070055857    1.773419275017    0.869859222507
H     -4.966928589789    1.045523591568    1.866547332774
C     -2.489947040809    5.157175007602    2.718509318245
H     -3.531234136083    5.300687150911    3.051614673363
C     -1.724069598903    4.420979281456    3.822364657897
H     -1.768887463198    4.985557487969    4.767266377985
H     -2.146689819054    3.421633294799    4.010848119947
H     -0.658445572866    4.297305165309    3.563837820582
C     -1.902197743284    6.542150943707    2.431962777082
H     -0.864174462630    6.479109653699    2.072624502172
H     -2.487081571176    7.074183777444    1.664890415338
H     -1.914667043152    7.155688830049    3.347320041016
N      1.983536920273    1.375888804982   -0.301533210623
C      1.184227445571    0.421757238453   -0.741318988157
C      1.675171690578   -0.848175421886   -1.241714557199
C      3.069196985310   -1.101930443241   -1.204272637614
C      3.932712458468   -0.101632689291   -0.593775070639
C      3.348757611202    1.115037170095   -0.140173215748
C      0.780983191979   -1.802045758488   -1.777844163615
C      1.263924435077   -2.994176974969   -2.290977079324
C      2.648531320296   -3.251680515796   -2.271732459589
C      3.533165421408   -2.326679451339   -1.738149260799
C      5.319467118091   -0.296528223495   -0.400856685286
C      6.102935064803    0.658328258721    0.227373988828
C      5.511768170443    1.844516453909    0.695028049421
C      4.155479769116    2.069269777649    0.515505935094
H     -0.285379329850   -1.577017702286   -1.785483130781
H      0.574974653044   -3.731389805698   -2.709387399466
H      3.031707344597   -4.190819674810   -2.678875749200
H      4.599489716000   -2.553817818077   -1.734367698417
H      5.783821685206   -1.223344396142   -0.739859126107
H      7.171886188859    0.482017519241    0.367531057960
H      6.117402836640    2.596844918169    1.205851739998
H      3.700103297227    2.989370734602    0.880212378301
