77

C      1.582614483638    4.012228298412    2.484862262621
H     -2.101101948931    1.651923569289   -3.467679406591
C      0.815251792483    5.272257674820    2.088701500327
H      0.160790304642    5.594323641900    2.915264415848
H      1.527624681651    6.082183241714    1.876971702115
C      0.017079287156    4.909168761548    0.837003496254
H      0.181396313378    5.541448527747   -0.042949292058
C     -1.427377076599    4.626133344564    1.074490257576
O     -1.905858972685    4.323486937541    2.152929937700
O     -2.173804826088    4.716393109036   -0.043500298239
Pd     0.922444962107    3.114911389978    0.402654941334
C     -0.352740166504    2.759611992738   -2.189292113448
O     -1.044513054506    1.870725475690   -1.643944072217
O      0.583250660668    3.407756200437   -1.624176250357
C     -0.639790637186    3.130728552439   -3.657061100141
H      0.294480443217    3.010391266420   -4.230649273504
N     -1.588023128141    2.163972923322   -4.179387409989
C     -1.472568328142    1.635073445448   -5.433793854234
O     -0.677346182038    2.052262909561   -6.261774006311
O     -0.068474132075    0.081600535713   -0.107636041344
H     -0.451912284613    0.899423268428   -0.590171929389
C      0.867993490325    2.823616067606    2.790628947463
C      1.523666500803    1.667086417097    3.289747437033
C      2.914586771748    1.690591313450    3.467309177193
C      3.623487769889    2.869304320788    3.139664079180
C      2.988185885946    4.000685922045    2.651783144323
H     -0.224446965303    2.862164817853    2.817803979697
H      4.707682079001    2.886225559547    3.284333735415
H      3.564111385378    4.901834620684    2.425619727550
C      0.713084158104    0.446341345076    3.640805755819
H      1.040573328622   -0.435191044402    3.064678413794
H      0.823021676163    0.183110080897    4.706675590803
H     -0.355030348061    0.601621560554    3.436182853236
C      3.648605442768    0.487568343367    4.003222806642
H      3.264810020960    0.185499116666    4.992185361337
H      3.529294317840   -0.384784488468    3.338803690687
H      4.725021886946    0.686303096012    4.106573564693
C     -3.559253938260    4.352754119512    0.087762381808
H     -3.620323954285    3.343332761726    0.524676100950
H     -4.040993020568    5.041236902418    0.801411218540
C     -4.206992758673    4.411723252707   -1.279321965763
H     -3.728931391928    3.701326939326   -1.969885656018
H     -5.273567973091    4.149730722198   -1.196630105449
H     -4.133747179987    5.420958316319   -1.713078952906
C     -2.439028266607    0.503240371324   -5.752016098262
H     -1.874279788894   -0.324558730713   -6.205108877794
H     -2.995688026382    0.134563260429   -4.877918952793
H     -3.158095220283    0.856511135947   -6.507880468920
C     -1.068460750645    4.638891520400   -3.784929783760
H     -1.634824706009    4.903161930727   -2.873900460289
C      0.180014935876    5.529949581414   -3.842139275508
H     -0.085767085086    6.596944618290   -3.794998021587
H      0.858366931849    5.312318542615   -3.006650595754
H      0.730358959134    5.360667572957   -4.783890262487
C     -1.997021342787    4.872569388545   -4.992078229775
H     -1.468071508453    4.578457552569   -5.914360774864
H     -2.858103353881    4.190710683375   -4.908734956470
C     -2.520127623158    6.305571083338   -5.118901742400
H     -1.717701110037    7.029994149206   -5.329401901767
H     -3.250465845987    6.382602572255   -5.940520452502
H     -3.026618653676    6.633778649161   -4.194518104260
N      1.937425339467    1.204137091933    0.000171608507
C      1.246966450474    0.068999572052   -0.070299864986
C      1.906794555446   -1.215246136954   -0.080160587481
C      3.332778049549   -1.245136832126   -0.065325117133
C      4.026655973617    0.001601853639   -0.049332948840
C      3.305485595117    1.164918628855   -0.015512923825
C      1.171778155844   -2.425933243244   -0.119865257933
C      1.835381154812   -3.638517580690   -0.129457236419
C      3.250037218688   -3.675570930991   -0.108616729046
C      3.985658316705   -2.505756146936   -0.080057235516
H      0.082571307294   -2.374726815262   -0.143373246794
H      1.269301978985   -4.572526126174   -0.159003113001
H      3.764031602670   -4.640250615571   -0.120145010343
H      5.078172977562   -2.537001645947   -0.070834598307
H      5.117703440671    0.029173915573   -0.062460439886
H      3.800162499541    2.137989979898    0.007915655329
