62

C      1.523675549402    3.973566695123    2.353559434198
H      0.721813682936    4.192325185661   -3.889569223032
C      0.797651609698    5.236185213642    1.886414931711
H      0.062810150144    5.551489061583    2.644670052959
H      1.525875552546    6.048776049602    1.752055389527
C      0.129995505553    4.878224060735    0.560505000342
H      0.412240645989    5.493657009617   -0.301712040152
C     -1.341113008413    4.632933822676    0.624343958730
O     -1.934231422169    4.281685437342    1.628189814320
O     -1.940934266455    4.830497753711   -0.562569368864
Pd     1.033892713755    3.062534008143    0.254768532079
C     -0.368596878297    2.508471383268   -2.204286347290
O      0.616840005154    3.199854243269   -1.777774785918
O     -0.958945324910    1.612267083442   -1.573967796341
C     -0.831920753210    2.796222240381   -3.639677481416
H     -1.916832002438    2.972651551218   -3.592928922958
N     -0.238029270936    4.011879670569   -4.161447175611
C     -0.991269090317    5.038763256593   -4.652421483743
O     -2.200753262313    4.958169357143   -4.815912571638
O      0.142132048797   -0.061712071750   -0.000828303457
H     -0.286050173410    0.711922270956   -0.519111773021
C      0.769889802716    2.810264049548    2.659178833337
C      1.368185632958    1.663240503745    3.238747797835
C      2.748077068449    1.668551821801    3.496435771343
C      3.501052627909    2.818423100442    3.166643076235
C      2.917487576830    3.943264506776    2.603740089231
H     -0.320627192828    2.863606604015    2.591929092758
H      4.575277875728    2.819589249180    3.372965733578
H      3.522931764393    4.826613287583    2.383752320780
C      0.512540831242    0.472700205639    3.587046977517
H      0.851334839807   -0.435327688903    3.061391821040
H      0.555941967330    0.248271047490    4.666511079411
H     -0.537892067904    0.641144467200    3.314046731720
C      3.423016281638    0.472925015715    4.119210709597
H      2.978511568275    0.220553660769    5.096607694433
H      3.316079177450   -0.422951785170    3.484684356895
H      4.496986450099    0.650927587041    4.273204563729
C     -3.345431627008    4.516716250935   -0.675668353145
H     -3.422503741061    3.447873180747   -0.937704989426
H     -3.817290272804    4.656719669840    0.307379186068
C     -3.960700970564    5.402206720233   -1.740906437924
H     -3.479934437852    5.263289370339   -2.721384343778
H     -5.030138234827    5.158400218883   -1.846430833642
H     -3.880829548076    6.464146413851   -1.458418476808
C     -0.224853270637    6.310901804405   -4.979122338075
H     -0.582108532634    6.699491940948   -5.943194890058
H     -0.457210523571    7.068663978341   -4.213639588778
H      0.865423006989    6.170234600915   -5.020153226670
C     -0.579424210578    1.575178530802   -4.537874429671
H     -1.002696839539    1.751367734251   -5.537857698618
H      0.500419157093    1.381833431542   -4.647937740972
H     -1.051793695111    0.683444806350   -4.101485913371
N      2.109193693692    1.156499895847   -0.004879769007
C      1.455935873298   -0.025287129327    0.009632496020
C      2.173385623903   -1.244888507501    0.067681005289
C      3.557745290748   -1.221054956764    0.059771342465
C      4.226814161756    0.012802392758   -0.005984669236
C      3.457593698884    1.166021145447   -0.032667753145
H      1.602432122498   -2.173943508658    0.090725205670
H      4.122011404932   -2.157001265889    0.089545393420
H      5.315485756665    0.076204504841   -0.031274375271
H      3.924805812860    2.153520689753   -0.066869228458
