62

C      1.680265077944    5.850884586706   -1.296206194061
H     -2.602210106462   -0.095941123672   -0.684071155528
C      1.266816915033    5.422514629150    0.048252795888
H      2.349000553022    3.534759170434    0.820993422057
H      1.941291341230    5.696016296599    0.864951028183
C      0.006564978511    4.970256671236    0.422180015222
H     -0.807554528527    4.915151774823   -0.304033892021
C     -0.392301229267    4.916415264574    1.864558746581
O      0.308685867460    5.229035062439    2.801350701072
O     -1.648132232995    4.459800238065    1.961320774252
Pd     1.087136352760    3.097620156710    0.096002226527
C     -1.804138723575    2.709576385995   -1.204103437694
O     -1.832381628869    3.744948465321   -1.854457991139
O     -0.751610097030    2.207214752341   -0.631798015094
C     -3.121813277208    1.935266524989   -1.009199347321
H     -3.560726471709    1.762886985146   -2.004875662378
N     -3.046642311143    0.707045226340   -0.255329697190
C     -3.299751092950    0.659710342667    1.091206230600
O     -3.726400780780    1.619567316633    1.713947853015
O      0.054083167243    0.013406025004    0.215197557918
H     -0.389766102072    0.896842798135   -0.080145870148
C      2.905253715563    6.530835083335   -1.434929550426
C      3.358123594364    7.012171689990   -2.667172806841
C      2.558621679288    6.801475808710   -3.815837036379
C      1.340496279982    6.115866281048   -3.676336571693
C      0.893420596172    5.641882473975   -2.445686369516
H      3.521321441944    6.693536437529   -0.545255358016
H      0.723080975818    5.948364451866   -4.563294360732
H     -0.052851300609    5.097159889963   -2.382019208567
C      4.674172418698    7.743809843433   -2.765435505153
H      5.371024649037    7.238236764257   -3.455538956122
H      4.541809832546    8.769100481466   -3.150995425026
H      5.166900586514    7.816436375549   -1.785088548241
C      3.003698787502    7.301521548295   -5.166253601667
H      3.141318914617    8.396461611707   -5.168213160107
H      3.973541544589    6.865686465873   -5.461779542907
H      2.271003158566    7.053280436676   -5.947350077214
C     -2.217674091497    4.250823039224    3.269962660570
H     -2.899866230137    3.401087753862    3.131972080159
H     -1.410213211242    3.972369822866    3.963543871934
C     -2.946858752853    5.492206335188    3.755147471769
H     -3.723037317297    5.797259765189    3.036159064177
H     -3.437507780222    5.282465456233    4.719381408436
H     -2.249363514119    6.331088001082    3.901721208089
C     -2.993841124741   -0.674187242782    1.751626726170
H     -3.507353073041   -0.717312688197    2.720053910864
H     -3.305319360885   -1.526141246045    1.127058768141
H     -1.906905990408   -0.753868171035    1.914709051633
H     -3.794792082156    2.615555708846   -0.467500484370
N      2.031924060719    1.184229957513   -0.094615328504
C      1.361019794896    0.020710170597    0.055806010352
C      2.032118173483   -1.237447629228    0.060067343500
C      3.404824923469   -1.236318427100   -0.134281633448
C      4.094390975170   -0.028185221023   -0.327973983746
C      3.373853057765    1.149395642320   -0.296141342565
H      3.946566974928   -2.186310862593   -0.143933646277
H      5.172560854583   -0.004715955631   -0.491360988812
H      3.862586433000    2.114390997081   -0.427685181873
C      1.226709255948   -2.490855358579    0.256846929709
H      0.708724426847   -2.482491048594    1.229913006382
H      0.441800052345   -2.580873067223   -0.511486916043
H      1.867172047564   -3.383207988104    0.211165065398
