72

C      3.992334487949    4.914980982097   -0.225405142797
H     -2.924791687103    4.985812651966    1.384765866190
C      3.093130601127    5.178991684681    0.963772990223
H      3.686064370499    5.642590236717    1.773933436548
H      2.310811076661    5.905638416356    0.703219332975
C      2.436194625324    3.908939701824    1.513873460566
H      3.171980536686    3.113426687626    1.690904411270
C      1.661863829605    4.132596752227    2.775359772008
O      1.141778240966    5.173651750805    3.125348064679
O      1.584355058424    3.005123904220    3.524672722353
Pd     1.032787502500    3.124289349988    0.212161475504
C     -1.706144999619    2.959343293523   -0.897568645469
O     -0.583045250577    2.298978224375   -1.020190901930
O     -2.374836550151    3.404899420661   -1.804292110544
C     -2.198057047825    3.159768462833    0.576807074726
H     -1.554929608000    2.570659752007    1.252998000572
N     -2.105578027744    4.571871871859    0.950482240745
C     -1.034610239681    5.355715654140    0.790362122429
O      0.052180609336    4.963834942016    0.310225983277
O      0.049539247148    0.187528250313    0.194287969970
H     -0.314190396832    1.041577087184   -0.256130145610
C      5.340632588053    4.568905067908   -0.043286582024
C      6.189176870807    4.248575194815   -1.112632530338
C      5.674266539112    4.279979891813   -2.429892684971
C      4.332166654878    4.640299954882   -2.614579694470
C      3.499526603980    4.952708024992   -1.536787470580
H      5.747279082836    4.544103833576    0.973318775444
H      3.926260650953    4.674599680167   -3.629830649368
H      2.456233784831    5.224697692821   -1.717890896153
C      7.626245753402    3.866763642464   -0.856497337270
H      7.834032008656    2.836015386623   -1.191184440153
H      8.327639252670    4.522095056091   -1.400187694908
H      7.872214664847    3.925573622596    0.213770324247
C      6.547364957588    3.933942576911   -3.610743216781
H      7.423446078952    4.601273192400   -3.682011920677
H      6.942371358471    2.906102635792   -3.536759013027
H      5.990343271742    4.010845998609   -4.555805393502
C      0.826510718454    3.083643400045    4.739697054218
H      1.202160908967    3.924106568472    5.345559565779
H     -0.224992299680    3.312085385952    4.494943591952
C      0.959165499720    1.759792801246    5.464735921092
H      2.013013034874    1.544816495914    5.700088397618
H      0.393866346865    1.788805996829    6.409492425595
H      0.568443360625    0.931289274489    4.853775580612
C     -1.139336077449    6.791891947296    1.228589738794
H     -0.451559546069    6.915947421102    2.079830059860
H     -0.787069471058    7.439665905833    0.412969881742
H     -2.157637919219    7.085419212078    1.518618925287
C     -3.660312121239    2.690890025140    0.696816000736
H     -4.229634453611    3.197391776038   -0.097355365468
H     -3.674594329877    1.614904422665    0.460510307888
C     -4.288108549773    2.936206246068    2.051753253537
C     -3.901727517540    2.183769427269    3.175280485816
C     -5.257000655734    3.938414232009    2.224327787072
C     -4.462303249567    2.429510553643    4.430106451711
H     -3.158811099555    1.388596027041    3.061664991509
C     -5.819294525563    4.189167697755    3.481912921289
H     -5.590874464309    4.516967927630    1.357273056208
C     -5.421923382222    3.436366357404    4.588590338557
H     -4.153793922825    1.828654903073    5.289647463397
H     -6.575784824984    4.970451860661    3.592393950082
H     -5.861728150491    3.626867933880    5.570734276269
N      2.062152466971    1.319219267671    0.041976935127
C      1.354786399075    0.167754045798    0.129864767655
C      2.047072680721   -1.075587005844    0.154646197344
C      3.423319056065   -1.111641793931    0.011489770589
C      4.109750250241    0.099391704193   -0.156378653388
C      3.402659528483    1.291040079858   -0.130999430777
H      3.953698775611   -2.064440756982    0.010875881930
H      3.913131530349    2.246932022078   -0.245202256549
Cl     1.134077085203   -2.538095927550    0.336232236676
Cl     5.837389214393    0.109331981505   -0.383130447628
