74

C      2.323200942352    5.376476807289    2.569942345328
H     -0.157818397666    4.800180146323   -3.405042118306
C      1.115323438363    4.547050383724    2.208953753243
H      1.550692754555    3.424889715638    1.986383312638
H      0.492580328337    4.290499632928    3.078253742530
C      0.280497955442    4.942993454832    1.052264947185
H      0.597160120980    5.799277748732    0.447642202238
C     -1.199638605828    4.799532404876    1.211857365908
O     -1.731977428361    4.230703312323    2.142224857688
O     -1.864336157234    5.362417058434    0.190673814975
Pd     1.048296307955    3.201490629438    0.316089639468
C     -0.762468560533    2.759915585085   -1.886439468614
O     -1.272586305839    1.873449853019   -1.179468291552
O      0.326454614576    3.378499673070   -1.622082704301
C     -1.465918772719    3.173914040343   -3.190952587882
H     -2.544754326502    3.152664791177   -2.983268035210
N     -1.136579866895    4.554177138753   -3.506053767778
C     -2.054007889299    5.562728673972   -3.394440845718
O     -3.251802026975    5.363795986901   -3.247601329697
O      0.043618335089    0.114221818794    0.109316255064
H     -0.427651024054    0.927642524399   -0.297060827222
C      2.472392860290    5.845542993685    3.881988179160
C      3.556378733703    6.645533767492    4.269490846783
C      4.536224507769    6.986530113914    3.308589924677
C      4.387078122311    6.508521572800    1.998446868581
C      3.302109817444    5.713895144778    1.627049040857
H      1.716438422308    5.585253240342    4.628917697065
H      5.143432179527    6.763908531126    1.250805485248
H      3.218116208610    5.352230839648    0.597836238929
C      3.671038417565    7.131749005653    5.693041216525
H      4.604723467427    6.784077123991    6.167069288996
H      3.685607497679    8.233703453453    5.745490456798
H      2.830844855508    6.778079680226    6.307658800784
C      5.720309709341    7.842743333437    3.682232841409
H      5.404655160864    8.829606783834    4.061620565231
H      6.322289942686    7.378960677456    4.482269628244
H      6.381442368619    8.011120363148    2.819932350460
C     -3.308380647418    5.239359617679    0.182272656563
H     -3.583534891143    5.329532921892   -0.876959077910
H     -3.572185150472    4.235416155266    0.544737058884
C     -3.965044412497    6.317480597990    1.027419939569
H     -3.666071140408    7.322069660751    0.688546971940
H     -5.060443662350    6.240688097272    0.935511557812
H     -3.702207086424    6.205929510581    2.089856905234
C     -1.474509630124    6.967007318298   -3.438480247924
H     -0.514843711762    7.022777698750   -3.973852952738
H     -2.203472946282    7.639313933777   -3.910085691357
H     -1.318114901606    7.308107072138   -2.401672843399
C     -1.194119722059    2.188646211839   -4.383929179113
C     -1.986498632158    2.689292105990   -5.606314439469
H     -1.851893371765    2.000105443751   -6.455790036908
H     -3.063616522415    2.751795473170   -5.384687920090
H     -1.651457397347    3.688369095692   -5.922056637557
C      0.305988897496    2.142928720002   -4.728179377861
H      0.690413753539    3.140053759277   -4.997365091105
H      0.909140690594    1.763125153957   -3.888631794194
H      0.479509558974    1.481171260700   -5.592272945932
C     -1.684703192270    0.774670008095   -4.020984537907
H     -1.139721502303    0.351826002886   -3.165768836388
H     -2.754131776770    0.780351827499   -3.756584465180
H     -1.552657167426    0.100396483007   -4.883003715930
N      2.034953092625    1.291893770836   -0.011264697831
C      1.357112165217    0.128752144675    0.049689079316
C      2.031612927160   -1.128657989442    0.080137958526
C      3.416463775474   -1.115865681302    0.004356324968
C      4.116229077600    0.099042859492   -0.100960489928
C      3.385132714937    1.271724920114   -0.102204479832
H      3.962565428508   -2.063466074206    0.017126432400
H      5.204310376034    0.127709944082   -0.173281147212
H      3.875545212496    2.246047232324   -0.167922840198
C      1.217429951068   -2.387597423349    0.176560439164
H      0.607946747380   -2.395180268696    1.094888877563
H      0.506187337265   -2.460486981066   -0.661995797346
H      1.861784062115   -3.278512566129    0.174078649658
