84

C      0.208570375859    4.843559280024   -2.828056719927
H     -3.253985630942    0.073145429466    0.180461338937
C     -0.120585007526    4.786809393437   -1.396675341466
H     -1.114839224892    4.356478911765   -1.235072968862
H      2.311276000359    3.707606945746   -0.862910490947
C      0.421423783416    5.318988748615   -0.216265490998
H     -0.250824663107    5.275136620325    0.647230440769
C      1.567634605438    6.254114047743   -0.018608186415
O      2.323136833622    6.717200085114   -0.844762402807
O      1.658688848342    6.563793079554    1.291535474931
Pd     1.040586712612    3.218421870063   -0.200839110966
C     -1.882340608867    2.929952135641    0.985491061167
O     -1.965434190168    4.075722599721    1.395724772638
O     -0.785159977688    2.340121160536    0.609677054175
C     -3.160781674064    2.058432721692    0.953366699622
H     -3.979208462340    2.768046316497    0.752462580379
N     -3.135839816108    1.043879396785   -0.083438771529
C     -3.033510305244    1.365265603745   -1.402052521284
O     -2.939578261090    2.527815666119   -1.779569533414
O      0.002277468110    0.238626321321   -0.427497254971
H     -0.448280811395    1.084215771425   -0.014608816721
C     -0.719909491095    4.220646735993   -3.693959144883
C     -0.558138275926    4.211722253916   -5.081886545414
C      0.573838472642    4.847594259629   -5.643948392484
C      1.496553365207    5.464729927292   -4.783674022719
C      1.333411910738    5.469919464600   -3.401103704800
H     -1.589901798218    3.721131909387   -3.257775187320
H      2.371936738704    5.959060815472   -5.214956542318
H      2.060198552493    5.965806290503   -2.760518307806
C     -1.582373221925    3.533603009767   -5.959161939032
H     -2.045509911977    4.241949244801   -6.667553084501
H     -1.131184506456    2.731978636325   -6.569013256338
H     -2.386018168183    3.088128118090   -5.355696817529
C      0.788079991526    4.864848499870   -7.135487728242
H      0.856516438323    3.843121757439   -7.547163148243
H     -0.050640668020    5.354593500601   -7.659592315566
H      1.711125423546    5.398888929463   -7.403444277303
C      2.695471960888    7.480238905916    1.670705431412
H      3.671639519819    7.060200422035    1.375772599108
H      2.569312120542    8.417664678311    1.104486675873
C      2.600276758804    7.703332561998    3.165969432849
H      2.735214813313    6.759249036845    3.715972661265
H      3.380862574723    8.408707638625    3.491403181706
H      1.619377532497    8.121506188025    3.439164470808
C     -2.986397695075    0.193454414978   -2.365569978031
H     -3.470628046652    0.484448637038   -3.307146854323
H     -1.930212997345   -0.038727452183   -2.576971943475
H     -3.468358919002   -0.712176727302   -1.967510501066
C     -3.367029520602    1.417528987119    2.341784232240
H     -2.482983406227    0.804160723387    2.582800896135
H     -3.388411016559    2.245070782953    3.067799153974
C     -4.621985655448    0.579151015296    2.461084621575
C     -5.893058580142    1.178829458037    2.431553096582
C     -4.549556288401   -0.816873677377    2.588936315348
C     -7.052461411067    0.406792863094    2.522727881638
H     -5.973577762080    2.265916717924    2.339766264042
C     -5.709703180777   -1.594839669740    2.679648926278
H     -3.569256145589   -1.301830208063    2.633680673149
C     -6.965270408733   -0.984885801470    2.645307511710
H     -8.031155706609    0.893419853095    2.501558861640
H     -5.629214350025   -2.680225768333    2.782940567054
H     -7.873403189537   -1.588638851298    2.718350721818
N      1.979989299507    1.291179177787    0.090151606700
C      1.296423478629    0.203720806717   -0.229781412746
C      1.940091968767   -1.092255325302   -0.405171975606
C      3.331292545513   -1.210933406372   -0.166117863083
C      4.049670909332   -0.033656219485    0.300771650836
C      3.333471539328    1.190663858932    0.424441672863
C      1.183664298869   -2.210928056196   -0.818549672502
C      1.799528910448   -3.436159536616   -1.013540673182
C      3.184147916961   -3.562004096298   -0.791471350024
C      3.934636744299   -2.473241135080   -0.374196071957
C      5.419368787175   -0.056294096845    0.649546680120
C      6.066821070065    1.075921535812    1.117302560571
C      5.349687499282    2.276484107826    1.257634549364
C      4.007566787133    2.329976208854    0.917409324649
H      0.113565639466   -2.085371232162   -0.982863177337
H      1.215575754339   -4.300455615641   -1.338307757299
H      3.674084019646   -4.526614826860   -0.946911360684
H      5.004654785747   -2.600096543284   -0.207727825692
H      5.981134341442   -0.986604791025    0.556958202054
H      7.125637971685    1.031215416093    1.382251618603
H      5.846350029094    3.172114332354    1.638441866710
H      3.443275798660    3.256439996036    1.030678836638
