77

C     -0.571378667226    4.652017091917   -2.391653323617
H     -2.415542172899   -0.287461998644    0.564912813225
C      0.452214625291    5.041746955237   -1.417480335788
H      2.407895287602    3.739380067011   -0.542776323563
H      1.388073417953    5.393234201212   -1.859456425975
C      0.307486868847    5.246628977421   -0.042236367766
H     -0.651019304493    5.103290602038    0.468674942118
C      1.291944263513    6.037355107894    0.760501437190
O      1.163026999350    6.257850649419    1.941325672488
O      2.329632019215    6.499101374839    0.031367993434
Pd     1.040710862091    3.198939475701   -0.180734610167
C     -1.945648599626    2.698081651766    1.005276331007
O     -0.859945907574    2.281450528549    0.407528710464
O     -2.176073049607    3.862431338346    1.293244299472
C     -2.965247572702    1.598744948016    1.382506249959
H     -3.943370364673    2.097254401695    1.372037215121
N     -3.018118867406    0.514706204840    0.416417212720
C     -3.599118419571    0.671545180327   -0.812609600127
O     -4.205600491233    1.685118647313   -1.123149083159
O     -0.028385733542    0.057321948811   -0.138877793274
H     -0.474683360783    0.998343853733    0.078576282733
C     -0.197228847859    4.572422894686   -3.749682384280
C     -1.099462843092    4.211378611817   -4.752903603944
C     -2.433429700772    3.902393385938   -4.389805286299
C     -2.808388916129    3.983820265315   -3.038716147273
C     -1.905458250453    4.362195886510   -2.049636423288
H      0.836882230478    4.801220021002   -4.025118648744
H     -3.825110075759    3.715883316410   -2.744155078637
H     -2.239734319816    4.419596376215   -1.013507855540
C     -0.656352502116    4.146687992444   -6.193880746539
H     -0.790794501109    3.136342665891   -6.616423672240
H     -1.241857498484    4.831666322111   -6.830510541149
H      0.404690996141    4.415503889914   -6.299898342935
C     -3.439701906649    3.491301447481   -5.433360961688
H     -3.588233982003    4.283464217252   -6.187555610003
H     -3.108559232307    2.594960819008   -5.985433327734
H     -4.415462280205    3.267885026926   -4.979825680583
C      3.336360770339    7.239386030633    0.740146218434
H      2.859086553168    8.087907455990    1.256212821482
H      3.770668761182    6.592947009233    1.520752570890
C      4.377651187074    7.695515789060   -0.260601993128
H      3.928785968836    8.342613531603   -1.030149064541
H      5.166342566358    8.267299427316    0.252775996108
H      4.847803933772    6.835773240944   -0.762698429220
C     -3.417769029772   -0.505604909376   -1.758505478155
H     -3.657008534372   -1.462133134503   -1.267468438731
H     -4.068561447855   -0.365409083150   -2.630057520057
H     -2.368435022587   -0.553132827508   -2.093096777636
C     -2.670883993019    1.021823256010    2.780475948896
H     -3.446078765780    0.261835002803    2.987865772575
H     -1.707561975001    0.480307106206    2.733166571554
C     -2.618584266277    2.021487222244    3.950917225706
H     -1.795778607775    2.731860724186    3.757323688073
C     -2.294074741937    1.274875039207    5.251758987276
H     -1.354604459868    0.703355318050    5.169519396190
H     -2.186298405603    1.975823136857    6.094824950030
H     -3.095931678934    0.562001906909    5.512266743227
C     -3.908159357350    2.841392213800    4.085265932217
H     -3.867343960640    3.484778044275    4.979018889689
H     -4.055711613158    3.496901595136    3.215069209873
H     -4.790728190297    2.185294473329    4.187952610317
N      1.964135268974    1.240964834447   -0.034856329738
C      1.272457542537    0.067489076191   -0.090319042661
C      1.958316311124   -1.176452255809   -0.103231603476
C      3.332740647613   -1.209209886071   -0.029738465963
C      4.043145908322    0.007591794562    0.056111459777
C      3.311795512361    1.189007459543    0.045656497268
H      1.353882788731   -2.082301125840   -0.160174509049
H      3.874599338989   -2.156155071165   -0.031472531449
H      3.843216092856    2.138056467529    0.099810139570
C      5.524438812508    0.101545464090    0.147146930843
O      6.144653905973    1.138042145911    0.212142715581
O      6.108083627646   -1.112232870655    0.149213718836
C      7.533332794304   -1.127007434103    0.235595609556
H      7.873188301903   -0.643315136940    1.163768443360
H      7.829242440724   -2.183116362484    0.225370864156
H      7.981795497113   -0.595615176232   -0.617358272045
