34

H     -2.512790494073    5.484700452627    0.859487700423
H      2.467181401244    3.627032186308   -0.679582455017
Pd     1.135145607073    3.085232506606   -0.187748119536
C     -1.387232243666    2.686866123844    1.562735470601
O     -1.991624602263    1.962185952952    2.323798391040
O     -0.824113255167    2.335672189125    0.438108468479
C     -1.202334132969    4.187436647074    1.896852084939
H     -0.143387246641    4.358161321103    2.150722643003
N     -1.577552528042    5.097431287027    0.820180606044
C     -0.831462283098    5.432566258654   -0.243291629749
O      0.304593105150    4.982777598884   -0.483312937108
O      0.036635937376    0.073268455582   -0.065776589255
H     -0.421735248992    0.985808320052    0.149492811339
C     -1.415114481263    6.448719934860   -1.197245866102
H     -2.366433644894    6.878367129730   -0.853581158927
H     -0.681163381927    7.255136007843   -1.341098459427
H     -1.564566830388    5.966871758396   -2.175801274554
H     -1.812163350262    4.426676818629    2.777002374830
N      2.041498478213    1.233603233164   -0.018108635972
C      1.337303873029    0.088785035118   -0.032772398467
C      2.003852037384   -1.198602528622   -0.024798742551
C      3.424378629277   -1.244833384711    0.026760059252
C      4.123671413394   -0.002007342224    0.075178022616
C      3.419447697795    1.166747107721    0.050414198040
C      1.257042596146   -2.400799119697   -0.059890038945
C      1.908322678411   -3.621096420505   -0.052986498726
C      3.320520932863   -3.672939163834   -0.006216225430
C      4.066454375384   -2.509110551955    0.034541341576
H      0.168874001299   -2.339288043103   -0.091456534216
H      1.331813997228   -4.548743786550   -0.081184103413
H      3.825268568939   -4.642617857838   -0.000037744574
H      5.158012216834   -2.549244038868    0.073652873672
H      5.213516788313    0.021796052875    0.127422048678
H      3.927164178055    2.128042211625    0.080524931742
