39

Pd     1.272990943507    2.931648222792   -0.590015425759
C      0.478604323744    5.633576673436   -0.551016579872
O      0.844040579070    4.673563269720   -1.379204596888
O      0.334825034978    6.784777796921   -0.896981259454
C      0.269774063626    5.173501161549    0.906350320497
H     -0.718368377775    5.557913843151    1.202202817476
N      0.248143570453    3.701647315928    0.930972603203
C     -0.642256566472    2.982947453470    1.624904787100
O     -0.830788885558    1.758101902176    1.476751990879
O     -0.004186658637   -0.022048150767   -0.030666398835
H     -0.357644228902    0.808655819053    0.494408045922
C     -1.497167671542    3.690442557180    2.669703574915
H     -1.917935328808    2.918387272308    3.325384517914
H     -0.938687217525    4.423325950578    3.267089068220
H     -2.331150765459    4.215657109212    2.175557006522
C      1.318620459980    5.792875569191    1.877220930782
H      1.174889487432    5.259714469066    2.834522691461
C      2.767362162750    5.558544640881    1.433141636661
H      3.467857595384    5.934441644292    2.195825458230
H      2.979185725984    4.487648239010    1.286220432401
H      2.987587882504    6.086864867966    0.490931334795
C      1.038405479614    7.282065697510    2.117337159268
H      1.111235385261    7.851969176563    1.180023878578
H      0.025506267953    7.439774000973    2.523351841930
H      1.758238847155    7.696976039100    2.841061531425
N      2.019673067803    1.079625278906    0.013076018107
C      1.294854654681   -0.055151087664   -0.012251962865
C      1.961207626412   -1.330420204909   -0.035827251679
C      3.346084459087   -1.366233064671    0.025010402930
C      4.070073319671   -0.158324300171    0.107751313294
C      3.380925657721    1.032687824855    0.102186069726
H      3.878558390554   -2.317681500953    0.027595116184
H      5.158635137601   -0.162285037980    0.176507227199
H      3.893268573149    1.995346778105    0.164171058119
O      1.141374694548   -2.393145507929   -0.104309593948
C      1.701649512840   -3.688463459730   -0.133869847625
H      2.280928392498   -3.902970780945    0.782353844491
H      0.859727224187   -4.389622449861   -0.197199702283
H      2.355861003859   -3.829935706417   -1.013049654013
