71

C     -0.551351037980    4.653399241051   -2.195439752908
H     -2.067054459311   -0.254336499311    0.436619385202
C      0.539706342234    5.032627355596   -1.292554028551
H      2.586042160932    3.729757063587   -0.496728257865
H      1.443416384396    5.388842492367   -1.793830999314
C      0.490588997980    5.212891017399    0.092081487333
H     -0.423767925200    5.043648664311    0.671583055939
C      1.522570735531    5.998061630680    0.837211418377
O      1.484940429906    6.188140580761    2.029581339060
O      2.492631417139    6.498364115815    0.041133417541
Pd     1.219746757378    3.167958384009   -0.149268627233
C     -1.725397121186    2.593413204097    1.018703324963
O     -0.685566739402    2.210371715462    0.334051513460
O     -1.851317552938    3.690915546930    1.543750147582
C     -2.880501412405    1.572299118051    1.161542775211
H     -3.780322535969    2.123391948070    0.853524987226
N     -2.787736196928    0.437440842829    0.264769898805
C     -3.415283806596    0.410693591829   -0.954261785208
O     -4.188425412017    1.281466833067   -1.322563552147
O      0.186150454846    0.063280696974   -0.511159102060
H     -0.274641450440    0.945470030799   -0.205176694968
C     -0.260301763136    4.498310681757   -3.566621413377
C     -1.229126277871    4.112918762363   -4.496619461304
C     -2.546986060703    3.861133519271   -4.043101814754
C     -2.842880720771    4.035274104908   -2.681176867101
C     -1.873624249723    4.435237609812   -1.766995661170
H      0.762743720619    4.678075365742   -3.911184373575
H     -3.851866243571    3.819078758238   -2.324358740991
H     -2.141970702705    4.562637418418   -0.717937845934
C     -0.871823333377    3.958097586754   -5.954473228669
H     -1.044800978333    2.927392338418   -6.308314666351
H     -1.484214093446    4.614987752923   -6.595266518630
H      0.184977982106    4.201683704077   -6.136829985054
C     -3.620931144491    3.410588090542   -4.998765071044
H     -3.831210188042    4.177607904236   -5.764635041035
H     -3.320332932393    2.499838233649   -5.543798764417
H     -4.557225248381    3.190296823281   -4.467679420962
C      3.534583174569    7.243848703850    0.688467267286
H      3.081519174166    8.063373071792    1.269182959852
H      4.048277963558    6.587406687448    1.410750957353
C      4.478320894422    7.758576190296   -0.378722080530
H      3.951238099958    8.416247112483   -1.087222762588
H      5.292893708010    8.335702983739    0.086059169585
H      4.925198959681    6.927805085934   -0.946773510080
C     -3.079753964750   -0.804051449451   -1.806942926913
H     -3.401329773871   -1.731843365037   -1.306213819979
H     -3.597781860362   -0.715428922842   -2.769430549209
H     -1.992485640981   -0.870243598905   -1.971788532134
C     -3.050836969951    1.163221526397    2.647562831234
H     -3.091537362373    2.119419199631    3.194228484804
C     -4.369678025403    0.417532779877    2.874873206636
H     -4.508562400770    0.182142108817    3.942486924427
H     -5.232034199921    1.018868755455    2.546020066605
H     -4.393082865332   -0.531741785150    2.314932132308
C     -1.852494379198    0.366797381166    3.182324310749
H     -1.765132240230   -0.619615786371    2.693440013047
H     -0.902162196033    0.904349480994    3.035416185261
H     -1.962668451073    0.177498395971    4.261911122238
N      2.143687818164    1.224129283646   -0.055752212475
C      1.481339067468    0.067231289283   -0.300286716122
C      2.169297267086   -1.169535721745   -0.346436748532
C      3.533386220728   -1.235689528683   -0.111956576272
C      4.199142694664   -0.021539332277    0.173417003308
C      3.479365650574    1.155128503945    0.185741324165
H      1.577227809834   -2.061143173477   -0.559126746371
H      5.271565250526    0.001418256848    0.376115630431
H      3.972731612178    2.104674066496    0.391572883918
C      4.285308371283   -2.538447306430   -0.147990473311
H      4.775761447264   -2.733054418443    0.820077320285
H      3.623944067412   -3.386060457083   -0.375836678295
H      5.081970098726   -2.507561417813   -0.909625087348
