62

C      3.969931787888    5.054131769422   -0.083666514219
H     -2.750614457010    5.355919640369    0.687681619960
C      3.053351094015    5.009617114790    1.119900103208
H      3.616619354173    5.362430066118    2.004134740879
H      2.224616423109    5.716275209188    0.986487310455
C      2.478301282472    3.630110688144    1.464620674378
H      3.265623892467    2.873867623187    1.575695144056
C      1.630923276627    3.657787154064    2.698245587378
O      0.918694428438    4.578363829419    3.052685621907
O      1.723282700983    2.504531867781    3.404877831078
Pd     1.070571224433    2.862267767787    0.146420031399
C     -1.649492756743    2.779005492463   -0.967103861950
O     -0.648767057517    1.943437077344   -0.889939760808
O     -2.200425717111    3.161211634223   -1.976578786854
C     -2.138135634656    3.332315982764    0.409769217795
H     -1.625758417554    2.834215068514    1.247962233806
N     -1.945226057010    4.773940803075    0.495663932963
C     -0.783297925756    5.393160243396    0.260405237797
O      0.275019776293    4.802678422524   -0.039277176613
O     -0.251300124493    0.347323498019    1.084905942627
H     -0.527626839693    0.995216828128    0.343751332114
C      5.359727937447    4.930749609518    0.065191881050
C      6.241564375814    4.953008162191   -1.025199560777
C      5.716184952303    5.107427117818   -2.328856966616
C      4.327873193300    5.237361056234   -2.478380360885
C      3.463979931179    5.212809647377   -1.381439305939
H      5.775378917202    4.818641786159    1.072285107374
H      3.912452920487    5.364047843683   -3.482687810887
H      2.386798886447    5.316627539466   -1.530873875984
C      7.729258631196    4.823232750875   -0.804989068442
H      8.147686259536    3.952697466301   -1.338967311182
H      8.275130984212    5.707200090786   -1.177426043466
H      7.968603069483    4.708182958232    0.262303405505
C      6.626169239289    5.143161586562   -3.532208521561
H      7.349585956790    5.974777972898   -3.473436550497
H      7.222127255485    4.218683463985   -3.623680833737
H      6.053224054188    5.264436487792   -4.463101746433
C      0.884030200598    2.379096839985    4.560444480047
H      1.028102807571    3.258078425691    5.209145811999
H     -0.171739334650    2.384837000919    4.240026466120
C      1.245015077819    1.087808359404    5.266285727279
H      2.300236721575    1.093950434111    5.580890718840
H      0.617922439013    0.959212988354    6.162532435824
H      1.087638474234    0.220514930551    4.606855036964
C     -0.756247074909    6.895115174654    0.386649820298
H     -0.194736691876    7.143655226221    1.301405642358
H     -0.211824759241    7.317984680535   -0.469001286270
H     -1.757935740600    7.343606779030    0.443636344046
H     -3.216663001115    3.141109971055    0.492285807462
N      1.846306690587    0.935679940043    0.320314931501
C      1.022504410637    0.045221590278    0.926436370856
C      1.500596903014   -1.200612597990    1.377719793139
C      2.811843039008   -1.547085585392    1.103917759511
C      3.614100124844   -0.673847784260    0.357452317570
C      3.106197774428    0.562623897751   -0.037731884904
H      0.805190549795   -1.864900888338    1.891267826746
H      3.205962401332   -2.512395757647    1.431932137261
H      4.628291026631   -0.951598450785    0.068319988981
C      3.905320697684    1.485873185546   -0.909670286801
H      3.315999694204    1.773127468489   -1.794173056698
H      4.174739738622    2.419402214457   -0.397098809907
H      4.829980036220    0.995952714781   -1.243501792233
