74

C      1.572687769581    4.018429307672    2.504340133028
H     -2.079742787919    1.664812733289   -3.475888758689
C      0.816210873417    5.287592981824    2.115542222449
H      0.166999794604    5.612299232872    2.945207510262
H      1.535718189346    6.091536773177    1.905094367334
C      0.011143760357    4.936847618963    0.864629485470
H      0.177358386210    5.571904448024   -0.012971251674
C     -1.434807636942    4.663730100309    1.105363194124
O     -1.912529576590    4.364623379536    2.185184094696
O     -2.182353966132    4.758471037538   -0.010971843925
Pd     0.903773799804    3.139107880236    0.420933953675
C     -0.363054777118    2.794029193944   -2.173806269870
O     -1.068493274822    1.918452326787   -1.628796604904
O      0.574321120487    3.440263359378   -1.604996409778
C     -0.628599814696    3.154938870379   -3.648659176607
H      0.316236846670    3.046934334624   -4.206717888012
N     -1.553587324660    2.171846051044   -4.181808359956
C     -1.405606469906    1.631245749298   -5.427423806988
O     -0.596441871155    2.047352328148   -6.242626402602
O     -0.118758913014    0.116178250551   -0.045978286096
H     -0.493998313333    0.922037608653   -0.537832623599
C      0.847217206327    2.835787986930    2.807738801787
C      1.492632186010    1.670225389003    3.298724086490
C      2.884521766548    1.678521704654    3.470048326105
C      3.604542872359    2.851136021116    3.145076382954
C      2.978796359683    3.991618232216    2.665636511198
H     -0.244678019205    2.884816358821    2.837816724346
H      4.689391534891    2.856646715752    3.286239531195
H      3.562982787336    4.888049464291    2.441847014853
C      0.670673628857    0.456705995428    3.648144902002
H      0.990533047204   -0.426120944976    3.069989434807
H      0.777894916794    0.191459766067    4.713860000004
H     -0.395639066199    0.621493274637    3.442398299496
C      3.607688351171    0.465068175556    3.997654658521
H      3.227615420892    0.165044639860    4.988685046899
H      3.471264602607   -0.404394081847    3.332515363864
H      4.687302151676    0.649944717018    4.093962286975
C     -3.569229563347    4.400753992487    0.121551547949
H     -3.634561330068    3.398015068297    0.572716281853
H     -4.050981404016    5.101107369456    0.823706264202
C     -4.212194421482    4.441653053160   -1.248385362859
H     -3.732820794804    3.719519268314   -1.925712364446
H     -5.279727207213    4.183566955150   -1.165794556276
H     -4.134677846863    5.444222197167   -1.696663006019
C     -2.355099286787    0.487649123705   -5.754792868935
H     -1.775840660934   -0.333827708268   -6.200852585068
H     -2.916695183756    0.113594762871   -4.886151438475
H     -3.070495583631    0.831536725655   -6.518528755100
C     -1.080115795580    4.654831732967   -3.789999274442
H     -1.676236803251    4.909623180065   -2.895262348270
C      0.152558189038    5.568944037045   -3.814112497781
H     -0.134320119596    6.630796009481   -3.775170392602
H      0.812135582533    5.363967095734   -2.960592282399
H      0.731416686442    5.409705417392   -4.740428124181
C     -1.979365214156    4.869558943950   -5.022591751592
H     -1.420638683045    4.581538696674   -5.929203828873
H     -2.830550122709    4.173257854330   -4.960117863896
C     -2.523099669741    6.292993323990   -5.168591239562
H     -1.727779801242    7.030372137056   -5.360343096738
H     -3.232567489230    6.354909077201   -6.009537870348
H     -3.059557976520    6.615400741990   -4.259198057627
N      1.911349907773    1.227614114245    0.004446556408
C      1.201785131704    0.085725123969   -0.058368273434
C      1.862150554641   -1.162891444655   -0.108326451711
C      3.245000909240   -1.197752512326   -0.146967246232
C      3.991480206607   -0.000508450980   -0.140044152776
C      3.258257126496    1.178866724912   -0.057209168132
H      1.253513892602   -2.067437151590   -0.141481416137
H      3.761418155287   -2.160974923104   -0.201354640527
H      3.767023730881    2.146364540764   -0.028344392346
C      5.496316650737    0.003449993452   -0.222247626055
H      5.900549866695    1.023006449560   -0.138106178912
H      5.946546583183   -0.604935978962    0.579578134134
H      5.846705586510   -0.415144031850   -1.180712898799
