75

C     -1.535313621115    3.824506759093    1.937364816337
H      0.829427727577    4.299189876499   -3.874959054255
C     -0.253895190332    4.459146610492    1.573727056127
H      0.380631567731    4.631502530127    2.448504228092
H      1.520701906924    3.008998632520    1.621086498899
C      0.189973064043    5.131581970819    0.425371167626
H      1.116629923159    5.702956593827    0.539178408539
C     -0.584656233368    5.677161533624   -0.736942997646
O     -0.083220772945    6.465979347083   -1.507950762174
O     -1.862846439124    5.295851812518   -0.783650461326
Pd     1.008161708056    3.118461521348    0.187800118976
C     -0.383344265274    2.573866212179   -2.445509316613
O      0.558321199281    3.245974779706   -1.922753396430
O     -1.077052670667    1.722542055008   -1.840691370836
C     -0.672579313123    2.837906507696   -3.934520578801
H     -1.759628573972    2.975234899565   -4.036916060889
N     -0.051298009502    4.088858398466   -4.333915165125
C     -0.772074407045    5.138943680836   -4.833461005690
O     -1.955389154294    5.046125338054   -5.135160281060
O     -0.066751125456    0.130267007421   -0.166776596126
H     -0.463100643305    0.891678474215   -0.743789194250
C     -2.336448763077    3.075516545177    1.055175232004
C     -3.527390343725    2.473537370959    1.468254943471
C     -3.958928701596    2.633712854321    2.808344117363
C     -3.156547606973    3.370991536298    3.690788901827
C     -1.954705906660    3.940883353918    3.275157078154
H     -2.013340704071    2.929577301044    0.026040580356
H     -3.474694004905    3.488135656997    4.730486443665
H     -1.339933910037    4.490813050131    3.993175204647
C     -4.330578477697    1.657514506528    0.484989000425
H     -4.493694290968    0.629592208197    0.850193476697
H     -5.330601018205    2.093515431272    0.316509973394
H     -3.816899396589    1.591284648030   -0.484432870365
C     -5.244581517634    2.007803697894    3.283441016451
H     -6.108496627017    2.363683010820    2.696696678792
H     -5.224715414238    0.910191703553    3.171755423716
H     -5.437239282730    2.236035698985    4.341677819041
C     -2.724120964036    5.929626564399   -1.758017557588
H     -2.536893321422    7.014392700941   -1.731518599550
H     -2.464151103754    5.572265773555   -2.765344853552
C     -4.157729236403    5.590529557995   -1.407463125564
H     -4.420180368251    5.951966876397   -0.401155490535
H     -4.833921321254    6.063500947050   -2.136417970449
H     -4.327547534473    4.503686997295   -1.440898160076
C     -0.000461374517    6.440955223338   -4.951834580274
H      1.027646778320    6.281469830540   -5.311853196933
H     -0.535382567565    7.112020995235   -5.635529035637
H      0.053580026146    6.905359420857   -3.953391827128
C     -0.270246941422    1.632046903977   -4.866169364458
C     -1.132182017898    0.395677651829   -4.550054582766
H     -0.884682319354   -0.419784132368   -5.249738284674
H     -0.980675884064    0.034980534951   -3.524577426270
H     -2.204595105721    0.622196670135   -4.666183143219
C     -0.529036150576    2.046438224904   -6.327678751460
H     -1.572894737584    2.364080211408   -6.474304554434
H      0.119000654922    2.881162311051   -6.632283088437
H     -0.328530529120    1.197521469665   -7.001519293638
C      1.219912386513    1.288362630692   -4.690182669157
H      1.860378878622    2.163645573481   -4.884755888475
H      1.440664703784    0.924786252673   -3.673657866365
H      1.517914667470    0.496639129061   -5.396801766004
N      1.961865810551    1.247453271364   -0.053017868283
C      1.239274669802    0.116569379014   -0.101904490550
C      1.900618875688   -1.159530541050   -0.054393466590
C      3.286309175477   -1.197765941975   -0.004145353388
C      4.010635100004    0.010874154347    0.004568176088
C      3.320853020009    1.202716236843   -0.015510590381
H      3.817726479654   -2.149557205509    0.016949476209
H      5.101067399783    0.009108126238    0.035636878901
H      3.833803666081    2.164826847435    0.009858486429
O      1.079781416734   -2.225964063701   -0.081107211604
C      1.641382215514   -3.519342974029   -0.047654998634
H      2.222668254650   -3.689385986579    0.876833091917
H      0.800667132363   -4.224543611068   -0.076068689953
H      2.295147972502   -3.704108341763   -0.919445192778
