77

C     -0.184578101395    3.925808873310    3.324013164029
H     -1.381144417608    5.541343688438   -3.386194043623
C      0.966371276908    4.314581470017    2.431192350781
H      1.829670622689    4.710341446830    2.987312737809
H      1.519717281752    3.263326764013    2.094211266874
C      0.703083919312    5.066029970870    1.188072986303
H     -0.319133238998    5.371619549293    0.948365509413
C      1.789264537451    5.980832792727    0.743216763097
O      2.927271761841    5.958685800113    1.169699535648
O      1.389509236974    6.843103225393   -0.214065528132
Pd     1.163127531293    3.238552221865    0.374419831307
C     -0.837457720342    2.954988990985   -1.689203303864
O     -1.172837889374    1.860297635949   -1.197319993900
O      0.244635215183    3.591038459303   -1.473754998715
C     -1.848219827040    3.588198027715   -2.670245260379
H     -2.822910250697    3.252317172946   -2.285828161299
N     -1.832323062747    5.038074051607   -2.632804314715
C     -2.111109603163    5.708101661988   -1.478538024474
O     -2.460124764918    5.127065548127   -0.457536574111
O      0.069218736892    0.094771384331    0.041586881408
H     -0.384469752733    0.923766520133   -0.398246677652
C     -1.473166329363    3.700934257997    2.813796500225
C     -2.545547345775    3.355788168772    3.644122407675
C     -2.326429946769    3.216825453661    5.036561464706
C     -1.037769177483    3.438059456045    5.539451813016
C      0.023048655553    3.788671224443    4.701329078331
H     -1.662936456093    3.800018208459    1.741785448595
H     -0.860137207686    3.336311127975    6.613950020706
H      1.016667326495    3.960063615651    5.125405806309
C     -3.914161158584    3.138086194332    3.047411273962
H     -4.260648355970    2.100785104714    3.196763780760
H     -4.669013421374    3.791570521765    3.516742096213
H     -3.912442957808    3.344876230350    1.967992538120
C     -3.456261342702    2.838259292253    5.960842967875
H     -4.273828672898    3.578711863792    5.927569942704
H     -3.902839570223    1.869175270625    5.680077600989
H     -3.114230794287    2.761923121238    7.003270553244
C      2.409727298902    7.703926099308   -0.749977139329
H      2.859083639282    8.280921191881    0.074263059784
H      3.211531164619    7.079113626461   -1.175979674246
C      1.785451713446    8.605171351977   -1.794552161996
H      0.999886643344    9.240440519455   -1.356865548583
H      2.556184958979    9.263370784586   -2.225264249272
H      1.341204361527    8.016905649069   -2.612136529274
C     -1.938003769091    7.214496531204   -1.524251330059
H     -2.733525607114    7.679069698047   -0.925760851080
H     -0.971637163648    7.460765198843   -1.057420101540
H     -1.956726973465    7.625607915583   -2.544795751141
C     -1.685257591860    3.030782665084   -4.105516649622
H     -1.660543016347    1.934942953554   -3.973011756840
C     -2.910502590499    3.374037166776   -4.964845380452
H     -2.844908269309    2.915307730880   -5.963003447669
H     -3.837667610158    3.012439619052   -4.493240815221
H     -3.012488034974    4.463185784160   -5.102915019685
C     -0.354228325575    3.446105920854   -4.767694927078
H     -0.392865107463    4.517946707524   -5.042583032588
H      0.456739317231    3.354293213602   -4.027519375798
C      0.009674283909    2.633282699258   -6.013094079662
H     -0.729960384142    2.750156229345   -6.821128248218
H      0.986112014388    2.945817275227   -6.416054761890
H      0.077217041081    1.557944362417   -5.778103983383
N      2.037597452630    1.279478500965   -0.007377118773
C      1.373461689094    0.123350598270    0.032223847292
C      2.075047000046   -1.142384559211    0.086793317517
C      3.499365368414   -1.137490815880    0.064865212418
C      4.160608951333    0.125293607144   -0.020216953161
C      3.409699517120    1.267744972356   -0.052538716243
C      1.371050821313   -2.368614951548    0.153548298029
C      2.064647498485   -3.564008953529    0.207846748476
C      3.478905041628   -3.565945304756    0.191356840540
C      4.184333584360   -2.378791663548    0.119446509809
H      0.280703615748   -2.343395711063    0.161834441141
H      1.521500577090   -4.510577653766    0.261307108768
H      4.017638700099   -4.516278444815    0.233735037649
H      5.277283054610   -2.382335810986    0.103772642892
H      5.250057937095    0.181365505016   -0.054306817727
H      3.883280819362    2.250946386903   -0.108444546145
