72

C     -1.628703195593    3.771641020637    1.918036627886
H      1.075482275023    4.311955924640   -3.926541282695
C     -0.312479294550    4.376305245922    1.637309772356
H      0.293593026309    4.477598270627    2.542831705848
H      1.419862224796    2.864557127664    1.671614179330
C      0.199304849624    5.089295648885    0.543411133399
H      1.142282818918    5.616469868963    0.719624138236
C     -0.509155776582    5.720813932278   -0.618059098757
O      0.057030057541    6.508869005934   -1.343697705097
O     -1.804382224344    5.414634386072   -0.711935079688
Pd     0.950913396939    3.059564618111    0.232786220816
C     -0.338769921962    2.653916769252   -2.477166219052
O      0.571004099031    3.302009825066   -1.881259862384
O     -1.089749822712    1.800084435697   -1.953372222108
C     -0.513163166508    2.950317895356   -3.986812653913
H     -1.587315357713    3.126754334320   -4.153372137886
N      0.161706780470    4.177839016172   -4.347813771670
C     -0.529686528562    5.302494760667   -4.718082182841
O     -1.731442965312    5.291981397407   -4.946735325227
O     -0.209032073342    0.113082174784   -0.273821015458
H     -0.555138454062    0.900109266048   -0.837056475825
C     -2.422771772221    3.104333471347    0.966444381293
C     -3.649642549774    2.526792843688    1.301883654413
C     -4.125118562189    2.628106402672    2.632912234071
C     -3.330109781402    3.283238279048    3.584019185557
C     -2.093662136832    3.828948579992    3.244454893762
H     -2.066669719432    3.004115343162   -0.057361886335
H     -3.682564670923    3.354193589132    4.616787126233
H     -1.486734875668    4.313977402034    4.014038825476
C     -4.446019264500    1.799779437757    0.245966566893
H     -4.662332796533    0.760556466279    0.545722734248
H     -5.421489524014    2.284585572345    0.067434016742
H     -3.899641412436    1.767268316939   -0.707124087500
C     -5.449834341094    2.027002855513    3.025531069769
H     -6.277553773761    2.448441373690    2.430110966971
H     -5.466262156935    0.937385062983    2.852072297789
H     -5.673418288065    2.203011305268    4.087629225244
C     -2.601907638772    6.133345528913   -1.682805886032
H     -2.357588651280    7.204261486078   -1.604940260198
H     -2.330682832076    5.802616257647   -2.696224987621
C     -4.061033490327    5.859578505085   -1.384533543404
H     -4.333028426023    6.193573670266   -0.371251878060
H     -4.689707990796    6.398138750603   -2.110537093625
H     -4.288282713757    4.786008441716   -1.468559658327
C      0.300792334553    6.569674114663   -4.781835464891
H      1.326095925916    6.383496684112   -5.136096326958
H     -0.197908551511    7.290817914050   -5.441766711680
H      0.355549311563    6.991461568550   -3.764466730687
C     -0.087705468681    1.741971069678   -4.831333023561
C     -0.733405557434    0.504013827225   -4.668203812920
C     -0.361986228898   -0.598646389628   -5.440009452411
C      0.658792007601   -0.486750463076   -6.390155000584
C      1.302015023478    0.740556228460   -6.561702443095
C      0.929628842943    1.846162329814   -5.789354565469
H     -1.522002479481    0.410277203323   -3.920145527737
H     -0.878143738023   -1.552503496576   -5.300795428475
H      0.946279024746   -1.350250361630   -6.995826570491
H      2.097042354217    0.844660025282   -7.305161833882
H      1.424021080491    2.806792530037   -5.942480623556
N      1.844451513777    1.171181927078   -0.077001685285
C      1.098348966992    0.047973689656   -0.181692957920
C      1.716896623406   -1.224462379475   -0.162545259297
C      3.096007059174   -1.346111227149   -0.077744073945
C      3.851604714619   -0.152495263361   -0.014164691808
C      3.192975876485    1.060389595530   -0.010567744694
H      1.064257670547   -2.095418979938   -0.239223153760
H      4.941538523895   -0.175517149932    0.042598960546
H      3.745723872003    1.999215446137    0.060394164992
C      3.775828593153   -2.688783074773   -0.069595816185
H      4.380408711266   -2.815121747621    0.843712987465
H      3.050863378845   -3.513121903614   -0.119734298672
H      4.464475817221   -2.782744344882   -0.925522762593
