77

C      1.872190003238    3.971842944258    2.460930804561
H     -1.637845218342    1.331980463561   -3.710731498206
C      1.205625606168    5.315024640518    2.169252697235
H      0.691715926956    5.688211566464    3.070370909652
H      1.972442960068    6.047581329836    1.880225380038
C      0.230847742410    5.066119320145    1.019815457348
H      0.355083249873    5.700404339265    0.134642082454
C     -1.197055559991    4.932759688731    1.427214497801
O     -1.576805396606    4.714153907702    2.563690722461
O     -2.045768258214    5.068159577217    0.389487032621
Pd     0.908652480912    3.213664946338    0.442219708739
C     -0.499846435816    2.902434822011   -2.113988334658
O     -1.179658434069    1.991625031333   -1.588852996155
O      0.390706588209    3.595593222766   -1.530707850776
C     -0.712497411066    3.208913726284   -3.610115070313
H      0.255571899528    3.524395313702   -4.023468110294
N     -1.067466216152    1.961209485867   -4.266296219899
C     -0.389760472469    1.472347977226   -5.349657512690
O      0.463529756205    2.107636839040   -5.947286895032
O     -0.293034070112    0.237776249916    0.013560171577
H     -0.660135590056    1.053145785062   -0.492797814544
C      1.070704847954    2.855975216845    2.820308458953
C      1.646899377342    1.625094014823    3.231679691359
C      3.043353983109    1.499895789228    3.265127682314
C      3.836186432089    2.607143336200    2.884929416410
C      3.278152726603    3.810718770490    2.483191775860
H     -0.002594377448    3.005786967158    2.963820969257
H      4.925060540111    2.507710062668    2.917306238095
H      3.920282262576    4.653165245591    2.213206622169
C      0.751537869825    0.487353282455    3.649481311337
H      0.918380101478   -0.407884981023    3.027563915048
H      0.945233952043    0.185687181902    4.692974688680
H     -0.309279602397    0.759856398841    3.564504996982
C      3.696592571383    0.214168205033    3.704933947557
H      3.385725104397   -0.070573257815    4.724221621620
H      3.418602417245   -0.624522034975    3.044732266029
H      4.792864453658    0.297429749548    3.698537202923
C     -3.450202906997    4.884338880960    0.650242938763
H     -3.712433416371    5.414909213500    1.578172119100
H     -3.949113143629    5.376731331328   -0.196704197016
C     -3.832834491761    3.415098283489    0.736826802000
H     -3.386729195682    2.948783850526    1.626763529311
H     -4.928315765337    3.320558654384    0.811841510427
H     -3.492340661046    2.866048414433   -0.154048064446
C     -0.786734891267    0.066439848765   -5.778458893077
H      0.095574996277   -0.587633819050   -5.701553082158
H     -1.609080031111   -0.364343900674   -5.188649625477
H     -1.076900967460    0.092446590677   -6.839433737666
C     -1.737240128831    4.368161094311   -3.890519302397
C     -1.281839072570    5.655224544877   -3.179047436118
H     -1.935672816832    6.493323790515   -3.471757001373
H     -1.325272012704    5.559917398082   -2.085006336097
H     -0.249819431803    5.922048014439   -3.458088550478
C     -1.767849763305    4.620643746082   -5.409965582798
H     -0.770110209495    4.879162118179   -5.795792269173
H     -2.115809566795    3.733935701804   -5.960154985935
H     -2.454743066833    5.451521567284   -5.640193642348
C     -3.147709906788    3.982058953167   -3.412314505192
H     -3.502965587840    3.067118269563   -3.912387032179
H     -3.177305136702    3.809374979312   -2.326630309682
H     -3.863023106118    4.787046654255   -3.647769866646
N      1.762674236289    1.255533307219   -0.107548518894
C      1.016765544095    0.153790183429   -0.083862849234
C      1.610695265188   -1.160374411093   -0.140063200802
C      3.026679897955   -1.258559962500   -0.282906126799
C      3.774454507060   -0.046722321008   -0.370876928215
C      3.116570504385    1.150637712402   -0.277386774521
C      0.820309847044   -2.334669318729   -0.074210416256
C      1.421860264455   -3.577873788670   -0.131590036348
C      2.827016294720   -3.682712378436   -0.266326280391
C      3.614647530984   -2.549578883914   -0.343841210477
H     -0.261272489664   -2.230715812955    0.021347498110
H      0.813594717035   -4.483944174915   -0.078866571647
H      3.291364326184   -4.671149766297   -0.314392030113
H      4.698708394679   -2.633582921624   -0.455192818693
H      4.856900623270   -0.071831792893   -0.508539674452
H      3.655371894397    2.098863535367   -0.328748214257
