74

C      1.628495436091    5.886261878267   -1.042371740991
H     -2.788412584792   -0.104296718003   -0.458100662094
C      1.288235199207    5.425084987489    0.311481522224
H      2.241273863279    3.439397570953    1.122229820478
H      2.031553619326    5.640982594771    1.084722599366
C      0.039192300431    5.014013450850    0.768182178289
H     -0.836277763979    5.010625552186    0.113672933720
C     -0.241014426900    4.949355652479    2.237987868543
O      0.567311754118    5.136135661870    3.121580427526
O     -1.529793167011    4.649458055252    2.426176343985
Pd     1.033432434489    3.133342482428    0.261278990820
C     -1.872378643193    2.856376576541   -1.117610029588
O     -2.002153343652    4.030016230026   -1.435186920900
O     -0.769575806781    2.330416940526   -0.670174594674
C     -3.033034624000    1.831200155237   -1.312535765808
H     -2.747181058852    1.258848689009   -2.213455461503
N     -3.044316034475    0.848275689702   -0.233402554002
C     -3.205114126049    1.171799420324    1.084974707851
O     -3.440190344626    2.312594284783    1.453184347337
O     -0.058996574411    0.167879956967    0.347751374551
H     -0.469321420691    1.030106878679   -0.048542461941
C      2.890153005579    6.476744634079   -1.251488938828
C      3.285109721977    6.978550836101   -2.495466716806
C      2.385891284148    6.884288511351   -3.584471156704
C      1.130384358773    6.289994777097   -3.375472653668
C      0.741784467612    5.795212673834   -2.133093794058
H      3.582651203590    6.551929829726   -0.407462794449
H      0.434317720403    6.215110072716   -4.215648149020
H     -0.239222043030    5.327865508266   -2.012866889562
C      4.643627214518    7.612407696712   -2.668126815865
H      5.243489019453    7.089853936851   -3.432701638493
H      4.563420712781    8.662132576914   -2.998283250223
H      5.214251725017    7.600605037469   -1.728221256855
C      2.764476578384    7.413088889786   -4.944169484885
H      2.986802961706    8.493540074086   -4.911629829539
H      3.671786426757    6.920605952393   -5.334220343107
H      1.957031840691    7.257957283807   -5.673920358250
C     -2.014256350298    4.432774258640    3.761831393139
H     -2.814145815192    3.691008945210    3.632471643162
H     -1.202589771371    4.002991543628    4.368500956461
C     -2.530033008570    5.721564381878    4.380080874126
H     -3.308465443390    6.175048767488    3.747043836766
H     -2.970020885421    5.512313575640    5.368671975572
H     -1.714870454622    6.448587653348    4.515551724847
C     -3.036004108374    0.012503821867    2.054582577868
H     -3.511377458638    0.272902640224    3.008483789422
H     -3.471508398907   -0.922286098845    1.668345114631
H     -1.960564411950   -0.159054970595    2.222091167263
C     -4.402284063778    2.508595834176   -1.606115503080
H     -4.507292163904    3.339080868555   -0.889896461324
C     -4.401704974068    3.086628927530   -3.029832391138
H     -5.307521659930    3.681786182804   -3.219616782155
H     -3.536857040392    3.743390584975   -3.184005178209
H     -4.372549634210    2.277601374760   -3.782660639001
C     -5.581457811965    1.539728725681   -1.392000097657
H     -5.468051495829    0.669619053311   -2.067698335423
H     -5.533363975408    1.136707461244   -0.369427063162
C     -6.963672137422    2.165646461448   -1.596070168406
H     -7.136524782398    2.478010886492   -2.637781626860
H     -7.760096614904    1.450605148101   -1.333511627290
H     -7.093383056072    3.055181193255   -0.956844362745
N      1.957776739858    1.213980072033   -0.108624833718
C      1.234551507946    0.090401443200    0.121308827332
C      1.844322171506   -1.183479788119    0.130741015067
C      3.190610533635   -1.284182558664   -0.162504060078
C      3.914392024290   -0.124919222825   -0.473304340510
C      3.276499135309    1.112877457587   -0.436647273252
H      1.218328766517   -2.049554087080    0.346859444441
H      3.681764855808   -2.260624089575   -0.171737695938
H      4.970808362635   -0.176990854356   -0.738839035221
C      4.036735277504    2.369114529103   -0.757729485172
H      3.471505901203    3.005534491087   -1.455376099322
H      4.209099012444    2.964677572611    0.153240543206
H      5.012323290484    2.128982640970   -1.202707176209
