41

Pd     1.132870818281    3.115610235526   -0.543685161425
C      0.027388621217    5.706588062968   -0.422412068837
O      0.506271572687    4.824614728134   -1.283094301571
O     -0.377600878686    6.798755218004   -0.749118897467
C      0.074261344566    5.219225808469    1.044461715569
H     -0.826434839255    5.600611097003    1.547820433903
N      0.047205256689    3.748962603791    1.000731026355
C     -0.929526772946    2.982672857841    1.504894349129
O     -1.094237897207    1.781679984331    1.207811606289
O      0.012662367304    0.177780001002   -0.331756266039
H     -0.436031758648    0.943377511402    0.215000312388
C     -1.896731831334    3.588948525031    2.513071862189
H     -2.433857610288    2.760248049023    2.990056941700
H     -1.393766860780    4.196364491537    3.277192372064
H     -2.630307390119    4.228308861005    1.995510725938
C      1.320934438123    5.790060755900    1.786523011953
H      2.205163399425    5.507287105129    1.182978172925
C      1.258953360697    7.322211657515    1.860470228242
H      2.190056724618    7.733890097226    2.277626822832
H      1.095628937066    7.773061282010    0.873117746892
H      0.429046611170    7.646157651375    2.512127608154
C      1.487537771746    5.153215357885    3.179462930593
H      0.644113135701    5.471450395002    3.820293215719
H      1.404103421673    4.058869564923    3.081157370617
C      2.806773499822    5.486635560546    3.880888427089
H      2.906894196805    6.561574597256    4.096709908597
H      2.887728506147    4.951373555738    4.840399111345
H      3.673621680547    5.192709205736    3.264419489627
N      1.998239076248    1.295055738719    0.034914794029
C      1.303155720125    0.139702795492   -0.143688416175
C      1.971949236996   -1.107070726873   -0.149227525124
C      3.330133698358   -1.143303084854    0.095011731703
C      4.023175082222    0.052394747916    0.348274137139
C      3.335981439029    1.259082194863    0.310130911145
H      1.375485515204   -2.003164341387   -0.321677948445
H      3.861042734102   -2.098636712342    0.109158818874
H      5.091949964407    0.047662285145    0.564941861624
C      4.040883125107    2.565722642007    0.556826835657
H      4.038320234522    3.206591230521   -0.341073513947
H      3.544800453972    3.131582053700    1.360393712274
H      5.087644057762    2.393544743705    0.842194299519
