81

C     -0.145435869290    3.949577900351    3.372294175150
H     -1.696270936343    5.562419456951   -3.465516726530
C      0.963993937169    4.325732054424    2.423198677998
H      1.845975408016    4.741664664534    2.932956947208
H      1.507719855053    3.267024767943    2.091328867893
C      0.640096643660    5.044901707219    1.175791752184
H     -0.397605249276    5.315897421028    0.961477292068
C      1.684926559179    5.970459414401    0.662859216702
O      2.844558600216    5.975980070780    1.029325447792
O      1.221769032371    6.806138591415   -0.289338911402
Pd     1.113797619320    3.209789834499    0.384630916878
C     -0.900162477961    2.954373482767   -1.662911609552
O     -1.302990594553    1.919524946586   -1.102539137818
O      0.208607647706    3.547750640595   -1.475267826639
C     -1.842517925158    3.568582869110   -2.730655102535
H     -2.831279799274    3.145898323715   -2.497638202893
N     -1.897718681031    5.020311167371   -2.634976593108
C     -2.179435773030    5.650521832236   -1.462091346904
O     -2.399078269433    5.029054353157   -0.429039256937
O     -0.075955082996    0.182199526685    0.183430321112
H     -0.513545345311    1.009341843958   -0.280750176474
C     -1.435357468473    3.638575777305    2.913195735035
C     -2.470324060609    3.303000207648    3.793220549971
C     -2.211000407866    3.266009187718    5.185359076410
C     -0.921162534445    3.572920016055    5.637052751677
C      0.102723769084    3.910647074183    4.748878372334
H     -1.652364797797    3.659628541463    1.841736211468
H     -0.712471428987    3.549084990496    6.710521995999
H      1.098676010876    4.149014626959    5.133075759249
C     -3.842427359970    2.986061519194    3.251609795461
H     -4.144456317393    1.952318359855    3.493037907209
H     -4.611825205210    3.647024019806    3.685751358295
H     -3.873977313330    3.102894782773    2.159269991177
C     -3.300058674158    2.902290597208    6.163099311513
H     -4.151505158034    3.601617255245    6.101863581518
H     -3.708038664711    1.897210826066    5.961013660559
H     -2.930114115566    2.913180039454    7.198706410030
C      2.199617000344    7.665587022742   -0.900472969590
H      2.668614491203    8.285730454343   -0.119457066322
H      2.997746427752    7.041169160214   -1.333599061212
C      1.513301055808    8.508981050797   -1.954398332900
H      0.737188604692    9.151594346206   -1.510604579708
H      2.251927292451    9.158788142454   -2.449301906314
H      1.042934937946    7.876133797380   -2.722611370032
C     -2.170138450411    7.167094068394   -1.498155275456
H     -3.012446027638    7.539018234899   -0.898484868629
H     -1.238043074915    7.509173458538   -1.023007221596
H     -2.228155119777    7.585686096150   -2.513960585835
C     -1.436218793449    3.144485555918   -4.132091625820
C     -2.317420834625    2.405243556642   -4.933736441038
C     -1.951319483214    2.019391648297   -6.226849358254
C     -0.698391865569    2.372131312289   -6.735080297593
C      0.188599658745    3.107509386721   -5.941631143565
C     -0.175095730039    3.489355652448   -4.648111334047
H     -3.298700799898    2.128055668907   -4.539466921018
H     -2.649102345372    1.441891954421   -6.838748732271
H     -0.411111010713    2.071157339346   -7.745886320090
H      1.174312869449    3.377792579969   -6.329432152733
H      0.526952710561    4.039533037100   -4.017322117194
N      1.960204794382    1.220764581685    0.022641908633
C      1.226036923708    0.127762437227    0.119761622958
C      1.824035344641   -1.201987918199    0.191513091859
C      3.232929467430   -1.333157137137    0.114968450124
C      4.027402728771   -0.122983505937   -0.047629144396
C      3.346797937496    1.127078221910   -0.087857457051
C      1.002104921880   -2.341297013405    0.331059150648
C      1.567596957369   -3.603862969784    0.406861823349
C      2.966615651496   -3.745448926792    0.338523376539
C      3.783204449471   -2.633778395721    0.193866496259
C      5.436157271311   -0.129977935819   -0.160748568325
C      6.157951974208    1.044977258409   -0.303729304839
C      5.481526591809    2.276898140442   -0.338112495969
C      4.100027611233    2.314920023808   -0.233312439391
H     -0.077789501809   -2.199187726489    0.377757478796
H      0.932024893517   -4.485639796663    0.517245468845
H      3.415972503495   -4.740179762422    0.397895513699
H      4.863523691839   -2.773000351208    0.141709029901
H      5.971838746768   -1.079973476690   -0.134862721655
H      7.246665056539    1.011318681015   -0.388191812841
H      6.040207507044    3.209484623056   -0.447709248765
H      3.572398757676    3.271942769631   -0.259588548271
