47

C      1.975635157823    3.262802070019   -2.444214163229
H      2.816038759999    2.567196008545   -2.506192541640
H      2.184581704175    4.334580558718   -2.428977414609
C      0.698134344238    2.806018246082   -2.675564222255
H     -0.130336797542    3.505864898602   -2.810678673089
C      0.425505708761    1.365753104698   -3.007894680322
O      1.281602409851    0.523016763044   -3.139124680583
O     -0.885321109952    1.159686617787   -3.138226236201
Pd     0.954173711243    3.008564103883   -0.459941713547
C      0.007892706735    5.533186443000    0.387685680043
O      0.135323335169    4.814288899689   -0.709367841662
O     -0.320167734616    6.695807126657    0.403824601424
C      0.345764914848    4.780768302587    1.692226892611
H     -0.351439154165    5.126493827778    2.466618667905
N      0.296691272095    3.334993185746    1.471750085073
C     -0.332940261913    2.535357946919    2.289308917568
O     -0.595733712483    1.293790785304    2.035991846277
O     -0.013523310846    0.134429994424   -0.074633810075
H     -0.380563918928    0.912825629684    1.078503742174
C     -1.321560479671   -0.205077907031   -3.314882336459
H     -0.750322385776   -0.654506626647   -4.142232927759
H     -1.073954554375   -0.751619845275   -2.391354359434
C     -2.810488771446   -0.188321807835   -3.585683271632
H     -3.042373182821    0.378531896672   -4.500690078271
H     -3.175953842001   -1.218785562568   -3.716222398743
H     -3.358234181797    0.267268913340   -2.746757013755
C     -0.841103733147    2.988977135583    3.638336057114
H     -1.091124758020    2.100561488357    4.230455630720
H     -0.100856425661    3.597919323712    4.175058067748
H     -1.756148685590    3.591675879072    3.517673977448
H      1.360170008765    5.093224282046    2.000521084417
N      1.975626086623    1.239189629862   -0.144072874987
C      1.250074775509    0.065057858200   -0.096981202862
C      1.981524673025   -1.166629656683   -0.052829943026
C      3.354169677568   -1.168870725744   -0.004113403600
C      4.061940110041    0.060656195547   -0.003718607884
C      3.317249776683    1.229681837315   -0.084467196683
H      1.397458274606   -2.087648670620   -0.042425844598
H      3.911676930977   -2.106030518503    0.041355076268
H      3.835272734686    2.192059048631   -0.107513123560
C      5.537672160510    0.178553998134    0.057327459917
O      6.147422277628    1.225744743473    0.048453950715
O      6.142863440431   -1.024485410577    0.124943696740
C      7.568028173219   -1.010426499946    0.182202342991
H      7.919507057172   -0.463555607622    1.070382306299
H      7.882803571512   -2.060134046625    0.232229479854
H      7.991532274173   -0.527226376875   -0.711437211867
