74

C      1.634955641627    4.024889873567    2.265748550131
H      0.515264520323    4.329160637542   -3.875588070013
C      0.957022979936    5.307649656306    1.783329875427
H      0.278756191004    5.692392519411    2.562163606708
H      1.721368957152    6.072064464087    1.582952814626
C      0.206501958824    4.940113915636    0.504459134284
H      0.473049469190    5.514248975869   -0.390551447606
C     -1.269277613512    4.770689139950    0.652495492902
O     -1.821262322097    4.476718835391    1.697752895007
O     -1.925069925209    4.965148047135   -0.504811568188
Pd     0.999865961313    3.068095346958    0.220019941169
C     -0.493914415282    2.558834612316   -2.193804489274
O      0.556025751268    3.177331708021   -1.808828948286
O     -1.159893407533    1.765192493930   -1.502544152940
C     -0.908475705779    2.797166337143   -3.652387655135
H     -2.005222385362    2.834634911311   -3.686064288896
N     -0.439552575755    4.089831256741   -4.118621694813
C     -1.288945788775    5.080658703686   -4.517771395428
O     -2.493094705082    4.913129428572   -4.652656450251
O     -0.093236177129   -0.008713477437    0.008532606872
H     -0.489447292262    0.802445635506   -0.466762990311
C      0.836130279689    2.910698773385    2.633548990189
C      1.399535165328    1.750248200241    3.222720243427
C      2.786297925000    1.692716421134    3.429529612431
C      3.581891758350    2.794228387722    3.039853867714
C      3.033913437429    3.930862736778    2.465226553677
H     -0.252040521543    3.019737324102    2.610870357677
H      4.661929396317    2.747027692397    3.207021725313
H      3.673680272281    4.775596196073    2.196251178913
C      0.500286119548    0.612688940730    3.632662187447
H      0.771805972873   -0.322228202704    3.114725733777
H      0.576322774681    0.408550114098    4.714313675695
H     -0.550752961957    0.828868654641    3.398063657732
C      3.424581388646    0.481038039395    4.060005889481
H      3.008742162860    0.278717181431    5.061405191374
H      3.245847958837   -0.425056565962    3.456864505457
H      4.511678479556    0.607147455654    4.165917457811
C     -3.344062655692    4.695703371614   -0.533263528377
H     -3.466512935102    3.631778853041   -0.796605087799
H     -3.748546831668    4.843999114620    0.477896370084
C     -4.000297935464    5.604257140084   -1.553311317764
H     -3.599577817615    5.443347493955   -2.565531523648
H     -5.082888966143    5.399926507709   -1.579709685675
H     -3.861800127301    6.662606394748   -1.279574712196
C     -0.636860145382    6.431155435188   -4.768960430440
H     -1.121998800056    6.902041976893   -5.634842907815
H     -0.817430549677    7.077287639043   -3.894358133772
H      0.447970668548    6.367554017166   -4.941269792839
C     -0.403292860370    1.662026840224   -4.575604150386
H     -0.717918773485    1.931069827398   -5.599430183922
H      0.701637427882    1.686861757545   -4.576051988698
C     -0.876543408510    0.229730621623   -4.263975883716
H     -0.514845435549   -0.041682968504   -3.257153267883
C     -0.251359178886   -0.749467831578   -5.266973453434
H      0.849584449740   -0.686121288287   -5.264965589957
H     -0.527958933896   -1.790178187783   -5.032355623936
H     -0.594095475522   -0.538492210701   -6.294944680320
C     -2.405430953932    0.105466333454   -4.247290503575
H     -2.710004934853   -0.943730275542   -4.100909515268
H     -2.844942242736    0.691827399996   -3.427603424028
H     -2.845450992114    0.450870355979   -5.199181364270
N      1.942704154969    1.094839022903   -0.024471220933
C      1.223198523217   -0.044882053198    0.000092187300
C      1.862432483999   -1.306606187987    0.044504319317
C      3.247971456509   -1.397520453136    0.014555579232
C      3.978151013064   -0.189738073198   -0.057979118493
C      3.289269800333    1.009604034414   -0.071364251870
H      1.226668312606   -2.193070650970    0.074773516137
H      5.069177392702   -0.190949585651   -0.099995228167
H      3.823598425831    1.961994054224   -0.112742128841
C      3.955818257859   -2.726529912090    0.035203342881
H      4.658725654885   -2.784954421557    0.882515567551
H      3.248839233307   -3.564171124952    0.115607411899
H      4.550119276927   -2.866191686337   -0.883049049726
