78

C      2.319806196771    5.318868012246    2.630081236986
H     -0.133721249282    4.776223675365   -3.748916774998
C      1.096201431629    4.530805418421    2.230425697509
H      1.515639694581    3.412590723423    1.959147465507
H      0.465678389527    4.249124651004    3.086225780012
C      0.273723446400    4.991845515393    1.090256370154
H      0.619129001592    5.855342386396    0.512127891115
C     -1.210759094060    4.898011982315    1.241364759859
O     -1.769510016113    4.311355095675    2.145180250831
O     -1.842848193284    5.529323113487    0.241830156021
Pd     0.992653191908    3.257367960111    0.290060517471
C     -0.794663657920    2.820419340396   -1.964446878212
O     -1.243296056787    1.822377074628   -1.371647800785
O      0.219199874796    3.511409725339   -1.617825003131
C     -1.500443358080    3.255905096681   -3.261698933801
H     -2.575942945037    3.289606369709   -3.036408095603
N     -1.127343543475    4.593384549779   -3.665306538166
C     -1.955705916901    5.666153938773   -3.474192527385
O     -3.123459246080    5.553305483981   -3.131769091378
O      0.029339437509    0.150611418419    0.012719306614
H     -0.450220666267    0.941355138862   -0.451115098994
C      2.480435947369    5.716620422408    3.964051436771
C      3.580193807968    6.475016793954    4.389036855735
C      4.564352597474    6.846641044478    3.444107920096
C      4.403414196570    6.439958033606    2.111442647621
C      3.302838940013    5.686201450867    1.702826633113
H      1.721215376779    5.432343030194    4.698803867122
H      5.162890972789    6.719429487401    1.375675411101
H      3.209933387060    5.380315543205    0.656474256677
C      3.706936464463    6.884722020883    5.835454207447
H      4.634948768568    6.495682781625    6.287989603502
H      3.742224660247    7.982034430563    5.944820202702
H      2.861581568066    6.515348838510    6.433529071368
C      5.765286336223    7.659783651018    3.858024951345
H      5.469261645347    8.631565980956    4.288700261816
H      6.359714871647    7.143931405193    4.631380703796
H      6.427958855147    7.859869424455    3.003705912228
C     -3.289653079405    5.477608979642    0.216178116549
H     -3.545809031431    5.588781848526   -0.845686773283
H     -3.608619055682    4.486529090672    0.570187626782
C     -3.897601517630    6.581152516983    1.065073701547
H     -3.542689072736    7.571277431530    0.737936909832
H     -4.994726149324    6.563077057935    0.963543652748
H     -3.650610180628    6.447609774137    2.129079321754
C     -1.316927979866    7.025668883940   -3.701450488213
H     -0.403177881338    6.982805799254   -4.312556794937
H     -2.051949443946    7.686207790262   -4.181138429668
H     -1.066773173106    7.459666857468   -2.719540220206
C     -1.251847185262    2.197864825689   -4.366351764711
H     -0.173621793186    2.176777245072   -4.600691988536
H     -1.504823489924    1.219172824329   -3.931393815768
C     -2.048931490472    2.432458201883   -5.628841373098
C     -3.394004302003    2.035708174732   -5.707404407195
C     -1.478216170471    3.069695402081   -6.740951939169
C     -4.145555766717    2.268647807315   -6.861358964455
H     -3.857791186940    1.535810545056   -4.851753987917
C     -2.225815128881    3.304105698450   -7.898956572897
H     -0.430973895556    3.382903485640   -6.700637235145
C     -3.563357559491    2.904667780804   -7.962577364561
H     -5.190578004720    1.950243342628   -6.902029046142
H     -1.760448336167    3.799555565515   -8.755362878712
H     -4.149884949441    3.085926761382   -8.866998640508
N      1.984958598223    1.359689759891   -0.096479652213
C      1.335489321283    0.195986860713   -0.031773917849
C      2.051580932603   -1.060216583296    0.017608266309
C      3.475163549881   -1.038677256182   -0.039099137783
C      4.119267094757    0.230594699988   -0.152558373587
C      3.354870476798    1.364183441017   -0.176539959365
C      1.364026702784   -2.294353511959    0.111906496566
C      2.073696927746   -3.480261013469    0.159860002326
C      3.487196038774   -3.465488109567    0.109170201336
C      4.176440900814   -2.270976882324    0.009684702245
H      0.274009413817   -2.282926508846    0.146145470561
H      1.543700228032   -4.432751863805    0.234445810827
H      4.038036424820   -4.408989474500    0.146586711333
H      5.268589181314   -2.261777855111   -0.032853258960
H      5.206844542128    0.297950202232   -0.214976740631
H      3.815025175261    2.351831497143   -0.254245562269
