73

C     -0.530363682371    4.639763380086   -2.331091729840
H     -2.281552833421   -0.298215890597    0.583524066537
C      0.507887015306    5.025634118371   -1.372654341892
H      2.473310253308    3.719397298180   -0.531154846890
H      1.436860929640    5.380085486962   -1.826843607545
C      0.387581621841    5.215250025675    0.007763353970
H     -0.562640850689    5.068681946561    0.532414136125
C      1.383824949543    6.001075518862    0.802051052522
O      1.271464832867    6.209596252858    1.986552674386
O      2.408789851390    6.469858969118    0.061049085391
Pd     1.114366182650    3.168781707622   -0.156203263022
C     -1.865650597031    2.645533247009    1.062961529579
O     -0.776010470117    2.225932086586    0.461163244858
O     -2.068480631871    3.809797192465    1.362291494475
C     -2.928708382527    1.568448884673    1.387668422236
H     -3.888588499352    2.087600827732    1.258985145447
N     -2.916960294738    0.476381859730    0.431589004541
C     -3.516616247437    0.585240143179   -0.795790145668
O     -4.174219229781    1.561668054113   -1.119892002353
O      0.036404238672    0.037741975071   -0.138319927859
H     -0.419950987002    1.000065615125    0.120791798498
C     -0.178148047812    4.561132455660   -3.695261017899
C     -1.096179720199    4.198648908139   -4.683413286145
C     -2.423602217754    3.887011320445   -4.298259083472
C     -2.777362169547    3.969635952925   -2.941294639785
C     -1.859121580274    4.350129322994   -1.967677923093
H      0.850946890845    4.791409718736   -3.987607848226
H     -3.789654765866    3.701547618604   -2.631928607616
H     -2.176198537316    4.410770651939   -0.926424197882
C     -0.677117282163    4.134865826110   -6.131456855095
H     -0.816223281112    3.124107268211   -6.551289173397
H     -1.275336030752    4.818152668498   -6.757845606863
H      0.381176888157    4.406495511705   -6.255565595410
C     -3.445739337339    3.472626415036   -5.324519853582
H     -3.611722560421    4.265988021884   -6.073749402862
H     -3.118584418668    2.579947891153   -5.884626492691
H     -4.411813206590    3.241932085519   -4.854404861840
C      3.423461508573    7.211605049631    0.759104794889
H      2.948874529764    8.052977290841    1.288907754317
H      3.873639973623    6.561732149114    1.527704187942
C      4.445389424277    7.681522372315   -0.254861593529
H      3.980419772539    8.331913815767   -1.011904925882
H      5.238609685607    8.254158169102    0.250375002921
H      4.913155559183    6.828898322161   -0.771129071442
C     -3.297258177038   -0.606026954370   -1.715757878024
H     -3.644435669773   -1.539908839941   -1.245119643818
H     -3.849975926923   -0.440888611514   -2.648295483671
H     -2.224168611964   -0.721270152742   -1.938722626914
C     -2.848138744186    1.062979063258    2.869752866332
C     -3.068905897607    2.245616052199    3.832514938850
H     -3.055441951973    1.885490830441    4.873955613634
H     -2.296919392972    3.019457587033    3.724358549015
H     -4.043208319133    2.726729880094    3.652549904832
C     -3.969348344791    0.030474440055    3.099927581029
H     -4.957197951844    0.462864034491    2.873788791082
H     -3.845973276857   -0.865181944140    2.473056856184
H     -3.975847235471   -0.293134328262    4.153169035575
C     -1.479906933715    0.417912378883    3.168220139319
H     -1.264187134183   -0.440729966209    2.510683020244
H     -0.657229794063    1.140887855087    3.055737460756
H     -1.455296032328    0.043358036362    4.203984099079
N      2.035898669379    1.203498153375   -0.077188989933
C      1.329981097937    0.033910302942   -0.136170227186
C      2.008154883704   -1.218268538872   -0.203320206156
C      3.381714385742   -1.267422354174   -0.180319119421
C      4.078352210121   -0.049961696338   -0.091779027832
C      3.382946759862    1.145963509686   -0.046845841338
H      1.395241422436   -2.118097635851   -0.260895106887
H      3.936258092777   -2.205277113406   -0.222628980632
H      3.932190000434    2.083349896687    0.009641353002
N      5.541955076366   -0.032058022179   -0.058544615559
O      6.095901728649    1.054016504617    0.016261427439
O      6.112531343651   -1.110638762806   -0.108550939596
