74

C     -0.876372894942    4.568628422641   -2.147206929788
H     -3.715087364804    1.913819444186    3.091332762800
C     -0.381669285156    4.783226444487   -0.780859094269
H      1.847564576510    3.221262008993   -1.482956504987
H     -1.146360932042    4.710069806989    0.000893163139
C      0.850151467849    5.305278565636   -0.398357902638
H      1.594872796840    5.613956678543   -1.134394953452
C      1.026634247838    5.916831318938    0.956495353535
O      0.152086437012    6.132849572488    1.759547303181
O      2.321403353402    6.244216854858    1.157857862324
Pd     1.093688260144    3.130756126771   -0.159425583796
C     -1.002991705052    2.473795819164    1.944921015744
O     -1.368428288093    1.422846901430    1.365484489730
O      0.069562417086    3.105763092795    1.736003867922
C     -1.954348163204    3.089983552455    2.998049463701
H     -1.837215627126    4.177945329400    2.889151493850
N     -3.334478549345    2.757927723425    2.680729848824
C     -3.908909897100    3.192853130212    1.524774889354
O     -3.377907530046    4.024406371876    0.797311916079
O      0.009465027727    0.095677223600   -0.205839713257
H     -0.523738838852    0.762521108109    0.421860274867
C     -0.088063238839    4.754645045926   -3.301410019507
C     -0.602545569812    4.582233802389   -4.586157864128
C     -1.963386667168    4.207252617389   -4.739890216996
C     -2.746984819530    4.027075109689   -3.593114380450
C     -2.223847852243    4.201304494778   -2.311522522493
H      0.962602817171    5.036026624149   -3.196565989235
H     -3.797107862131    3.743533823274   -3.706991474477
H     -2.853006417554    4.068860142725   -1.427547190605
C      0.277034511279    4.789105289823   -5.794869951867
H      0.348666427634    3.873915750340   -6.407006132514
H     -0.118380931200    5.578265969067   -6.456944075551
H      1.297481116692    5.076524857831   -5.503006593428
C     -2.554786537173    4.007175457664   -6.111524250414
H     -2.484523429182    4.923523258874   -6.722507678023
H     -2.023432323437    3.218434956632   -6.671383435210
H     -3.614962222157    3.721959475319   -6.052969776404
C      2.637970801635    6.868271676393    2.411358552791
H      1.993038329167    7.752070588318    2.544737497448
H      2.396459838991    6.168851927029    3.228664325297
C      4.107630434436    7.235328891890    2.397005771732
H      4.332092248911    7.931493187621    1.574001625151
H      4.383186114459    7.721956482728    3.345678299799
H      4.738113500994    6.341231328707    2.272834599600
C     -5.249125100182    2.568522911668    1.179055215862
H     -5.768458475027    2.145025263813    2.051568656340
H     -5.884498154834    3.329267409272    0.705641019845
H     -5.081104039792    1.763428758796    0.444970343632
C     -1.600122264021    2.714110213542    4.473648125761
C     -0.154268933522    3.147577029635    4.783894736655
H      0.058839662266    2.993432856227    5.854354737669
H      0.580851045379    2.574693197211    4.201533648429
H     -0.000067599858    4.211941974744    4.548582674757
C     -2.551232134665    3.475675263002    5.418499827172
H     -2.444320056344    4.564605538589    5.289372433604
H     -3.606047591181    3.221107538042    5.235629970748
H     -2.321412737741    3.235144466244    6.469294199848
C     -1.733582043702    1.196199037940    4.711631352824
H     -2.774082307268    0.842653393912    4.611003113765
H     -1.117641098558    0.618331147534    4.006313189196
H     -1.414284736893    0.943013675892    5.735431564304
N      2.010421839304    1.236549092283    0.056096839473
C      1.308455860140    0.087867635845   -0.081421005903
C      2.003991706153   -1.148651513965   -0.126122298591
C      3.376816422020   -1.176566264024    0.008617766959
C      4.101075434857    0.022020085642    0.195908891768
C      3.357019376831    1.192730156201    0.203619934633
H      1.410535154746   -2.054666240579   -0.254525884696
H      3.906530207281   -2.133736097084   -0.020186799262
H      3.851026562390    2.160205548060    0.318550923674
C      5.598466733745    0.032183954802    0.365715795743
H      5.984540931808    1.057001148754    0.470037924569
H      5.905631462549   -0.533454943682    1.261576380036
H      6.104943112676   -0.430517902580   -0.497830638479
