62

C     -0.865925248104    4.546585124467   -2.137826398973
H     -3.643067533943    1.862287217945    3.084044105486
C     -0.365156646930    4.788285803219   -0.779655418330
H      1.919423899556    3.301286439681   -1.477064598694
H     -1.124572237995    4.708614546445    0.006135643230
C      0.851717768928    5.349895690070   -0.403610916586
H      1.584380530148    5.680679162426   -1.142065725009
C      0.998458423453    5.973005502233    0.948850869308
O      0.111103978587    6.150900312682    1.747247609678
O      2.276603360290    6.355473039478    1.158048918849
Pd     1.169721838033    3.188382594532   -0.151249548488
C     -0.976560950663    2.526766817763    1.808024740591
O     -1.384649461335    1.596949929457    1.076589247723
O      0.154159294483    3.089126437488    1.749395220494
C     -1.929954705527    3.088353671647    2.875899336044
H     -1.817328410717    4.181631446561    2.861832264585
N     -3.312235002721    2.721936585625    2.663143030848
C     -3.967033446299    3.167754637299    1.551192372682
O     -3.502094404537    4.036758180240    0.824805977344
O      0.020631989554    0.298341320381   -0.519129910931
H     -0.511109705912    0.943558544040    0.120448300790
C     -0.090278058377    4.730360162066   -3.300811472134
C     -0.612722856473    4.531672046599   -4.578396940405
C     -1.968352143900    4.131505754790   -4.714747689694
C     -2.739245338074    3.953687079863   -3.558968994742
C     -2.208310183470    4.153899337714   -2.284538229729
H      0.956515976750    5.029896065352   -3.208119525932
H     -3.785197611908    3.650701879507   -3.659712208492
H     -2.829508711610    4.022713922206   -1.394558024604
C      0.252820635484    4.736291817546   -5.797534681749
H      0.334475646152    3.813960499403   -6.397538633684
H     -0.161369537299    5.509533127829   -6.466860474436
H      1.270791998662    5.044591232108   -5.518619331791
C     -2.567716422646    3.902123046230   -6.078266966165
H     -2.517765154860    4.810707636962   -6.702682618883
H     -2.027753829894    3.114399623907   -6.631263438733
H     -3.622409084352    3.600133515694   -6.006654863868
C      2.554201051509    6.994675448663    2.413774759272
H      1.893882670389    7.870566190042    2.522947140137
H      2.300829726511    6.299812452396    3.231161051873
C      4.018075583350    7.383552447458    2.431521117808
H      4.252842818446    8.074261102069    1.606816950398
H      4.262582991805    7.884354573650    3.381309925386
H      4.664815443957    6.497902728648    2.332964803959
C     -5.303818790850    2.508429848352    1.265033971500
H     -5.775294318654    2.079969763122    2.162174194745
H     -5.976485981744    3.248943883594    0.812066311438
H     -5.145333682621    1.700144363358    0.532187874792
H     -1.605520210245    2.736846865194    3.867568557337
N      2.051483966074    1.263612621715    0.034332606063
C      1.300486165135    0.178840687667   -0.280226110949
C      1.903853956922   -1.097711062935   -0.385336026894
C      3.251544557732   -1.234874652017   -0.114546270244
C      3.998394504714   -0.109759128746    0.266886023057
C      3.372326931288    1.131522061522    0.328976704815
H      1.266681290529   -1.938370897130   -0.661010750125
H      3.729738596952   -2.215712939153   -0.181727388938
H      5.059280816593   -0.191684471442    0.506444867663
C      4.129586591728    2.372945323249    0.708535147085
H      4.167936689737    3.076572564470   -0.139059521459
H      3.628142159939    2.896404432330    1.537899333242
H      5.158071647544    2.131829808251    1.011133297321
