57

C      1.997642950903    3.219088179601   -2.334371846419
H      2.828436768672    2.511723788060   -2.394587769978
H      2.220596660724    4.287089429960   -2.291164789533
C      0.719758669619    2.783520164517   -2.585659563672
H     -0.100554315974    3.493131607493   -2.717676225505
C      0.442425938977    1.353751988217   -2.946973438864
O      1.291794097426    0.500990117890   -3.067771854865
O     -0.866515624533    1.158894450074   -3.119372194870
Pd     0.939338051753    2.962497678071   -0.340952981037
C      0.054565861287    5.493995288925    0.524814014855
O      0.157111683186    4.776411412253   -0.579789584867
O     -0.215690291820    6.673501663963    0.530372597928
C      0.355062656537    4.725327723772    1.833984069995
H     -0.429753663901    5.017716071937    2.546101657096
N      0.316067465896    3.289622519587    1.563233319295
C     -0.478701283398    2.438761306185    2.219516598172
O     -0.731136709233    1.275457233481    1.822143209842
O      0.012591135692   -0.074593982960   -0.089303453536
H     -0.357687948681    0.599264786610    0.642763222482
C     -1.302098451018   -0.193600481247   -3.368995065494
H     -0.728585138635   -0.598230689094   -4.217986432585
H     -1.057109193905   -0.793426424869   -2.478520632243
C     -2.790240602326   -0.161915508966   -3.643455914205
H     -3.018438923014    0.455510526237   -4.526012666008
H     -3.155528166084   -1.183285091565   -3.832694136911
H     -3.340843803918    0.246706477424   -2.782537689108
C     -1.143717779882    2.867686981420    3.518980941893
H     -1.518398143085    1.963740386794    4.014241759987
H     -0.460327894980    3.405600450796    4.189243348315
H     -2.003435314614    3.523990845888    3.304466736765
C      1.714641605181    5.219304624540    2.395319778924
H      2.505379226819    4.937857632748    1.679038835667
H      1.664847088236    6.318631985273    2.408352766333
C      2.052295565908    4.696567920876    3.771702758905
C      1.687642523967    5.420397974343    4.919649523865
C      2.707573348891    3.466005367836    3.943148375274
C      1.963015517169    4.928992376858    6.198803142969
H      1.184931184676    6.385725232387    4.807191500145
C      2.984323340113    2.970551760270    5.220798531742
H      3.002431338777    2.888763678629    3.063201435397
C      2.611565962128    3.699759762327    6.353808074581
H      1.674501767259    5.511126779280    7.078064870275
H      3.495647379291    2.010590980431    5.331699060916
H      2.829786265743    3.314552313368    7.353154767818
N      1.946457578698    1.158165174517   -0.009841607551
C      1.320513619155   -0.040890874389   -0.060501734684
C      2.074152232112   -1.236406103964   -0.086408509581
C      3.458425803774   -1.207901114922   -0.010996249931
C      4.079146660376    0.058428797913    0.104936890331
C      3.295956673409    1.194263662640    0.096587696850
H      1.518964751516   -2.173449132966   -0.147761514734
H      5.163570544844    0.150787458482    0.189170547088
H      3.746064450666    2.187732188287    0.163316945577
C      4.282453508643   -2.466634286846   -0.039335842710
H      4.945534325906   -2.523806351058    0.839278053787
H      3.651769483227   -3.366323701531   -0.056567103984
H      4.929501603710   -2.484667572747   -0.932263746658
