65

C     -1.465743573468    4.475169038347    1.619626385141
H     -0.498137322066    4.022289183432   -4.336384695992
C     -0.313632783968    4.900597926903    0.814647122928
H     -0.546855277959    5.185134110615   -0.213938708051
H      1.720539011564    3.026233050222    1.820334962886
C      0.964940618080    5.188564018152    1.282238120199
H      1.191904554244    5.154895652705    2.348237864920
C      1.987015965846    5.980941489267    0.535496713939
O      3.017391134591    6.358361376071    1.044841083164
O      1.639020589608    6.249221285856   -0.738754521213
Pd     1.079709711931    3.135603474749    0.445036132079
C     -0.814582391449    2.447823361038   -1.805753035250
O     -1.205924254029    1.452469789512   -1.150196476533
O      0.161212032093    3.199379023860   -1.535889193098
C     -1.630637361157    2.765036521440   -3.069498149355
H     -2.688065878217    2.780381758206   -2.770772322189
N     -1.296630132735    4.012469792140   -3.713663237854
C     -1.693859949082    5.201436021829   -3.173413116765
O     -2.488352716881    5.267304519246   -2.245010955256
O      0.084291517300    0.101772090394    0.437468169512
H     -0.450628364121    0.801755665955   -0.177469726774
C     -2.723763331139    4.415108452029    0.988052399013
C     -3.881723357541    4.042465123285    1.678938255369
C     -3.787960573787    3.712271894475    3.051075803613
C     -2.531444317212    3.771879937972    3.678633546987
C     -1.384780082324    4.144988280446    2.985793267871
H     -2.791603959712    4.671796096639   -0.072764758311
H     -2.456072130348    3.515210172113    4.738992762219
H     -0.426752027996    4.170708312494    3.509166133429
C     -5.206251886023    3.992142186478    0.958188074131
H     -5.644102516088    2.979685706337    0.986891402488
H     -5.946749767842    4.667757023825    1.419625819789
H     -5.094033870603    4.282098539861   -0.095922544595
C     -5.009928776461    3.299338792103    3.830060675623
H     -5.782215353799    4.087470152767    3.820136342243
H     -5.479029329399    2.399180402632    3.397303006770
H     -4.764462255470    3.080226493839    4.879194902971
C      2.591955373785    6.973676860475   -1.538549148361
H      1.987360492170    7.468375588261   -2.312733739316
H      3.070185796306    7.741856022023   -0.913333848066
C      3.629202899088    6.049879703829   -2.154996830275
H      3.148690618799    5.259992818606   -2.752761907884
H      4.298066291159    6.626347802990   -2.814275535395
H      4.245406834142    5.578662419134   -1.375185409588
C     -1.080826302394    6.445591854986   -3.789859795692
H     -1.846795743714    7.231463761001   -3.838401386564
H     -0.280544893120    6.800481360455   -3.120628109230
H     -0.658967638070    6.276879558105   -4.791739775522
H     -1.505343171820    1.931199363503   -3.777594565265
N      2.037037935489    1.283174853018    0.094884050500
C      1.371484148835    0.109757739378    0.284531339494
C      2.097271950429   -1.110952245387    0.332676741807
C      3.460669606444   -1.113147765042    0.131236975327
C      4.125535279975    0.106925099786   -0.124030649190
C      3.364959407188    1.271636342266   -0.120424437287
H      1.530216935633   -2.025380222950    0.509759526201
H      4.029682606537   -2.043879241693    0.152939899127
H      3.854623972994    2.233661843087   -0.281620566862
C      5.584801380903    0.221912684288   -0.379020830522
O      6.162299071718    1.258032569840   -0.617431964368
O      6.205781460213   -0.972666440519   -0.316531384722
C      7.614055449854   -0.963416375313   -0.547755453449
H      8.128071953762   -0.334097067478    0.194484930670
H      7.945540228350   -2.005288994289   -0.458952803344
H      7.843378341434   -0.573352938253   -1.551024016477
