64

C     -1.435634719835    4.455667909965    1.666197836576
H     -0.300171117030    4.702858309711   -4.526963429910
C     -0.354604960992    4.863330314020    0.759007771503
H     -0.670446915292    5.072124454704   -0.265733061895
H      1.604294874561    3.022082288517    1.823482825161
C      0.941460822215    5.221008058865    1.114541174764
H      1.250242257417    5.249313337312    2.160411329079
C      1.899208400382    5.963767851275    0.243711265998
O      3.003916741479    6.285313027022    0.615697282258
O      1.405560970786    6.251219572900   -0.979775397847
Pd     1.076841167575    3.116239979111    0.412242404023
C     -0.601895387772    2.558949032367   -2.242697911143
O     -1.152071698634    1.477340462287   -1.799276048199
O      0.308469980730    3.190288271969   -1.696985359572
C     -1.168707173909    2.990261414584   -3.602533818626
H     -2.247440873533    2.776385324399   -3.543854471564
N     -0.991222053669    4.405308291249   -3.849466292185
C     -1.618118122199    5.331860550900   -3.069496108527
O     -2.367194157803    4.996057956132   -2.161486441944
O     -0.011707987615    0.317082852907    0.073796032643
H     -0.680289567138    1.064494189541   -0.956322731098
C     -2.724244235846    4.286862558076    1.121067668815
C     -3.819726109751    3.917346674476    1.908852753085
C     -3.629730472831    3.705497179052    3.294552912727
C     -2.343909826589    3.876151186807    3.836344025117
C     -1.259867784998    4.243278398784    3.046551570323
H     -2.864274009984    4.456733401635    0.050335137968
H     -2.194196099586    3.712336183427    4.907088091960
H     -0.276396609312    4.357381740076    3.507134467696
C     -5.180576815363    3.746636109913    1.280295914859
H     -5.563458156924    2.720827022699    1.416421655954
H     -5.925868548790    4.422320824796    1.733635464694
H     -5.148607008421    3.953671196385    0.201403637803
C     -4.781188956363    3.301124500314    4.178194089387
H     -5.592582907116    4.048551236319    4.153822662760
H     -5.227080970940    2.347155374961    3.848555620601
H     -4.463989400804    3.181117891759    5.223997080227
C      2.310454966151    6.846702321587   -1.928789234414
H      1.675809697369    7.470972680930   -2.574583835246
H      3.018001459368    7.493298319449   -1.390846148541
C      3.035730329270    5.780106562776   -2.732186608375
H      2.314669153492    5.098047604731   -3.208132206581
H      3.653387358985    6.249946548397   -3.514347954479
H      3.698898631164    5.186062130692   -2.085720122103
C     -1.332785712634    6.787474786799   -3.380383853998
H     -2.286872181176    7.332396973105   -3.415068417207
H     -0.743580834182    7.205846071706   -2.550068925188
H     -0.789007713069    6.941700375807   -4.323808887120
C     -0.545310779590    2.154756415325   -4.725286372309
H     -1.004184089402    2.411342775220   -5.692341320979
H      0.541367315403    2.327479484908   -4.792029217233
H     -0.711530208142    1.085567859126   -4.535380960960
N      2.060606483505    1.278921781069    0.163335016192
C      1.237361239141    0.164365167161    0.105264200698
C      1.864317201811   -1.131729097287    0.085761438372
C      3.230693767490   -1.256858625790    0.088072268103
C      4.014614729156   -0.083106498826    0.117443060125
C      3.394226561176    1.156858680137    0.166927515270
H      1.203055660607   -1.998682876104    0.059659301038
H      3.728282832074   -2.227042416310    0.064405673225
H      3.996901491733    2.064558915964    0.217404522368
N      5.467416041393   -0.158709690939    0.110566084287
O      6.097301052400    0.891426735361    0.123280937949
O      5.973506888115   -1.273013447780    0.089217215169
