65

C     -1.440554302578    4.440306502014    1.649616944758
H     -0.309970936576    4.506909731456   -4.437458193413
C     -0.319382873300    4.848500561311    0.793822500815
H     -0.593994330462    5.113955183177   -0.229491088508
H      1.564776477988    2.886862238157    1.815903298654
C      0.979904251506    5.137613295470    1.199892849884
H      1.264980173954    5.106121956534    2.252208899745
C      1.983415988053    5.872816816914    0.374411348037
O      3.117036697930    6.078651900860    0.746695046630
O      1.494046394659    6.294450769908   -0.808403379383
Pd     1.064477718432    3.079999012241    0.391110294598
C     -0.616630096253    2.587298731955   -2.048006183072
O     -1.072037336796    1.571546913947   -1.475875845380
O      0.346192710781    3.308489241090   -1.659782397743
C     -1.315778506459    2.964993964452   -3.374094865723
H     -2.390996718359    2.872395123838   -3.159994933615
N     -1.067277430607    4.333124184087   -3.787715269745
C     -1.592858934769    5.385267781668   -3.101794584467
O     -2.378177212684    5.235603212334   -2.174037640098
O      0.035269014842    0.054602820877    0.161172398161
H     -0.411873045211    0.787994418396   -0.434851679614
C     -2.715426260877    4.343101587834    1.057324817506
C     -3.848032335020    3.981035248590    1.794339860551
C     -3.710839211842    3.702969235546    3.174425959606
C     -2.438005762767    3.801097995768    3.762898947415
C     -1.316391177779    4.161239903135    3.023596992356
H     -2.813341004611    4.561598229816   -0.009543760437
H     -2.329367132243    3.585081050153    4.829477541606
H     -0.343942387732    4.217287927170    3.517258508667
C     -5.192262752648    3.887104160415    1.115592613099
H     -5.614702761511    2.870705136264    1.193541614356
H     -5.928653098444    4.569364676780    1.573914823651
H     -5.115281723217    4.139073241703    0.048679987929
C     -4.904666922172    3.304277910023    4.003147187389
H     -5.687245852223    4.082148360484    3.987376095726
H     -5.374396339107    2.383262964970    3.617471403418
H     -4.626292669679    3.126779610833    5.051981175269
C      2.421649309082    6.879148094295   -1.738576773492
H      1.823370694570    7.588311339405   -2.329136149778
H      3.187574043204    7.436007711658   -1.179871647639
C      3.044843465226    5.813302918331   -2.625118105201
H      2.262130524663    5.206313338871   -3.104449026090
H      3.666066192604    6.283560473555   -3.404418163518
H      3.686145296520    5.141546067813   -2.035013202484
C     -1.154733810950    6.767500290789   -3.553145852909
H     -2.047482795964    7.398364592243   -3.671102458037
H     -0.543302378589    7.211012911282   -2.752389123497
H     -0.579994000572    6.768880572864   -4.491106450114
C     -0.933709642831    1.981072031555   -4.481886532020
H     -1.505648618553    2.183801593289   -5.400718769723
H      0.142341469368    2.046126159813   -4.717391702372
H     -1.147233360273    0.955488558056   -4.151247447431
N      2.023902717589    1.227221036587    0.042818126283
C      1.341698450900    0.062147005044    0.102513858434
C      2.053681317263   -1.163138613611    0.125656750626
C      3.432094250473   -1.158871063059    0.049628107002
C      4.140304704479    0.058904050672   -0.058609639035
C      3.375372178326    1.216701828230   -0.050949061375
H      1.473660573739   -2.084575463537    0.189121643589
H      3.979274966554   -2.106439757636    0.062381454339
H      3.853301609835    2.197746395498   -0.103585769222
C      5.643134415317    0.102172751386   -0.162268296862
H      6.013395272866    1.136905748475   -0.208600438576
H      6.120050265873   -0.385734322633    0.704091010797
H      5.999215948525   -0.422005293650   -1.065159530199
