74

C     -0.527315572858    4.601937857692   -2.288000126678
H     -2.217026172946   -0.203838810467    0.478991488399
C      0.531975433914    4.990368822033   -1.351549012649
H      2.515811025703    3.679336352965   -0.523687603223
H      1.455358538451    5.330146863671   -1.827467293426
C      0.433580834959    5.206710552467    0.025419884380
H     -0.506296878292    5.066862975822    0.571146209584
C      1.448533644539    5.995739918554    0.789364311818
O      1.371496698878    6.211275333986    1.975652816365
O      2.452671524635    6.466902647356    0.018217479313
Pd     1.151318581543    3.151566083692   -0.125862666245
C     -1.818669440644    2.667019789564    1.081308765935
O     -0.744294023521    2.236707519829    0.478044699244
O     -2.004765051025    3.826747803167    1.421621653325
C     -2.911467046448    1.605164919086    1.364010929992
H     -3.862334098108    2.138826395217    1.230238216815
N     -2.905088529268    0.534216151942    0.383143715848
C     -3.567983120718    0.634903162363   -0.811232814893
O     -4.299913405841    1.573453374997   -1.085198754863
O      0.077935980886    0.047735658151   -0.286582525350
H     -0.358546470600    0.952493375446    0.005854878928
C     -0.194901257462    4.477522287518   -3.653192098115
C     -1.133768562776    4.109721045723   -4.619996514183
C     -2.463252402340    3.841804783252   -4.211229080157
C     -2.797872078531    3.972272319627   -2.853326483443
C     -1.857971265168    4.356337978445   -1.901566671399
H      0.835830326583    4.673977270511   -3.964059890288
H     -3.812813793995    3.737805695798   -2.525462594088
H     -2.159309270869    4.453421362455   -0.858292803038
C     -0.733962561838    3.994485228417   -6.070476673156
H     -0.900419044055    2.975267177159   -6.458958084920
H     -1.324299415708    4.672456263488   -6.710120562453
H      0.328656775270    4.238317742008   -6.214572487594
C     -3.508208736325    3.422866228414   -5.212782449679
H     -3.671446353537    4.201444824223   -5.978152447205
H     -3.206499596365    2.511200393457   -5.756352458888
H     -4.470805470629    3.221016614490   -4.722597273077
C      3.479533821272    7.215100362384    0.686676321205
H      3.015394885668    8.052366858175    1.232235623967
H      3.958659943603    6.569273312371    1.441496919742
C      4.467424519368    7.695404388168   -0.356267683600
H      3.974277844667    8.342705822916   -1.097960869572
H      5.271106106530    8.273978561635    0.125345493451
H      4.925237507885    6.847386698491   -0.889022383106
C     -3.319669663430   -0.521446203309   -1.769101517068
H     -3.578445179034   -1.485758893641   -1.302823484994
H     -3.931411410225   -0.375500704021   -2.667427207069
H     -2.254643664570   -0.559908178838   -2.049799655766
C     -2.862655479344    1.063505278566    2.834969970702
C     -3.080138996502    2.225052042553    3.823646657988
H     -3.085226544195    1.840211704131    4.856564086626
H     -2.297438525765    2.991119934739    3.741763889004
H     -4.045817411501    2.723060031603    3.642453572039
C     -4.001083261798    0.041869765072    3.023605144024
H     -4.979677251974    0.494177214881    2.795746152159
H     -3.880539921699   -0.837074873422    2.373017059239
H     -4.026725562921   -0.309928347196    4.067687109396
C     -1.508548993942    0.390483665594    3.135777448345
H     -1.298980288495   -0.454083978594    2.458001425752
H     -0.673376224775    1.102517004127    3.050538819609
H     -1.503160637937   -0.011757512540    4.161621250362
N      2.066163617119    1.198607871348    0.022319302005
C      1.384084170328    0.041596118920   -0.143753094079
C      2.045524599673   -1.222663188628   -0.180878039054
C      3.419528550176   -1.237754613496   -0.002464886477
C      4.121848965022   -0.039102701864    0.206981003020
C      3.411437012909    1.144295658552    0.206725144146
H      3.953100696000   -2.192325820167   -0.018400264356
H      5.201936690338   -0.027825664521    0.358636151198
H      3.912259350878    2.100688729342    0.351604553816
C      1.226740194742   -2.464722963040   -0.393379056189
H      0.472489497462   -2.582918169211    0.401819869417
H      0.670830834739   -2.416867287429   -1.343865277262
H      1.864028888639   -3.360474576041   -0.405566321208
