56

C      1.996360300334    3.226487589908   -2.395772313497
H      2.825532031267    2.520585433063   -2.486941028655
H      2.219114195699    4.295230171681   -2.372670978850
C      0.708832398182    2.787396494678   -2.604125053462
H     -0.114748819281    3.497368405455   -2.713736823171
C      0.416833963594    1.355661138907   -2.956586868114
O      1.263661156344    0.507944680088   -3.114229297297
O     -0.896885050288    1.164806087270   -3.076610181713
Pd     1.015693260877    2.967025111982   -0.390180737200
C      0.184820700321    5.508653796060    0.500928600925
O      0.218800357332    4.786080145576   -0.600732082760
O     -0.028992526083    6.699801275860    0.516953960180
C      0.464300619856    4.739970930067    1.816711183941
H     -0.331412668922    5.056691267712    2.505626532990
N      0.364118994314    3.293820963888    1.549401921453
C     -0.456219305283    2.527105999246    2.222472509861
O     -0.757861824445    1.313341116791    1.892913003582
O      0.019072107714    0.080975933797   -0.094829809625
H     -0.417464308693    0.904000123212    0.979950562399
C     -1.347342757695   -0.191686842132   -3.281088417803
H     -0.793058394556   -0.623506388192   -4.129120436569
H     -1.088787537054   -0.763570217981   -2.376246198903
C     -2.840143552761   -0.156452880777   -3.527402043724
H     -3.082074998326    0.436658129493   -4.422941853771
H     -3.215519463868   -1.180281407748   -3.680019845563
H     -3.371255480905    0.279900703827   -2.667807691835
C     -1.184456561383    2.983008279041    3.467550750775
H     -1.596068886893    2.097557456747    3.966262992085
H     -0.535947959349    3.531239707578    4.159983839206
H     -2.023272473625    3.641484769972    3.187952313305
C      1.807309478591    5.214914506335    2.441161390482
H      1.691337691731    6.312322429996    2.479848366172
C      1.980008506501    4.699835095611    3.874795173188
H      2.905187868384    5.085256438157    4.327905939026
H      1.148958494336    5.022264709064    4.522213142667
H      2.033713148255    3.598603609050    3.902973154821
C      3.037705528740    4.913791735721    1.563742028795
H      3.243752003803    3.828893812636    1.589758111280
H      2.801278181099    5.161072331455    0.514786864985
C      4.301972038096    5.681482797837    1.961575232560
H      4.650577268103    5.418720277039    2.972561596956
H      5.128572623650    5.463207090056    1.267094708848
H      4.128091406883    6.769934239965    1.939681896519
N      2.016096389426    1.174508297793   -0.113132038287
C      1.282431623826    0.009943840017   -0.101351367147
C      2.002675378277   -1.231080659551   -0.086051527747
C      3.373886649819   -1.246336194139   -0.038101100981
C      4.087965084045   -0.022594344232   -0.007929648830
C      3.362670141153    1.152277736403   -0.055550063973
H      1.411478691021   -2.147188091795   -0.103666639407
H      3.917144545135   -2.194563625018   -0.021717160206
H      3.870849803472    2.118574081398   -0.056253832944
C      5.584506484386   -0.011523669472    0.084425071946
F      6.017574468181   -0.467118615458    1.277525316178
F      6.145140783225   -0.801947263034   -0.850259201953
F      6.091539203254    1.225613628404   -0.074258733764
