74

C     -0.546425983827    4.651350195716   -2.188590568763
H     -2.038844715467   -0.293862527167    0.428852336661
C      0.549577768262    5.024284603464   -1.289137286008
H      2.603608690231    3.720033708656   -0.524358684499
H      1.448657474063    5.388548312518   -1.792941967901
C      0.509591377661    5.190289431123    0.097617928269
H     -0.400354267157    5.012932222598    0.681618462664
C      1.544490957308    5.970814520886    0.843554055083
O      1.514356669831    6.148969500214    2.037984326349
O      2.507947813582    6.481648902969    0.046093462222
Pd     1.242941244066    3.150175471422   -0.168871319210
C     -1.690611144280    2.557457908254    1.022644698952
O     -0.654967130665    2.182516181052    0.326784832509
O     -1.817066868569    3.652766723319    1.552174090863
C     -2.840643170117    1.531030145935    1.172432358183
H     -3.744291515411    2.083324097664    0.878381511903
N     -2.756433265950    0.403159373081    0.265426350517
C     -3.387878548322    0.390884034721   -0.951716378348
O     -4.158295726689    1.268650290190   -1.309033053729
O      0.216360612100    0.039036022017   -0.525334799099
H     -0.244138519771    0.919748749071   -0.213506088797
C     -0.264970784769    4.516101217960   -3.563890712492
C     -1.239054004498    4.139126819111   -4.491808964007
C     -2.552325738091    3.875192403809   -4.031903047791
C     -2.838622528996    4.028836700616   -2.665480252179
C     -1.864349303223    4.420891000417   -1.753213236103
H      0.754595479610    4.705376442335   -3.913640280871
H     -3.843641567995    3.802632733997   -2.303776522300
H     -2.125428916390    4.532640403948   -0.700548824402
C     -0.892103989860    4.005978036431   -5.954299961103
H     -1.063724624329    2.979609690746   -6.321162056748
H     -1.511818136993    4.669260069739   -6.581328097810
H      0.162342340582    4.256296579272   -6.141119211731
C     -3.631484586167    3.433406647353   -4.985794845599
H     -3.849557688093    4.209507851237   -5.740244442936
H     -3.331828856341    2.530725164651   -5.544634881072
H     -4.563400853316    3.203368541349   -4.451135867193
C      3.552059326360    7.223621685024    0.693972758017
H      3.100568706959    8.036077538296    1.285723478424
H      4.072269303714    6.561523249397    1.406345404926
C      4.487382016923    7.751572549964   -0.374147208996
H      3.953870610870    8.414683019836   -1.072671748245
H      5.303328592258    8.326422843046    0.091040270872
H      4.932901883829    6.927759594941   -0.953269937616
C     -3.059700318702   -0.816455523116   -1.817679476518
H     -3.370539773498   -1.749471464753   -1.319989870724
H     -3.590243502928   -0.722381553030   -2.772799060874
H     -1.974372782754   -0.876746815736   -1.997149534534
C     -2.994911737015    1.110221417375    2.657287645834
H     -3.006508795479    2.062515852259    3.213778325224
C     -4.331892938541    0.396328591728    2.886829323964
H     -4.484522998774    0.153790204756    3.949566709967
H     -5.176418297403    1.026373229309    2.566020795314
H     -4.382959264747   -0.544292009995    2.314149542257
C     -1.788018376415    0.290905100022    3.159585878286
H     -1.809796661969   -0.715564769441    2.699955978455
H     -0.857627030787    0.767603189950    2.805096646289
C     -1.709603591506    0.141840949834    4.681110174032
H     -2.577054762105   -0.399581610036    5.090723008330
H     -0.806456929053   -0.414766793309    4.978644555163
H     -1.669748118465    1.127685783937    5.173124766575
N      2.176304562622    1.208812817689   -0.103071481116
C      1.515132567146    0.049406193065   -0.339237228410
C      2.208182569114   -1.183874728111   -0.403028256237
C      3.576822585917   -1.244237174281   -0.195601050159
C      4.242124714263   -0.027747158282    0.080854614774
C      3.516973232441    1.145218175972    0.111668547229
H      1.616250426749   -2.077518769112   -0.607378349047
H      5.318221622030   -0.000098051458    0.262408589295
H      4.009808692548    2.096282330917    0.311454232242
C      4.334239618836   -2.543118215785   -0.251209060979
H      4.846222378866   -2.737862298926    0.705624870902
H      3.672369140537   -3.393417208265   -0.467319132765
H      5.114310286292   -2.506204223822   -1.029591015600
