56

C      2.070860165056    3.129768378864   -2.331728359404
H      2.870072163615    2.385124479637   -2.360033060271
H      2.341819665742    4.187557650151   -2.326774376514
C      0.775832232504    2.743684235292   -2.578084660744
H     -0.009730049846    3.485539744172   -2.740164108069
C      0.430845739513    1.317970386637   -2.894018641243
O      1.235211155609    0.418135591183   -2.976886172033
O     -0.884968964395    1.185674843200   -3.076488210185
Pd     0.988521722583    2.985541677228   -0.341298135174
C      0.044183808085    5.533371203423    0.434531192040
O      0.240618910323    4.803048154700   -0.649039327446
O     -0.339095241965    6.682661726868    0.393298434870
C      0.375852696845    4.826983899255    1.766290452397
H     -0.410538684027    5.125170322273    2.472444185582
N      0.343400962146    3.377900199211    1.538658929906
C     -0.381468331591    2.537527439973    2.276651769083
O     -0.633304619243    1.351699511743    1.947276949432
O      0.000472251412   -0.002770024017    0.002566272038
H     -0.335769526202    0.675373193608    0.752559048086
C     -1.388824959744   -0.147547196411   -3.294798198325
H     -0.821618612277   -0.609642884562   -4.118301922368
H     -1.195288615109   -0.731957359874   -2.381385533415
C     -2.867359872386   -0.044335148687   -3.602341464814
H     -3.043171287046    0.555408347242   -4.508704689296
H     -3.284525906899   -1.049918473622   -3.767312861840
H     -3.411951234710    0.421955511457   -2.767279053947
C     -0.966236196535    3.006733611246    3.601879238583
H     -1.245803666057    2.115744126894    4.177284128177
H     -0.268308703208    3.622843325888    4.185674621816
H     -1.878209748336    3.600237811064    3.424651845601
C      1.745108091571    5.275920404253    2.325813094586
H      1.912373179301    4.712743464472    3.262523791346
H      2.527063218394    4.932789077779    1.624276143008
C      1.936816312509    6.779843895561    2.598219326139
H      1.850405212842    7.310877882674    1.635260536073
C      3.345904129287    7.027672115568    3.153057021841
H      4.124031061411    6.637988626195    2.475792833316
H      3.534049781923    8.104230443639    3.293421167051
H      3.481613660878    6.536041059006    4.132404471692
C      0.862583194792    7.356216019517    3.529651567608
H      1.086563534283    8.405942355400    3.779556196646
H     -0.127112681858    7.340154009254    3.050255114705
H      0.808476463283    6.795212847950    4.479950449253
N      1.963493290412    1.176455375779    0.058463200103
C      1.311613004743   -0.005852429902    0.023087845556
C      2.025418539619   -1.238376170455    0.010255225849
C      3.407584792327   -1.183210264213    0.109082730675
C      4.069940181500    0.052356894732    0.219337928486
C      3.311613323355    1.205487183048    0.182275315021
H      3.982831758428   -2.113269724799    0.116489795394
H      5.154409238139    0.112451324540    0.319461800842
H      3.770862855442    2.194964428496    0.238673054378
C      1.251102887889   -2.520354704586   -0.096184556489
H      0.473163936080   -2.575212195823    0.681214560132
H      0.730746042872   -2.578210225006   -1.066553054248
H      1.912724010800   -3.393588625411   -0.004903451165
