54

C      2.017017861165    3.156333009518   -2.348343046309
H      2.850850528505    2.451641392607   -2.397744906154
H      2.234135297459    4.226142096538   -2.341494244307
C      0.737579996475    2.705505007817   -2.565440294618
H     -0.089797615814    3.404843357085   -2.708236385375
C      0.469630311774    1.264249753042   -2.887045930871
O      1.328661526988    0.419196230885   -3.000782452149
O     -0.837607267562    1.044824349660   -3.032756759278
Pd     0.997992304017    2.973052876381   -0.330702729693
C      0.209820175707    5.564352201049    0.454984261422
O      0.261788415313    4.798542950953   -0.620631068648
O     -0.002602863559    6.755397896204    0.410154193395
C      0.475830650015    4.841838622175    1.796399934946
H     -0.337974365748    5.162315358852    2.463626996340
N      0.419814539776    3.392498283455    1.577095825728
C     -0.431956157510    2.592776765179    2.226432926255
O     -0.715063655540    1.426166347633    1.858773573508
O     -0.049328213141    0.007594132581   -0.028026742322
H     -0.374992081880    0.708893741053    0.700600490441
C     -1.250992941974   -0.323784591914   -3.233189054236
H     -0.745319908433   -0.714911183310   -4.130780234698
H     -0.907037378419   -0.909974401948   -2.367214543656
C     -2.757939103771   -0.339194406196   -3.371866605285
H     -3.085531028983    0.270920355122   -4.227864693721
H     -3.106188836545   -1.371771688132   -3.530111261879
H     -3.239455847590    0.050660473440   -2.462294428070
C     -1.143803697055    3.079844315829    3.481503647370
H     -1.561368828391    2.200862309988    3.987233599701
H     -0.487070207037    3.627791113711    4.168073342706
H     -1.978484234070    3.744994512665    3.204547583856
C      1.797943310525    5.374245411157    2.419401586361
H      1.659675390785    6.469126440316    2.428205075304
C      1.990408116174    4.901399088842    3.863845359097
H      2.917659412808    5.317694312020    4.289415535805
H      1.159214428433    5.221621831583    4.512393349132
H      2.065192699086    3.802558828586    3.917720308803
C      3.040281557703    5.068018132005    1.574988324913
H      3.247933598392    3.985654300148    1.552219904887
H      2.933861726333    5.422988624097    0.537797927381
H      3.926132315806    5.563438705253    2.003529551625
N      1.947891050070    1.136356445336    0.023192711215
C      1.255483208928   -0.012906050516   -0.031722985898
C      1.948396280126   -1.266127669153   -0.117793357667
C      3.333457945993   -1.271795155907   -0.054719697277
C      4.023147240338   -0.049567176251    0.076668287167
C      3.305059673548    1.125334599782    0.103076484056
H      3.891768000327   -2.207333938925   -0.096135358789
H      5.111754747561   -0.026905130169    0.142689631048
H      3.794328453006    2.098084831425    0.174772146008
O      1.152726999227   -2.344454793196   -0.242604011771
C      1.748096004216   -3.619315789474   -0.352879860260
H      2.335681877718   -3.874089868929    0.547670277279
H      0.925995932864   -4.339101402496   -0.457374504655
H      2.403154051326   -3.687707954413   -1.239909903006
