18

N     -0.513118238467    0.559809516009    1.291794071965
C     -0.651151753952    1.806168773575    1.513861581038
O     -1.139705518013    2.216674785307    2.698407373192
H     -1.300733300554    1.421075780633    3.233210477208
H     -1.243060682990   -1.129747047608    1.544445702057
C     -0.534245329325   -1.413778781790   -0.142001399208
O     -1.242603036159   -1.869090605070    0.892672750778
O     -0.317736396655   -2.056349483535   -1.135666102315
C      0.016813720660    0.017293610333    0.051970505047
H     -0.326017427229    0.582993917963   -0.834319256561
C     -0.327867101437    2.971561171356    0.622021774064
H      0.558368863031    3.496901261173    1.013039279946
H     -0.129171949038    2.663141128857   -0.411070400292
H     -1.162530409697    3.687761318330    0.640184797146
C      1.551904525028   -0.029509996737    0.037505185808
H      1.976859530952    0.985914674240    0.055535875387
H      1.927008692487   -0.577030866225    0.916174471177
H      1.895044706458   -0.543722541250   -0.871344289681
