74

C     -0.858367091628    4.553544456766   -2.136504473431
H     -3.729780200725    1.923403648450    3.095997035928
C     -0.373313457082    4.772111035004   -0.767233359672
H      1.855731089285    3.204569980626   -1.450993889502
H     -1.143861532249    4.702127816799    0.009041185260
C      0.855906492809    5.294750591242   -0.377513566262
H      1.606372844360    5.600158362538   -1.109088674723
C      1.023054515760    5.910859948882    0.976475450389
O      0.142684646279    6.131393401289    1.771943650120
O      2.316769350018    6.236484159033    1.186573691378
Pd     1.096701010976    3.120647629888   -0.130120956357
C     -1.010766254167    2.477408773740    1.965458775506
O     -1.373256435727    1.423900656074    1.388512493807
O      0.064384907365    3.106165474772    1.761328911230
C     -1.969550919029    3.100513348921    3.007629644634
H     -1.852088175347    4.187746890355    2.891978778759
N     -3.347364186719    2.765662661469    2.683276572050
C     -3.914626850510    3.193416578954    1.521116696267
O     -3.379800995051    4.021416583866    0.792427912984
O      0.018683304099    0.070104102644   -0.143675306361
H     -0.517897452081    0.752316940244    0.465921804200
C     -0.061985330473    4.736437191675   -3.285634339622
C     -0.567346922859    4.560300876099   -4.573505190610
C     -1.926983901800    4.184605729875   -4.735818123133
C     -2.718626445031    4.007547386655   -3.594099286764
C     -2.204588739839    4.185578046296   -2.309333139083
H      0.987847600440    5.018380977452   -3.174168118757
H     -3.767891501478    3.723538302230   -3.714577805563
H     -2.839990247886    4.055670729535   -1.429455999241
C      0.320712654464    4.764032898841   -5.776544378786
H      0.396858458290    3.847181444152   -6.385644054023
H     -0.070184538920    5.551272672637   -6.443571581102
H      1.339010522254    5.052484861138   -5.478277587143
C     -2.508641150643    3.980598395472   -6.111044149986
H     -2.434312792334    4.895286286864   -6.724032579453
H     -1.973169214672    3.190476184691   -6.665006357122
H     -3.569139664878    3.695270858155   -6.059181550009
C      2.625342276973    6.863550983873    2.440573773106
H      1.981044579747    7.748873474622    2.566731106645
H      2.376662193453    6.166809894421    3.258008688167
C      4.095748533212    7.227841789651    2.435863193757
H      4.327459363501    7.921325673663    1.612603942246
H      4.365317656994    7.716570058656    3.385177898532
H      4.725400436931    6.332225900127    2.318714122661
C     -5.251865874806    2.565606932596    1.170185031761
H     -5.776814943056    2.147274352390    2.041829460301
H     -5.884628376783    3.322655103665    0.687475623110
H     -5.078016957911    1.755914571827    0.442556744216
C     -1.625218634837    2.735089843857    4.488228532286
C     -0.182124116360    3.172443445309    4.805798134357
H      0.023482207764    3.025877885428    5.878789448372
H      0.557831968293    2.596592831418    4.232599318042
H     -0.027599874100    4.235373600436    4.564306039793
C     -2.583879603040    3.501819041516    5.421193093840
H     -2.477421019514    4.589978466382    5.285393996533
H     -3.637074434983    3.244641485417    5.232745279706
H     -2.361045901583    3.268757681463    6.475170528867
C     -1.758637798302    1.218653798254    4.735431928049
H     -2.797929109448    0.863125152788    4.629380636602
H     -1.136688887536    0.636798139411    4.038703613236
H     -1.446681365420    0.972745114754    5.763261043446
N      2.011394426191    1.227932212854    0.096209169128
C      1.317521067061    0.070410154122   -0.030119811884
C      2.010492317043   -1.167262439118   -0.074156720835
C      3.389796784401   -1.223797592893    0.046733143015
C      4.078219907324   -0.000176072264    0.218837745311
C      3.358680119569    1.177565305343    0.230251771403
H      1.404504140194   -2.067204037993   -0.191108743346
H      5.163976305318    0.028381792624    0.329241926656
H      3.862664733759    2.140060506758    0.337076855191
C      4.138516519925   -2.529417793178    0.008534984991
H      4.716470317167   -2.677694767068    0.935765826008
H      3.459545531146   -3.384934277133   -0.114287506211
H      4.861214521330   -2.541083472166   -0.824312493521
