74

C     -0.830846274872    4.542324816436   -2.143376856713
H     -3.748224113584    2.000387852185    3.141512369768
C     -0.328487480170    4.798194860605   -0.787281684590
H      1.910202866336    3.213766814679   -1.434420106738
H     -1.088717498064    4.755071327332    0.000859898485
C      0.909435351960    5.323317863126   -0.428809090892
H      1.650924008719    5.604804107274   -1.178621354965
C      1.100788173585    5.971030827843    0.906053403569
O      0.234753262955    6.198060386542    1.716516151487
O      2.394373763526    6.313897868270    1.080368801764
Pd     1.135641144423    3.155135925295   -0.121138055800
C     -1.005940001982    2.534853887212    1.931675338358
O     -1.375297471201    1.503698281678    1.320944199393
O      0.078725688924    3.158284174947    1.760965673146
C     -1.952580812393    3.120805629405    3.001043066755
H     -1.825748575548    4.211134585819    2.952614529847
N     -3.340463304957    2.813034576644    2.693566658051
C     -3.916470101311    3.253901778374    1.541610699967
O     -3.368288823525    4.065091769418    0.803981597513
O      0.034563431685    0.141048461151   -0.176225755972
H     -0.514934700212    0.830864473712    0.422040051199
C     -0.045999418496    4.685990337540   -3.306073827708
C     -0.566537172316    4.474383552073   -4.582474684827
C     -1.930023817112    4.102140101896   -4.718440524373
C     -2.709884214423    3.963556546671   -3.563308598384
C     -2.180869426558    4.176608308769   -2.290075373543
H      1.006545120408    4.964912668795   -3.214623025532
H     -3.761865246255    3.681869922431   -3.663807102950
H     -2.807240704535    4.074676669785   -1.400070400474
C      0.309232572675    4.636734927069   -5.800694517642
H      0.372956701106    3.701799726549   -6.383121218340
H     -0.084324228707    5.406403840771   -6.486390138329
H      1.332543480064    4.927311588108   -5.522349128595
C     -2.528128091862    3.860845961996   -6.080478959651
H     -2.455708097217    4.756603211329   -6.721016793310
H     -2.002997697928    3.051750731595   -6.616653122505
H     -3.589481983353    3.583183979429   -6.008560756077
C      2.725494678040    6.974405011198    2.312029543786
H      2.067060339701    7.849228434065    2.437364279650
H      2.514229746236    6.290710281538    3.150641537965
C      4.187523864844    7.367023728839    2.257217081075
H      4.381633545067    8.047695965112    1.413811424239
H      4.473996359052    7.880540364176    3.188297254329
H      4.831611817549    6.481741462415    2.140037465580
C     -5.277896786791    2.666573445272    1.215050597522
H     -5.798603769701    2.261866470177    2.095664937947
H     -5.896965099487    3.443194332834    0.745848332565
H     -5.142236136511    1.854037679452    0.482527471541
C     -1.621615671363    2.608400328692    4.413612690041
H     -2.399345748235    2.998053743743    5.096143078365
H     -1.727545466979    1.507392562589    4.410568032002
C     -0.236625639151    2.974222498650    4.978195780309
H      0.526544861060    2.579909188304    4.285409312603
C     -0.036749725030    2.291797130813    6.338333530749
H     -0.150773235899    1.197468913410    6.265878310346
H      0.967510948979    2.497653481294    6.742620155329
H     -0.772083738177    2.654863079986    7.077673029947
C     -0.025971078337    4.490425690638    5.084477909919
H      0.949713007781    4.712575559791    5.548043070940
H     -0.042960207097    4.980730413070    4.100078271831
H     -0.802758269026    4.955275340275    5.717471850550
N      2.034495222186    1.259443654431    0.142623170676
C      1.329974440831    0.115468136647   -0.013281441999
C      1.991034419965   -1.152336213719   -0.037861012959
C      3.364399608885   -1.174468682949    0.147244613668
C      4.077117359360    0.020297085492    0.352421465311
C      3.374499239079    1.209008483996    0.335349743467
H      3.891692717397   -2.132899294588    0.141989426160
H      5.156667990354    0.023253560984    0.508864935496
H      3.877304776552    2.169252858197    0.463277132063
C      1.163011386826   -2.388784639377   -0.245186939387
H      0.381914156722   -2.471681661423    0.527656885707
H      0.633017821486   -2.351796296340   -1.210936773627
H      1.786775486550   -3.294115167937   -0.219600988496
