77

C     -0.627714599237    4.686562906855   -2.197219230364
H     -1.890760172392   -0.237190834450    0.321965753124
C      0.517105713851    5.083225842522   -1.371638259515
H      2.639071766179    3.807882900034   -0.724781952187
H      1.378637226580    5.453249776850   -1.933283969593
C      0.560577287200    5.262458903048    0.012513320586
H     -0.306431058045    5.073433882194    0.655263039172
C      1.637092889512    6.052920984992    0.685139660832
O      1.715659064803    6.195078039688    1.882674602074
O      2.507355384011    6.613042316129   -0.182335056208
Pd     1.311323724068    3.230679792318   -0.271746490653
C     -1.555191667488    2.561404713486    1.014952065906
O     -0.540078703062    2.208941408923    0.280982553895
O     -1.651018069095    3.627864272173    1.606788694574
C     -2.718193739024    1.546612807373    1.130825888232
H     -3.615434998448    2.110065541083    0.837558341789
N     -2.635858421181    0.438273677704    0.199352805985
C     -3.343468982715    0.400401582837   -0.974551027467
O     -4.175087144647    1.242287032453   -1.277277385486
O      0.311679422009    0.324731046200   -1.080674369229
H     -0.163042389964    1.087604705428   -0.559101697086
C     -0.426811033215    4.518395186822   -3.582713736002
C     -1.451132094838    4.111913773702   -4.441896912025
C     -2.733292416233    3.853243064295   -3.899208540534
C     -2.940946829003    4.046050177104   -2.523544944105
C     -1.917081682570    4.464557398661   -1.680033780545
H      0.569398652128    4.703016268100   -3.996380776690
H     -3.923519525008    3.828413105250   -2.100580569083
H     -2.116619660244    4.602563880007   -0.616914153729
C     -1.188936391225    3.941721606825   -5.918116574078
H     -1.368811956450    2.903610089328   -6.245951830396
H     -1.852769902162    4.580312281673   -6.525208804778
H     -0.150454448144    4.198101570570   -6.173494932519
C     -3.863299222571    3.375022384151   -4.773217995026
H     -4.153062447209    4.137971222336   -5.517128997463
H     -3.579132750449    2.474842984840   -5.343606053846
H     -4.748804303426    3.125211930666   -4.172786730464
C      3.590657085095    7.364303553846    0.385736583728
H      3.177986527476    8.149628755084    1.039271752408
H      4.190629736622    6.697768669328    1.027790683305
C      4.409339687170    7.941968648715   -0.750188321377
H      3.797526535336    8.608472096271   -1.377631993969
H      5.252027634150    8.525486200235   -0.347714187023
H      4.816939120811    7.143861454205   -1.389981966558
C     -3.006192909385   -0.779301676512   -1.874139442312
H     -3.111225181156   -1.734104903815   -1.334121995632
H     -3.682433992562   -0.771885412404   -2.737417556241
H     -1.962858690536   -0.701920696036   -2.220174785544
C     -2.895724657955    1.097267197822    2.605307569183
H     -2.907939181818    2.038406154638    3.180270438826
C     -4.239942966201    0.387578120881    2.802181987120
H     -4.412641532958    0.132867431647    3.858939745539
H     -5.075764018632    1.025311027331    2.473928687428
H     -4.285752995039   -0.546147505372    2.217660398709
C     -1.700309839712    0.260614874352    3.105157645825
H     -1.710265147519   -0.727690815324    2.606970412557
H     -0.762684321172    0.752291518803    2.792205043777
C     -1.656670953933    0.053469102308    4.621326420943
H     -2.528662997704   -0.509976886536    4.989383656621
H     -0.755892862063   -0.507123211331    4.918531391468
H     -1.636547540870    1.019974831701    5.151514414697
N      2.240659625547    1.278119894443   -0.236842330571
C      1.590107327808    0.251486378968   -0.794242823641
C      2.255729975193   -0.976383059000   -1.117289146635
C      3.569961273162   -1.137123957265   -0.787528904941
C      4.265468990718   -0.097213597995   -0.103179974912
C      3.554273765697    1.112588781026    0.170061431991
C      5.613500403963   -0.230943438791    0.314522519132
C      6.245534683351    0.787811403797    1.000279562028
C      5.535514294112    1.973265881645    1.291904552705
C      4.222496535489    2.135690756318    0.886769813190
H      1.669097674135   -1.752088149135   -1.610331811382
H      4.094632867586   -2.067077896471   -1.023173829903
H      6.140907506629   -1.161468913588    0.088000688241
H      7.282877302142    0.676885238372    1.323795275422
H      6.025370930143    2.774262059342    1.851086239787
H      3.675967625255    3.048488263317    1.127164641020
