72

C     -0.906674119394    4.473142144682   -2.065092878537
H     -3.683227058052    1.815882792640    3.246697913392
C     -0.473549484983    4.618634942213   -0.670521119949
H      1.808476428820    3.214371005312   -1.440208561078
H     -1.268238827705    4.448612191777    0.064708752666
C      0.706482724684    5.183352298183   -0.194552583162
H      1.461245917329    5.589281323643   -0.871034563705
C      0.777568010756    5.711906067499    1.204048500717
O     -0.151732763094    5.821568917504    1.969675152661
O      2.033447196692    6.099449437397    1.497791856578
Pd     1.098715414841    3.018920747589   -0.104443304173
C     -1.001489297514    2.305842437917    1.902421095978
O     -1.415748897996    1.332827923584    1.233598502627
O      0.150905830148    2.824340101043    1.826900404465
C     -1.963648143228    3.006625341669    2.883925820988
H     -1.892448340607    4.071285866471    2.616466691532
N     -3.337910045014    2.592904450727    2.695890569695
C     -4.010371180407    2.921871409202    1.557899298310
O     -3.559676377474    3.711134342909    0.735265682763
O      0.050507534914   -0.044953648071   -0.208970059314
H     -0.505136524869    0.646595360347    0.373426287375
C     -0.096661675636    4.796601537505   -3.173094384722
C     -0.557499955471    4.686204389227   -4.484352315144
C     -1.884073065446    4.233156588017   -4.713488141562
C     -2.689401072156    3.916958692417   -3.612144730542
C     -2.220457723479    4.030672317069   -2.303081471200
H      0.928156898140    5.138971578894   -3.009630744415
H     -3.713359920690    3.573607806362   -3.783868963171
H     -2.868962924652    3.794506340901   -1.455247709601
C      0.342449643046    5.040662272146   -5.642673972910
H      0.496347985268    4.180162813024   -6.315864907936
H     -0.086430950175    5.848259458231   -6.260116367392
H      1.330890163060    5.373619270355   -5.294550108605
C     -2.416676920579    4.096392416860   -6.116448276755
H     -2.391766869894    5.058643910834   -6.656201864441
H     -1.813490717595    3.389865467165   -6.712101023662
H     -3.455381953840    3.736265998453   -6.117418584145
C      2.252843228223    6.647349689163    2.807718162440
H      1.570974906435    7.500449388796    2.956832846368
H      1.987893467700    5.886303453865    3.559623054188
C      3.706746998717    7.060048949423    2.907438485251
H      3.955495060729    7.815956063729    2.146522843772
H      3.907287142658    7.490971597620    3.900737993103
H      4.373934785885    6.195802259436    2.765875182691
C     -5.349703337643    2.236013090827    1.360400158849
H     -5.800322871388    1.888500674009    2.302062414581
H     -6.035004608739    2.931901971422    0.858125779003
H     -5.203821214270    1.366663628784    0.698413850218
C     -1.501206007715    2.841794415685    4.342465345088
H     -1.598936847647    1.784071012526    4.643668561138
H     -0.425750248559    3.075672295205    4.354898133195
C     -2.233933540686    3.733039074189    5.322775449774
C     -2.101312234153    5.130770771322    5.243182198414
C     -3.056637834840    3.196647455091    6.323410147365
C     -2.775111493514    5.962594611718    6.139559079650
H     -1.465042576804    5.567487121967    4.467285098516
C     -3.732608703471    4.027948328230    7.223529724760
H     -3.165905212400    2.110673825980    6.404789957652
C     -3.594300860470    5.414706302268    7.133584529187
H     -2.660170174417    7.047180242997    6.062564855534
H     -4.368147488668    3.588550067020    7.997193193673
H     -4.121014933798    6.067397373424    7.834691680691
N      2.043760492248    1.133579797677   -0.022575708854
C      1.350344676218   -0.027338684568   -0.141024653208
C      2.054839932796   -1.258274587996   -0.231536836047
C      3.433645367842   -1.276374108121   -0.161712927636
C      4.131670893781   -0.065904515954    0.001048868599
C      3.395680646835    1.103149293711    0.058569774326
H      1.460833451630   -2.166228366502   -0.341748177419
H      3.974317720227   -2.224504911354   -0.224417349579
H      5.219655981066   -0.031607188348    0.069452976268
H      3.887764079963    2.072180770411    0.160954390629
