65

C     -1.441543025398    4.428556754616    1.647007378025
H     -0.276921349883    4.664879830163   -4.501662516064
C     -0.333292241955    4.834606201246    0.773307053435
H     -0.623030964520    5.083604774860   -0.250031323617
H      1.512313640979    2.874247187326    1.825738467758
C      0.968014248730    5.141543226407    1.158100606186
H      1.271334067010    5.120824594349    2.205819854254
C      1.956663834411    5.865025948183    0.305006593458
O      3.115083228495    6.018560766087    0.628032343125
O      1.431496975774    6.336761758048   -0.841139396673
Pd     1.073553796287    3.072591092642    0.383918209716
C     -0.533647361535    2.637896827133   -2.120021736553
O     -1.018796449673    1.614832773137   -1.584258774435
O      0.429053212624    3.332677599896   -1.692806360645
C     -1.189395688287    3.054442688574   -3.447939897339
H     -2.262518375655    2.836835574343   -3.351322997090
N     -0.993294069348    4.435342948727   -3.825441996915
C     -1.569463692263    5.437553224043   -3.104944284393
O     -2.328697629514    5.210329385398   -2.172005158047
O      0.043900301621    0.109320483195    0.049998212055
H     -0.384210935809    0.861784477771   -0.564787243340
C     -2.719118875432    4.299189727661    1.066795078483
C     -3.840862784198    3.935843609330    1.819663501561
C     -3.689721784500    3.690547464709    3.204516527815
C     -2.414531729244    3.821776884251    3.781222797815
C     -1.303780524939    4.182377092587    3.025831515990
H     -2.827345121976    4.493708688443   -0.003611270197
H     -2.295093372017    3.631837429350    4.851605000435
H     -0.329056850998    4.264971649741    3.511268732122
C     -5.188442058282    3.806291394173    1.153573337412
H     -5.594063209424    2.785237871144    1.256087569220
H     -5.932214086909    4.486329900204    1.603150841851
H     -5.123905323270    4.036653961631    0.080957176254
C     -4.871282024224    3.291897608684    4.050700481744
H     -5.666010324661    4.057046111462    4.023808254141
H     -5.329387151273    2.355390459874    3.689086510704
H     -4.582624131673    3.142013804829    5.101060131509
C      2.337416683228    6.923974287767   -1.792836005654
H      1.736431182978    7.671562001676   -2.330890296219
H      3.143640912395    7.437457239356   -1.249663803568
C      2.888371729500    5.873215105461   -2.742909006411
H      2.067944807964    5.305992477886   -3.206648085776
H      3.488589111149    6.355227122959   -3.531489737011
H      3.532900491057    5.159219335936   -2.209139516136
C     -1.224287438469    6.855124592206   -3.523383137149
H     -2.158364893619    7.421379295726   -3.650688892686
H     -0.664641836243    7.327556915902   -2.701883527615
H     -0.632347988990    6.916307940755   -4.448454174614
H     -0.790863267543    2.404021768151   -4.242007526708
N      2.064040353482    1.215928332917    0.079036402253
C      1.345853986928    0.087189952971    0.075084321646
C      1.989460923449   -1.196527026099    0.119555495528
C      3.351512708438   -1.275453694780    0.112351469281
C      4.136334436743   -0.084536651007    0.069846503882
C      3.445528278524    1.166709661357    0.064827735784
C      5.553505099377   -0.102434822442    0.051725519995
C      6.276314635716    1.074998513417    0.037146860284
C      5.592728472848    2.310957961153    0.047185988399
C      4.209777964170    2.360170786049    0.061769603240
H      1.343841507595   -2.075051818351    0.136506359003
H      3.854590265524   -2.246309887797    0.131941680554
H      6.063776124853   -1.069538971008    0.054048470033
H      7.368436921051    1.053287700551    0.024808712183
H      6.158630810980    3.245779188339    0.048800429426
H      3.694031558575    3.322015831324    0.084677453595
