64

C     -0.545992754438    4.648348121309   -2.361515682510
H     -2.417503336903   -0.339720512930    0.667085093503
C      0.476246572108    5.030586769611   -1.384704723939
H      2.425504727653    3.722382981680   -0.493069506009
H      1.414411854360    5.381251225966   -1.822692753158
C      0.332479748947    5.223697382732   -0.007020919500
H     -0.626914433786    5.081717606161    0.502263223895
C      1.316757142949    6.010606494053    0.801388815980
O      1.182499504727    6.227973503835    1.981892986276
O      2.357768443409    6.470338264699    0.077041941029
Pd     1.055532324400    3.174917378890   -0.155240479634
C     -1.936276684394    2.670595312099    1.024292056203
O     -0.856257365586    2.250771529938    0.406704643154
O     -2.143642600773    3.828700965082    1.337230071339
C     -2.973008509683    1.583072705018    1.391444797685
H     -3.943863645210    2.094339670764    1.330762557958
N     -3.000541376650    0.465455916190    0.466844818470
C     -3.531954309295    0.590136906200   -0.789495857396
O     -4.107135614634    1.603839246139   -1.152940299092
O     -0.027572392747    0.033993786629   -0.038983829003
H     -0.489904987226    1.010600998928    0.150040950901
C     -0.169684841350    4.573837218598   -3.719536128593
C     -1.070884920058    4.218264240568   -4.725389370142
C     -2.405927820875    3.909591874154   -4.365094555589
C     -2.783064933762    3.986618724810   -3.014233757325
C     -1.881336468749    4.359777991342   -2.022576185306
H      0.865066769174    4.802547460266   -3.992497690677
H     -3.801053586885    3.719857709728   -2.723545626888
H     -2.216898302087    4.414918642307   -0.986836802155
C     -0.626180049913    4.159031364292   -6.165978412820
H     -0.761679545154    3.150685313494   -6.592764507636
H     -1.210210466523    4.847500675775   -6.800064772393
H      0.435258730401    4.426893526503   -6.269816499056
C     -3.410980343545    3.503630121870   -5.411447666780
H     -3.557631179203    4.299223236736   -6.162311308462
H     -3.079084378987    2.609683048971   -5.966788046266
H     -4.387446525624    3.278509192076   -4.960433293961
C      3.361864837277    7.212563837909    0.789482562066
H      2.880830473584    8.059465963096    1.304487733866
H      3.794510092752    6.566080364468    1.570919777429
C      4.405067992107    7.671389409830   -0.207799196059
H      3.957504026577    8.318721316951   -0.977857733978
H      5.191036493544    8.243969356547    0.308720893463
H      4.878794378371    6.813342329101   -0.709445240641
C     -3.337528533160   -0.619870900068   -1.688950425014
H     -3.619427614518   -1.554629295355   -1.178971637560
H     -3.947173201665   -0.493868561303   -2.591797924446
H     -2.276218126459   -0.700316246064   -1.975957896451
C     -2.730571136107    1.098052781476    2.823736353804
H     -1.754279570232    0.591901532338    2.910683751718
H     -2.733224958757    1.952368108844    3.515246779523
H     -3.518121696795    0.392799712245    3.130668556520
N      1.970676610389    1.206309668724   -0.033783691075
C      1.265240316970    0.034252351832   -0.042619101350
C      1.945038295176   -1.219316595770   -0.061562786958
C      3.318475390896   -1.267164769858   -0.045363309511
C      4.014523793237   -0.046520090785   -0.012458253313
C      3.318132651339    1.149595068263   -0.010819764172
H      1.332113554225   -2.120842362109   -0.078863673740
H      3.873432784527   -2.205694873700   -0.052772600869
H      3.867378157387    2.088409977339    0.004468633943
N      5.478111532068   -0.026142385547    0.009738521291
O      6.031758219677    1.062409955250    0.035245912760
O      6.049473200711   -1.105521261999    0.000828944155
