59

C      2.073939993552    3.096888606360   -2.339115604221
H      2.874572684883    2.354177479080   -2.378257137698
H      2.341982163783    4.155296526452   -2.333768865666
C      0.777254716272    2.706238200261   -2.570674127437
H     -0.013727930442    3.444092487618   -2.724834576897
C      0.440978613655    1.279147206377   -2.888908479840
O      1.251690105340    0.386228199276   -2.977298431072
O     -0.874612551333    1.135661985693   -3.067523984049
Pd     1.014851882281    2.952847092662   -0.339889921940
C      0.129682359485    5.527654035724    0.440129694503
O      0.273728758007    4.775999506962   -0.637279713799
O     -0.218515731791    6.687237313847    0.385543165695
C      0.468163764255    4.822825070374    1.776495697921
H     -0.303119355117    5.141405733061    2.491068110629
N      0.380402732568    3.375562315022    1.548686770847
C     -0.495591742884    2.597787436190    2.182646607931
O     -0.788363182400    1.427028885750    1.819355550635
O     -0.007933391316   -0.030606557797    0.049489729743
H     -0.374736572908    0.719203503072    0.752696528603
C     -1.361471139642   -0.201514010983   -3.300490503040
H     -0.814552157295   -0.632575025805   -4.154179429677
H     -1.124771429271   -0.806481512317   -2.411296353927
C     -2.851233440435   -0.118975268353   -3.554919167093
H     -3.069147720678    0.502132296734   -4.437440596256
H     -3.254835412462   -1.127593941240   -3.734475458153
H     -3.375504960787    0.313128895537   -2.689008606779
C     -1.234241637479    3.099117640717    3.415154961329
H     -1.698126001398    2.231857543759    3.899983337003
H     -0.579463369894    3.616448728008    4.128055951927
H     -2.033421235873    3.798183547773    3.118759140601
C      1.846206280071    5.318554134790    2.363635200460
C      1.661758458972    6.759348933417    2.879765087557
H      2.614861912103    7.147266798052    3.274734556353
H      1.308466957598    7.428548668007    2.083568394640
H      0.922661363090    6.794015447616    3.697383157528
C      2.263089078743    4.414036527558    3.536838124499
H      1.513771497916    4.427271386703    4.344647543796
H      2.403359542533    3.370280153596    3.218395820257
H      3.212283568265    4.770256024224    3.968831336443
C      2.961309144852    5.307529466204    1.301010208997
H      3.116831546803    4.299858045262    0.882313871441
H      2.738910979917    5.992726849722    0.468459152410
H      3.915312180636    5.627329502389    1.750219062335
N      1.960683111252    1.125652666959    0.044738877330
C      1.292373722965   -0.034732624062    0.049060329789
C      2.004105964982   -1.292867723394    0.053740441091
C      3.427555045777   -1.280745757884    0.088881277873
C      4.083116693274   -0.012583794002    0.139074254723
C      3.332508801590    1.128188258142    0.117267539509
C      1.305602600788   -2.523057048768    0.040818115230
C      2.005017616431   -3.716246453211    0.042126667232
C      3.418846883010   -3.710851703437    0.064712773384
C      4.119112599335   -2.518379227932    0.091402183863
H      0.215205471941   -2.502776252804    0.032189921920
H      1.466781695855   -4.666928406100    0.029619541561
H      3.961855490180   -4.659546486156    0.065832140809
H      5.211776058946   -2.516508004176    0.115507036591
H      5.171309150435    0.049105426501    0.193323273415
H      3.801519381159    2.113341115743    0.149891202147
