74

C     -0.856575030580    4.503526934916   -2.123620165915
H     -3.765222177197    1.969488435505    3.131262727867
C     -0.397806729086    4.728815146470   -0.747298714931
H      1.852462872780    3.195251422058   -1.406734843978
H     -1.184466553608    4.651129975487    0.011887770196
C      0.813683814556    5.270944863033   -0.329139106531
H      1.575726938704    5.592875261492   -1.041509116760
C      0.928550738390    5.886831046646    1.030346268404
O      0.018104310294    6.088010137584    1.796869548941
O      2.207521493011    6.233874974800    1.284822961500
Pd     1.097649815167    3.102922133114   -0.084106001989
C     -1.054479285424    2.501601924990    1.921051562473
O     -1.456044328546    1.513100552877    1.260952618970
O      0.077953950569    3.052518813260    1.819776704714
C     -2.010262585714    3.145692681848    2.946875121698
H     -1.897692826820    4.228728563855    2.791488704571
N     -3.394336272398    2.797217017879    2.680214856759
C     -3.999667544932    3.200448938622    1.526911764573
O     -3.491673387502    4.018116641238    0.768806694019
O     -0.014952225300    0.081812828875   -0.150190911719
H     -0.563508836985    0.798586896633    0.409289906987
C     -0.043759439334    4.695227650992   -3.259690410921
C     -0.526677107516    4.513513996498   -4.555231911997
C     -1.879516957063    4.122683656500   -4.738775287097
C     -2.687457727593    3.937019682683   -3.609886101022
C     -2.195946971121    4.120848549989   -2.317166405607
H      1.001049966694    4.988337129768   -3.131021255939
H     -3.731539978718    3.641808793792   -3.746906836530
H     -2.845128035272    3.985736997682   -1.448046331292
C      0.377863489660    4.727043498911   -5.744182347199
H      0.473276957754    3.811251950667   -6.352134742050
H     -0.010975826550    5.510276595941   -6.417089300403
H      1.388215235607    5.026242039225   -5.429966449006
C     -2.436869002329    3.912322302712   -6.123030641092
H     -2.362832106186    4.827897094244   -6.734708743197
H     -1.883718608546    3.128373225841   -6.668314248152
H     -3.494804741992    3.615227545055   -6.088121061143
C      2.461622021431    6.854215334022    2.554752130875
H      1.829808580695    7.752927990530    2.646622462496
H      2.153806006640    6.162968264959    3.356229560867
C      3.937029585079    7.188951050775    2.628688128227
H      4.227013188834    7.875499806295    1.818186949134
H      4.164687415521    7.674660540790    3.590438691671
H      4.553547860332    6.280365111991    2.547224539925
C     -5.342063886864    2.557250706673    1.227745837233
H     -5.850837052908    2.179707316981    2.127334769181
H     -5.983678644080    3.290692884934    0.721221603706
H     -5.179427828893    1.713877378600    0.536584027533
C     -1.590768124462    2.824043192832    4.401441155870
H     -0.519853337505    3.086253592933    4.443029903302
C     -2.339935212881    3.719173819417    5.397379636764
H     -2.004411844416    3.544082601748    6.431125159276
H     -2.175676134233    4.783839768268    5.169158457428
H     -3.426277625522    3.535680425688    5.359426994157
C     -1.714236891336    1.322023241067    4.737317721963
H     -2.781563148145    1.055603647989    4.862599725939
H     -1.354936427833    0.729534389229    3.879283627840
C     -0.951692054781    0.892077991608    5.993261911402
H     -1.317587179258    1.403231231151    6.897975452014
H     -1.051948852442   -0.191328232125    6.166234673602
H      0.124025906090    1.115334701157    5.898222105126
N      1.993597822414    1.201445929523    0.130794232941
C      1.283124009047    0.059424657505   -0.010056618804
C      1.940279213886   -1.210606965937   -0.045390325696
C      3.316669731302   -1.236640629841    0.112732208156
C      4.036930606514   -0.043579967667    0.301313661630
C      3.337317826923    1.146755461602    0.296496319533
H      3.840764300162   -2.196719724773    0.098447883665
H      5.119383497057   -0.043339182397    0.436187332178
H      3.845268354619    2.105620352879    0.413667376107
C      1.104985727641   -2.444936305347   -0.235380303547
H      0.338938384477   -2.525377091200    0.552681382196
H      0.556142104143   -2.407166257588   -1.190537201367
H      1.726820033475   -3.351841836433   -0.221377465528
