71

C     -0.858796960014    4.555641899618   -2.138735581353
H     -3.737549365285    1.932114999311    3.102172940696
C     -0.374225185726    4.773540049278   -0.769398126118
H      1.855761643454    3.206407359416   -1.451992327497
H     -1.144860513195    4.703013431634    0.006797788752
C      0.855486021811    5.294705706142   -0.378901979278
H      1.606096279482    5.600602449259   -1.110116963694
C      1.022715182774    5.909444303417    0.975832610804
O      0.142457034893    6.127270519075    1.772190774504
O      2.315943467846    6.236712488594    1.185251689430
Pd     1.095326216264    3.120468485869   -0.132308192583
C     -1.013757659982    2.475600829731    1.965187543225
O     -1.378333617545    1.421193074015    1.389474200928
O      0.061382484710    3.102435943856    1.758467344604
C     -1.970314114638    3.099366199224    3.008420143162
H     -1.849240368308    4.186381856601    2.894099276698
N     -3.349189251801    2.769104554864    2.684397229145
C     -3.915006486458    3.197395077305    1.521801638235
O     -3.375040599706    4.019785727320    0.790503345502
O      0.005358700162    0.087636884042   -0.155581632287
H     -0.534058975914    0.763906918668    0.468203134606
C     -0.062107083414    4.739548335163   -3.287551513701
C     -0.567010844803    4.563829900464   -4.575616751146
C     -1.926492264376    4.187542235411   -4.738421849749
C     -2.718422889144    4.009512695910   -3.597034679913
C     -2.204840656640    4.187107423605   -2.312059511818
H      0.987529332534    5.022090938622   -3.175705051312
H     -3.767493704764    3.725045635605   -3.717999340390
H     -2.840329577989    4.056350430060   -1.432387925821
C      0.321197727260    4.768604711357   -5.778335495334
H      0.397886769332    3.852083868424   -6.387840023137
H     -0.070002683822    5.555972466961   -6.445016297878
H      1.339291102684    5.057418143602   -5.479747621133
C     -2.507642588786    3.983940467260   -6.113876692552
H     -2.433469740089    4.898984141727   -6.726334032536
H     -1.971548995326    3.194370802721   -6.668002063393
H     -3.568010424156    3.698087674545   -6.062519565961
C      2.624739161498    6.863533421663    2.439503287061
H      1.978927016268    7.747570642767    2.566795318548
H      2.378062981783    6.165736301544    3.256644029102
C      4.094463964303    7.230431678461    2.433549842504
H      4.324109635042    7.924961843072    1.610603018490
H      4.364048397104    7.718940109271    3.382961808802
H      4.725651186585    6.336058828312    2.315175514785
C     -5.256749505622    2.577839919580    1.173795591087
H     -5.782395408185    2.162501009376    2.046438606684
H     -5.885938729668    3.338940581066    0.692729068584
H     -5.089657712722    1.767438543941    0.445374544075
C     -1.625927327870    2.730989897679    4.488347272800
C     -0.180948267081    3.162809764542    4.804937400620
H      0.024989270763    3.014799754663    5.877624249713
H      0.556527975426    2.584353311038    4.231109238246
H     -0.022589467385    4.225301801410    4.564020772711
C     -2.580911315440    3.500544351154    5.422777496370
H     -2.470665990752    4.588412762350    5.287714389906
H     -3.635274407582    3.247324580721    5.235455768475
H     -2.357804569196    3.265836070745    6.476303897028
C     -1.764659621104    1.214855568283    4.734328440573
H     -2.805191209288    0.862958763617    4.628499179054
H     -1.145029235787    0.631240042239    4.037014113421
H     -1.453087479731    0.967114224251    5.761807982346
N      2.008200741101    1.225405405116    0.093276583870
C      1.302020279698    0.073434825944   -0.036564463796
C      1.988519102762   -1.169386074735   -0.077627346084
C      3.363068239399   -1.207140808708    0.054020964580
C      4.072181351390   -0.005428415240    0.231113209680
C      3.353654145988    1.176514508175    0.236941006255
H      1.385685267202   -2.070001328297   -0.199760731579
H      3.891104288504   -2.164147299213    0.029678498278
H      5.156426913543    0.012717062970    0.348281841697
H      3.856226152234    2.139621265120    0.345269957066
