53

C      2.004626731056    3.150943024534   -2.383323876370
H      2.819764442456    2.426356223345   -2.452022808090
H      2.249485784312    4.214756638832   -2.368410463443
C      0.711787078618    2.735660456780   -2.591407140828
H     -0.097852896824    3.458541547941   -2.716823681796
C      0.398645476685    1.306298351461   -2.922873640294
O      1.228267776226    0.435728606027   -3.053612678027
O     -0.917914261061    1.133599408517   -3.059620388143
Pd     0.996555267588    2.960283131088   -0.360500527684
C      0.199558350382    5.537827108329    0.461577422644
O      0.250221705660    4.785583013610   -0.623762119459
O     -0.015814615262    6.728771533609    0.431858090890
C      0.470444796857    4.798882375014    1.792841404424
H     -0.345230542323    5.105579323472    2.464234486096
N      0.423306902636    3.352326672206    1.554588103448
C     -0.428881318252    2.540194425704    2.190001943857
O     -0.705109224700    1.378639556890    1.805270288279
O      0.012824452731   -0.066177987205   -0.051626175829
H     -0.336044977074    0.642598110408    0.648400882293
C     -1.383809735281   -0.213271784946   -3.282014494313
H     -0.840344999807   -0.637617834858   -4.141115052583
H     -1.126098080977   -0.807839830722   -2.391654480381
C     -2.877932489304   -0.157807519653   -3.517798048291
H     -3.118391405381    0.454605144990   -4.400585893188
H     -3.266129749771   -1.174319567869   -3.686546347497
H     -3.398433574161    0.269407925388   -2.647213670696
C     -1.146889175706    3.009126433633    3.448830657482
H     -1.565638408502    2.122658686299    3.940323217242
H     -0.493444176603    3.547720129091    4.146005397306
H     -1.980921460470    3.677671621559    3.178223474925
C      1.788802125800    5.331251106681    2.423505187310
H      1.644174158608    6.425102179363    2.446254433651
C      1.982902796892    4.840751466822    3.861819006752
H      2.907373452210    5.256650252208    4.293794686795
H      1.149264501810    5.147662755925    4.513641760553
H      2.063640725768    3.741710284236    3.901358256276
C      3.033474054159    5.043307941725    1.576145115423
H      3.248254109436    3.962649687920    1.541261089547
H      2.925113268657    5.409626964685    0.543053686718
H      3.915920813501    5.539484167886    2.010766930150
N      1.970704762578    1.133522491985   -0.021260088958
C      1.322135756399   -0.053968547846   -0.045257209593
C      2.050316950771   -1.264882112529   -0.070713673975
C      3.436179484666   -1.263543154964   -0.026709275188
C      4.083613333245   -0.008492873225    0.057260028606
C      3.322759918289    1.142473954352    0.052650023910
H      1.474992053865   -2.190978064753   -0.107785932677
H      5.171312028358    0.063805779912    0.114494530969
H      3.794293104007    2.126907130231    0.095682332513
C      4.234186757976   -2.538901798617   -0.056068718201
H      4.912488402697   -2.599517157301    0.810621425078
H      3.585513198965   -3.425878704918   -0.050916300063
H      4.863727595040   -2.580045513326   -0.960623016003
