71

C     -1.451232707040    4.432379873522    1.658376588745
H     -0.250028319509    4.662607997075   -4.508292701700
C     -0.353960343180    4.833382106865    0.766306978897
H     -0.654483165698    5.046850674216   -0.261731776346
H      1.581174066904    2.968809450561    1.852945356245
C      0.936938732040    5.190286852931    1.140365297921
H      1.235678528972    5.213314155200    2.189374834794
C      1.913111281941    5.911643931930    0.274724734526
O      3.041706482913    6.168035408339    0.631782877940
O      1.414541063162    6.257241383433   -0.931560029482
Pd     1.087416787162    3.093086012649    0.432919061531
C     -0.536952258211    2.522892418476   -2.241975930298
O     -1.017696529251    1.400928698602   -1.831713277185
O      0.335550258304    3.197543694975   -1.684760875852
C     -1.144150230111    2.972911120835   -3.572166571595
H     -2.212596626756    2.713354095802   -3.540091253497
N     -0.972017155231    4.373884753134   -3.861245213590
C     -1.614585217948    5.311759803939   -3.104227230866
O     -2.393617625297    4.988587679611   -2.218697769928
O      0.116384607763    0.328156935070    0.066906451392
H     -0.529022432670    0.997913140487   -0.971592805167
C     -2.734470411676    4.280122049487    1.096706702896
C     -3.843943970359    3.917927060772    1.868348209827
C     -3.674540613149    3.696100700001    3.255012829942
C     -2.394033638927    3.849281784592    3.813288067878
C     -1.295889481964    4.209272223042    3.039049729782
H     -2.859895577087    4.456572778490    0.025015774973
H     -2.259039182966    3.676560389968    4.884695266750
H     -0.316609093727    4.307860779887    3.512020790448
C     -5.198227725621    3.765248258653    1.220858923036
H     -5.594099763657    2.742913865735    1.346172610794
H     -5.942466209802    4.446505398255    1.667774274889
H     -5.149503499428    3.977682077559    0.143591408651
C     -4.841770925373    3.298860714589    4.121581007146
H     -5.645175863633    4.054804662212    4.092040748165
H     -5.293659189849    2.351337066464    3.781447662124
H     -4.538855362306    3.169519511681    5.170615369842
C      2.331297069452    6.825397697733   -1.884824087556
H      1.724709823048    7.517231218893   -2.487766213951
H      3.097294639062    7.399996424395   -1.345277322021
C      2.956597210424    5.743156658931   -2.749596491024
H      2.176364620068    5.132980669413   -3.229140654250
H      3.585954714726    6.199635595984   -3.530513531502
H      3.588949501084    5.074001484283   -2.147229913410
C     -1.302745575711    6.761987708416   -3.414978717658
H     -2.246206107613    7.324650961443   -3.451397755422
H     -0.706853567923    7.168435173888   -2.583192299659
H     -0.753090826702    6.905606189829   -4.356759864022
H     -0.684486734996    2.371989482436   -4.372303657725
N      2.160402282666    1.305892112299    0.168275781789
C      1.381618341430    0.217179197868    0.087976399416
C      2.006219036779   -1.113327423713    0.026514040473
C      3.417130172332   -1.240130366950    0.023818549448
C      4.222437433488   -0.024842082217    0.088739773945
C      3.546694001653    1.227491694605    0.171606511841
C      1.181766685535   -2.254844142610   -0.033628175644
C      1.741787575112   -3.521795870471   -0.094812392353
C      3.142057678869   -3.660533762046   -0.098696181421
C      3.963460590505   -2.543394922742   -0.040877940389
C      5.634967649075   -0.030358867918    0.083234420682
C      6.368912379708    1.144082491529    0.162281474963
C      5.696603228101    2.374820422423    0.253796552677
C      4.310495542864    2.414556428809    0.258418064922
H      0.101419952301   -2.103589352148   -0.027374935760
H      1.102371078912   -4.406820743791   -0.139222803555
H      3.590281941424   -4.656578939013   -0.146576710853
H      5.045307576550   -2.682150014058   -0.043400494772
H      6.165917750334   -0.981341797358    0.018000716151
H      7.460851927518    1.109441756567    0.157551647977
H      6.261364464990    3.307746799411    0.325302001391
H      3.788178649402    3.370135370840    0.337329733994
