75

C     -0.606635065677    4.636967700845   -2.170558844650
H     -2.027317390421   -0.353876812471    0.533509419758
C      0.496864031729    5.027609666623   -1.288469304855
H      2.577188537210    3.750028760597   -0.551744646827
H      1.384003656628    5.401159717836   -1.806420031003
C      0.475170869643    5.198658307215    0.098130065669
H     -0.424012312469    5.013503158076    0.696235528148
C      1.510976150319    5.995911900237    0.825076768841
O      1.495886114282    6.179973434598    2.018860944635
O      2.456181811684    6.514492509490    0.011009883900
Pd     1.229830272747    3.166766815043   -0.168244736087
C     -1.670936298289    2.543552373175    1.079457501357
O     -0.645293379316    2.179894178292    0.367033402079
O     -1.812402531448    3.639019247064    1.604771538188
C     -2.789923295565    1.488367690659    1.268273564381
H     -3.724328395067    2.017373081918    1.032894899711
N     -2.718248456034    0.367069543511    0.358414070083
C     -3.377217417531    0.351443990529   -0.843146812481
O     -4.135088629343    1.242931797934   -1.192697574541
O      0.233097237380    0.050832112499   -0.536549626188
H     -0.234607970096    0.916560503150   -0.207470551378
C     -0.344404444381    4.507073565558   -3.550244200054
C     -1.326989517048    4.116327668297   -4.463282706518
C     -2.628776414708    3.832001752214   -3.983160253545
C     -2.895905651081    3.978748325605   -2.612095667160
C     -1.913672994878    4.384863613867   -1.714733392594
H      0.666553225626    4.712396245820   -3.915569049856
H     -3.890813792443    3.735307762324   -2.234300316883
H     -2.160122596925    4.491099277963   -0.657963005188
C     -1.000995151344    3.989975116021   -5.931170406267
H     -1.163738812306    2.961742068101   -6.296814267996
H     -1.639750371201    4.645187210251   -6.547481889326
H      0.046747971279    4.255509494550   -6.134001155712
C     -3.715874390094    3.375470402757   -4.920912873971
H     -3.954362705654    4.147710713258   -5.673106555751
H     -3.412935985592    2.475823219151   -5.482919058238
H     -4.637189537519    3.134725687528   -4.372768963340
C      3.499512476992    7.274074775473    0.639486060613
H      3.045751211115    8.084012411385    1.232949252479
H      4.038612906689    6.623248844078    1.348210019344
C      4.412317442431    7.807879202410   -0.445078027923
H      3.860126635253    8.459838702799   -1.139567402395
H      5.227262233827    8.396075108229    0.004925889538
H      4.860176738576    6.986547940528   -1.025937719767
C     -3.093879723561   -0.873353293985   -1.699199235313
H     -3.425385871811   -1.790368094406   -1.185443284198
H     -3.634584064604   -0.775223554187   -2.648174045011
H     -2.013177381870   -0.965333887514   -1.892771419283
C     -2.823419682475    1.041301688074    2.748254327564
H     -1.882013972459    0.515537367787    2.985705532948
H     -2.833343259953    1.960568638349    3.352967093489
C     -4.004222583188    0.164773899608    3.099767989328
C     -5.287735289952    0.719254782513    3.237405128557
C     -3.857082742049   -1.218886508640    3.278531151768
C     -6.388643228258   -0.084277620786    3.541437522201
H     -5.424489988532    1.796851421057    3.106668533971
C     -4.956084699980   -2.028171824384    3.584309993670
H     -2.864212575606   -1.669418000889    3.185232360530
C     -6.226921641209   -1.462984029871    3.715469855790
H     -7.378259322836    0.368297329201    3.646313303759
H     -4.817345962061   -3.103832217356    3.722888194745
H     -7.087821357211   -2.092291746052    3.955546239300
N      2.186065656211    1.233861865109   -0.103673240870
C      1.532769811505    0.074838783306   -0.348885125049
C      2.246038930456   -1.146898401805   -0.419092619027
C      3.608011514470   -1.160206318454   -0.201698229600
C      4.292968250895    0.039239926828    0.091926999635
C      3.526540326013    1.194505874282    0.120630314608
H      1.679606645029   -2.053890062844   -0.633787154120
H      4.157083493556   -2.105336369427   -0.249739052849
H      3.995581096663    2.156616495418    0.327895484988
C      5.776982611400    0.066843902900    0.352546867106
H      6.132525693398    1.089519674420    0.545919347133
H      6.042117760796   -0.550490171023    1.227110061474
H      6.343395857607   -0.328887390707   -0.506875947886
