74

C     -0.550604719579    4.640942734621   -2.289961518401
H     -2.167344935965   -0.186291166444    0.391292549971
C      0.523945076335    5.020781750629   -1.367624421896
H      2.527843400594    3.702778009388   -0.580649470846
H      1.438912467155    5.366920507072   -1.855101425563
C      0.448548491242    5.220664699318    0.013333153631
H     -0.481665629442    5.071814346345    0.573208621104
C      1.474617050885    6.003003809038    0.769069799491
O      1.419208918884    6.202324811475    1.959400491497
O      2.462581246600    6.488502716940   -0.014227065665
Pd     1.167577133647    3.169120508609   -0.173936678603
C     -1.789586987492    2.662563810335    1.055421700716
O     -0.720256203758    2.246196515968    0.434774960197
O     -1.973184892717    3.814298707076    1.424116773416
C     -2.879643702249    1.593148533792    1.320655396430
H     -3.833034304815    2.124891896130    1.197433012426
N     -2.870518140228    0.540223827331    0.320776197267
C     -3.567810550134    0.638760067872   -0.853716598803
O     -4.326068343257    1.564362821190   -1.099518978691
O      0.087321915554    0.068709256283   -0.386462826708
H     -0.345019347295    0.966487614606   -0.076362697442
C     -0.240141307342    4.523573800686   -3.660928633815
C     -1.194725525693    4.161740738467   -4.614502204423
C     -2.517873696807    3.893154250605   -4.186034336429
C     -2.830952115117    4.018016315671   -2.822468340363
C     -1.875558547007    4.396105188105   -1.883923453247
H      0.785863107522    4.720011567713   -3.987096655339
H     -3.841097619509    3.783240473105   -2.480204812979
H     -2.160059661131    4.488463872892   -0.835516104148
C     -0.818064006822    4.052809449666   -6.071646283466
H     -0.990624112646    3.035197898980   -6.461667749647
H     -1.418522320640    4.733422409452   -6.698935367744
H      0.242145941489    4.297302964859   -6.231570364076
C     -3.578901849864    3.479050164013   -5.172551250343
H     -3.755171262610    4.261666918155   -5.930906405263
H     -3.285477901823    2.570578612662   -5.725885367221
H     -4.533042132109    3.273612125683   -4.667568382702
C      3.498716724697    7.231738704442    0.645046885140
H      3.041666079954    8.059131309835    1.211266213326
H      3.995042931231    6.577579453285    1.381406542575
C      4.464424394251    7.731233148304   -0.409637775243
H      3.954334841594    8.386661674648   -1.132484315385
H      5.274750688493    8.306617409710    0.064623258781
H      4.915437257606    6.892914656829   -0.963165342687
C     -3.344600822405   -0.518227868637   -1.817405568366
H     -3.853676976642   -1.423810467827   -1.448058462377
H     -3.766531412615   -0.250883489327   -2.793911072084
H     -2.272988431360   -0.749381501244   -1.923138771555
C     -2.825881670275    1.025627472582    2.782090538377
C     -3.053807104385    2.166980587873    3.791600083055
H     -3.052460968266    1.764109372057    4.817681668988
H     -2.279806165585    2.942919443664    3.721117396804
H     -4.025446763565    2.657269487951    3.621180170341
C     -3.954888834111   -0.009631199397    2.951777354162
H     -4.937519941259    0.437291897797    2.730605156959
H     -3.824944542661   -0.875878714148    2.286184240551
H     -3.978212469402   -0.379674680484    3.989608386219
C     -1.465708965282    0.359151973651    3.069928395160
H     -1.246963848357   -0.468174536321    2.374137165642
H     -0.637467953502    1.081158539027    3.001770571285
H     -1.457580384895   -0.065151042056    4.086875166751
N      2.080106642364    1.214267055693   -0.057906013492
C      1.391665938922    0.063178401003   -0.237082870963
C      2.071910430909   -1.178648334885   -0.277108763083
C      3.439060773078   -1.218409094462   -0.099787348621
C      4.162006157621   -0.026036272037    0.123482750796
C      3.425597272606    1.148881773230    0.127767234182
H      1.476711917971   -2.078476493256   -0.437005296149
H      3.962993320089   -2.178592992122   -0.124590084891
H      3.924779537151    2.105751791602    0.281966491515
C      5.653644719672   -0.026343031962    0.338183186849
H      6.040085965634    0.993768626333    0.478796768468
H      5.930554717864   -0.614738562227    1.228924277130
H      6.183385994972   -0.470687827475   -0.520898355783
