74

C     -0.853609273529    4.536199913366   -2.132079058899
H     -3.735088432442    1.934415829691    3.120507569349
C     -0.370287999075    4.761456000505   -0.763282010283
H      1.861515802909    3.193150283991   -1.436318487304
H     -1.141570125036    4.694183175866    0.012505477560
C      0.857972491593    5.287128233793   -0.374589883741
H      1.608896892423    5.590141883006   -1.106671779082
C      1.023210297920    5.908987027269    0.977035564074
O      0.142195055045    6.128722826436    1.772111674270
O      2.315591056738    6.240314404160    1.185290134657
Pd     1.100298687975    3.114103850187   -0.116900197014
C     -1.010814299926    2.476855661187    1.982006003180
O     -1.373172711699    1.418807487017    1.410857990127
O      0.063034167466    3.104480894804    1.773203494285
C     -1.969412516929    3.103744636088    3.021537348003
H     -1.850167424996    4.190398109103    2.901972837995
N     -3.347551426471    2.769551413917    2.698336492171
C     -3.913744729616    3.191425883671    1.533571588862
O     -3.374944193129    4.010982820502    0.798346030374
O      0.013877232950    0.088576835730   -0.133304694782
H     -0.527328061004    0.764690007267    0.490339934537
C     -0.056099600861    4.714758190154   -3.281109780615
C     -0.559827762167    4.532407610739   -4.568765200178
C     -1.918927192094    4.154659878571   -4.730925316035
C     -2.711669447305    3.981784682968   -3.589311569486
C     -2.199248231231    4.166026767861   -2.304775774433
H      0.993311899732    4.998301302861   -3.169743897562
H     -3.760532326599    3.696257876694   -3.709736381774
H     -2.835477121470    4.039249996968   -1.425052878851
C      0.329352917836    4.731827943870   -5.771684850572
H      0.406904135174    3.812510526003   -6.376868040749
H     -0.061525346987    5.515939991250   -6.442390320896
H      1.347091139684    5.022371590207   -5.473572814313
C     -2.498889021702    3.944230880694   -6.105894414001
H     -2.424960442860    4.856466823259   -6.722563457208
H     -1.961869378647    3.152503056037   -6.656046662918
H     -3.559115896340    3.657900268012   -6.054001555054
C      2.622711464530    6.873265105015    2.436786853173
H      1.974998696535    7.756490796931    2.560088131068
H      2.377367275148    6.178532078073    3.256938926042
C      4.091674902606    7.243217053898    2.429560964501
H      4.320030027111    7.934643129509    1.603644241758
H      4.360052581918    7.736396372376    3.376902886878
H      4.724697500169    6.349638970310    2.315142395828
C     -5.254727438168    2.568432427398    1.188458884674
H     -5.779088575342    2.154764017186    2.062668947642
H     -5.885577746305    3.327060606242    0.705643955352
H     -5.086869024781    1.756308400159    0.462142572874
C     -1.625344097826    2.743331470558    4.503486107214
C     -0.181351140221    3.179313349977    4.818870447321
H      0.024171364471    3.036983450867    5.892411439973
H      0.557572931737    2.599502849192    4.248296033095
H     -0.024795436297    4.240878577903    4.572789633858
C     -2.582356898128    3.515600377315    5.433589169852
H     -2.474024703485    4.602986599945    5.293279376415
H     -3.636150612542    3.259543937566    5.246881438653
H     -2.359455181080    3.286475068359    6.488387607676
C     -1.761476551510    1.228154991194    4.756748133742
H     -2.801287942974    0.873800609226    4.651813978610
H     -1.140143943161    0.642546869491    4.062628345814
H     -1.450162072647    0.985908263826    5.785613621109
N      2.015575715453    1.221645862799    0.118313662320
C      1.313759124934    0.072489325865   -0.011209700849
C      1.982374180260   -1.191075785736   -0.053473150826
C      3.361085657802   -1.204041625848    0.087218833591
C      4.072157165152   -0.004058838487    0.265623399767
C      3.361594545378    1.180009365866    0.267460997875
H      3.894150866411   -2.159095686779    0.067652270910
H      5.156177859938    0.006487937827    0.386943378311
H      3.862231591296    2.143748153027    0.375807311962
C      1.156294080777   -2.433505866078   -0.230808059210
H      0.401065380526   -2.519521154648    0.567001534217
H      0.595164555362   -2.402508403577   -1.179020675617
H      1.786555538183   -3.334670519045   -0.223148441921
