43

C      1.983290494919    3.251638377745   -2.407591534624
H      2.826777179908    2.558788142143   -2.459805615405
H      2.188202588961    4.324257414269   -2.396386482203
C      0.709857360629    2.788670070432   -2.648536606694
H     -0.119652350112    3.484504568970   -2.797339123514
C      0.448111606501    1.344882372564   -2.975700318878
O      1.308835659224    0.500857120713   -3.064241318444
O     -0.855974926616    1.138045915377   -3.153068901674
Pd     0.945612462512    3.008027272740   -0.428852920273
C      0.013863429022    5.547164463123    0.385778997443
O      0.140441758259    4.811354622012   -0.701933869170
O     -0.307760968309    6.710687498169    0.381878594670
C      0.343408443200    4.811109343950    1.701076777652
H     -0.354080737718    5.170596182520    2.468874113138
N      0.284939362323    3.362579938019    1.498461909889
C     -0.344253460569    2.578531290078    2.329278570629
O     -0.615909579535    1.333215325969    2.090200598871
O     -0.044609406400    0.141575286062   -0.032874674927
H     -0.413597179443    0.957325625433    1.142799460111
C     -1.285982282345   -0.226779890444   -3.350231719505
H     -0.681228446797   -0.674282396053   -4.154350271783
H     -1.075845361293   -0.776410580620   -2.419213296555
C     -2.762526312755   -0.208747895234   -3.681083184105
H     -2.956392294593    0.359487055309   -4.603933566450
H     -3.122309598439   -1.238880210293   -3.828318012176
H     -3.344140829379    0.245478866017   -2.864544557515
C     -0.842951717843    3.046694838690    3.675382876162
H     -1.087155847993    2.165477840748    4.280579102996
H     -0.100270926288    3.663891130639    4.198847829092
H     -1.760491221800    3.645381555652    3.553289028527
H      1.359043487180    5.120247084225    2.008316370765
N      1.953383910339    1.227982976301   -0.094613025749
C      1.212160562499    0.057711557122   -0.050761971466
C      1.929392837381   -1.187152536982   -0.003982137943
C      3.299227233092   -1.211456530952    0.054861304911
C      3.995595400576    0.017347586987    0.058274146054
C      3.292072643791    1.205997259649   -0.028034326973
H      1.333335146631   -2.100221218430    0.001219048979
H      3.865150473692   -2.142301768510    0.105806756966
H      3.832336560860    2.154186264038   -0.048416403241
N      5.450009358939    0.053776280254    0.133196176945
O      5.995352567873    1.150234431147    0.124124760610
O      6.035709421168   -1.016739957015    0.201650104933
