76

C     -0.899123830217    4.445848958516   -2.049497427467
H     -3.681179902341    1.818502174691    3.269378301580
C     -0.467065164420    4.602199183601   -0.655511961379
H      1.814688405012    3.190746213421   -1.410418221702
H     -1.262804981387    4.439294190715    0.080065044513
C      0.711979396953    5.171658108712   -0.182782634382
H      1.467936566827    5.571644959696   -0.861444684799
C      0.781017118247    5.711629983610    1.211352351006
O     -0.149261796901    5.827779907043    1.974912866118
O      2.036602913768    6.101496785262    1.503932055432
Pd     1.101647261125    3.007921801880   -0.074943241060
C     -1.004765922300    2.310238906317    1.933214464356
O     -1.418424738690    1.331542157136    1.272289864517
O      0.147210461920    2.828837917413    1.855586006657
C     -1.969639260643    3.019121933697    2.906535674559
H     -1.901166838313    4.081021324705    2.627848148817
N     -3.342729608338    2.600236480047    2.720840676491
C     -4.014262227408    2.918723041939    1.578930622908
O     -3.567679584691    3.707727139350    0.753983097604
O      0.048107419050   -0.040570780417   -0.176255870143
H     -0.510982846457    0.643328244925    0.412147535218
C     -0.087654771128    4.758988104984   -3.159287533991
C     -0.547340941438    4.638190888565   -4.470086108055
C     -1.874164600827    4.184976252193   -4.696844282858
C     -2.680949960185    3.879011309125   -3.593714789490
C     -2.213135044424    4.003051670160   -2.285163766796
H      0.937531189592    5.101091522625   -2.997588560749
H     -3.705117250834    3.535298019372   -3.763529384068
H     -2.862857066283    3.774439661954   -1.436176401316
C      0.354425962314    4.981544713472   -5.630378812501
H      0.507965511536    4.115093685353   -6.296004293474
H     -0.072560077217    5.784441504269   -6.255260035184
H      1.342931178530    5.316060201297   -5.283909572130
C     -2.405481829075    4.036934720647   -6.099210501649
H     -2.378731108611    4.994431240136   -6.647306053055
H     -1.802765766202    3.324374383436   -6.688146745177
H     -3.444704781025    3.678248044227   -6.098113613545
C      2.254245713324    6.658428118604    2.810099395250
H      1.572958319595    7.513226801440    2.952197450228
H      1.987484006996    5.903040998067    3.567064861882
C      3.708403301064    7.070504751614    2.909247516174
H      3.959045207837    7.820753150422    2.143352724371
H      3.907859062095    7.508243887400    3.899799482325
H      4.374890454265    6.204606221655    2.774694031444
C     -5.347333497711    2.220826523978    1.380916777434
H     -5.801141530785    1.881203251380    2.323960660207
H     -6.034472216673    2.905554545143    0.866042465566
H     -5.190426740679    1.344554767553    0.730633944200
C     -1.508504219412    2.871362697707    4.367258943797
H     -1.606719763667    1.817287363710    4.680899621227
H     -0.433021075636    3.105175096709    4.377641408792
C     -2.241512825007    3.774405016654    5.336434347627
C     -2.105756086229    5.170937131268    5.242100440331
C     -3.067713554044    3.250625626391    6.340849915480
C     -2.779823864978    6.013784974050    6.127934503373
H     -1.466868265419    5.597824535364    4.462881837766
C     -3.743940681830    4.092976736529    7.230428856171
H     -3.179738394682    2.165830926724    6.433375854865
C     -3.602431571711    5.478404149919    7.125942151735
H     -2.662423150947    7.097241896939    6.039465147571
H     -4.382306631708    3.663277815288    8.007229547309
H     -4.129373816409    6.139729021532    7.818759450716
N      2.045848770290    1.123249257418    0.025191333890
C      1.344624445508   -0.019276660953   -0.090260198230
C      2.046702746796   -1.276872913382   -0.162556421414
C      3.428979927419   -1.290455998193   -0.069730501532
C      4.121519078758   -0.072286592911    0.087360239572
C      3.403139660918    1.101092755689    0.125373223797
H      3.982653062750   -2.229038871968   -0.108129254574
H      5.209238653311   -0.052644081805    0.168553416750
H      3.893289190127    2.070083925439    0.225499709199
O      1.254275405575   -2.358034546890   -0.304741326863
C      1.851200689055   -3.631585142077   -0.384052818584
H      2.417826219544   -3.877600180515    0.532939415103
H      1.032451084679   -4.353627488799   -0.501468517119
H      2.529796522111   -3.713812819194   -1.252944594517
