53

C      2.014422847770    3.319795871532   -2.307924639142
H      2.869218069488    2.639995391610   -2.348350416269
H      2.201099847639    4.395371957766   -2.281064650853
C      0.755356973250    2.836927036475   -2.582568520764
H     -0.084740828814    3.517612578766   -2.742056981471
C      0.534604388939    1.392642342294   -2.939078120753
O      1.420785175049    0.575297411029   -3.031409701606
O     -0.758848997982    1.150709451813   -3.140376128651
Pd     0.940900629841    3.044996565895   -0.353616794146
C     -0.050242809984    5.554983305537    0.484615610864
O      0.134232357464    4.851064000671   -0.613913728157
O     -0.451239553391    6.698340747346    0.486929384380
C      0.320302049773    4.830468458352    1.799197783147
H     -0.426944077103    5.142544820739    2.539676799405
N      0.238773736331    3.379302502433    1.558471636809
C     -0.436468268105    2.587207235954    2.346707078492
O     -0.715663326545    1.352776955878    2.073919385357
O     -0.110481705390    0.228360462907   -0.053218880787
H     -0.486966470552    0.980658828417    1.117822917291
C     -1.140169078327   -0.225353036047   -3.363990163876
H     -0.570738055628   -0.611103992768   -4.224540360698
H     -0.846145950863   -0.803284378325   -2.474418280723
C     -2.634259129681   -0.261663801232   -3.599922685298
H     -2.914185811313    0.338996821327   -4.479281478345
H     -2.956710165546   -1.299953484022   -3.774022602886
H     -3.178882681102    0.125501993352   -2.725474877240
C     -0.991375336974    3.037426406824    3.678568112256
H     -1.227972385374    2.145571020415    4.271469992245
H     -0.290812702035    3.676319497058    4.231668602721
H     -1.924837664304    3.603168913224    3.524538515026
C      1.725801274654    5.228264641058    2.300479550277
H      1.918351328445    4.656153698815    3.226991671090
H      2.467051538568    4.868578501214    1.564206041834
C      1.968898883041    6.725398490702    2.570953290161
H      1.852926397851    7.263838331290    1.615109194045
C      3.408512612292    6.931039044205    3.060612048321
H      4.143642403303    6.525331830735    2.346049626455
H      3.630945732374    8.001277376734    3.196880260800
H      3.576053303082    6.430503064642    4.030292398208
C      0.954347876350    7.323718797504    3.554117523403
H      1.218482920922    8.365152115283    3.798223138177
H     -0.057125183131    7.338423166358    3.122306696458
H      0.930771166728    6.759238560382    4.503652831761
N      1.922346309729    1.250591445433   -0.024670450965
C      1.148828554374    0.120577064452   -0.039822799857
C      1.850188969940   -1.139674777774   -0.034506012562
C      3.223635472945   -1.197480706800    0.047909346362
C      3.952781136185    0.008073585239    0.118579788547
C      3.270694037147    1.207100945382    0.068917972473
H      3.738509891258   -2.158964378373    0.063040097818
H      3.804588127132    2.158933895093    0.098642632135
Cl     0.896755845412   -2.586370723109   -0.124099946429
Cl     5.691950315181   -0.012593531507    0.250077693513
