69

C     -0.524323658576    4.643410315370   -2.264153324576
H     -2.142285517616   -0.165710585335    0.407702081955
C      0.565322408296    5.010763809313   -1.354847644440
H      2.567964526100    3.673242207301   -0.545428940009
H      1.481097683575    5.340976271452   -1.851946326205
C      0.505760155923    5.215404225624    0.026131375927
H     -0.420462945677    5.080086600396    0.595348388111
C      1.545770571943    5.991899669740    0.769642505461
O      1.493663956366    6.209094519507    1.956789918206
O      2.539902119149    6.449696037104   -0.021545432986
Pd     1.194980429465    3.153418576697   -0.165097429889
C     -1.754809057831    2.660695218343    1.054692433855
O     -0.717565414530    2.244109738114    0.391865386960
O     -1.910397217741    3.800611486729    1.470775943352
C     -2.870816370701    1.608612430971    1.309090577759
H     -3.808616108188    2.163283501834    1.150739710156
N     -2.868446623007    0.538677843763    0.333689696256
C     -3.553284179034    0.632634683046   -0.851543161067
O     -4.313480856340    1.553777984052   -1.103000764756
O      0.086986048570    0.085002831089   -0.499337440081
H     -0.342585865232    0.971883229646   -0.169779566032
C     -0.227976744233    4.500520854185   -3.635750860172
C     -1.198025410771    4.145602115208   -4.576308075317
C     -2.523050260983    3.911914154757   -4.133463167328
C     -2.822216050660    4.064322799607   -2.769483423689
C     -1.851082863105    4.434330725370   -1.844220516852
H      0.799283226757    4.669996830541   -3.972818596049
H     -3.835430415348    3.858754426468   -2.417725336350
H     -2.124424722709    4.548651180050   -0.794971786224
C     -0.835914313708    4.007691523362   -6.034634479907
H     -1.032274749176    2.988164379633   -6.407983467008
H     -1.427916257911    4.691050591469   -6.666884397173
H      0.227583262641    4.228259992281   -6.206814467063
C     -3.600855384222    3.505802241864   -5.104802289673
H     -3.769687958967    4.282366851087   -5.871019183885
H     -3.329298394075    2.585456423397   -5.649460727241
H     -4.553661387990    3.323823101906   -4.588514964271
C      3.588767167031    7.186905674429    0.625152424714
H      3.145373092325    8.031028888334    1.177324206466
H      4.074233243777    6.536883435470    1.372243544136
C      4.562059718434    7.652360541454   -0.437984212993
H      4.062862683423    8.304406577653   -1.171417426329
H      5.382255472171    8.221608281671    0.026555539284
H      4.998518900980    6.797411095164   -0.977524789333
C     -3.308219312568   -0.521152861355   -1.811843638110
H     -3.758615659448   -1.447496632799   -1.418926363591
H     -3.771662080403   -0.282566120153   -2.776729768144
H     -2.229892053087   -0.699705522875   -1.947458728241
C     -2.842645053244    1.087250258463    2.751074468412
C     -3.138037083870   -0.254132292240    3.038882203570
C     -3.142971344690   -0.722544646429    4.357010559390
C     -2.856634571918    0.144293027635    5.413169150187
C     -2.571682601373    1.485494018680    5.138062822911
C     -2.566141974252    1.954869938812    3.822840469681
H     -3.384255760862   -0.940010066232    2.226437227138
H     -3.377215666983   -1.772046738895    4.555244292646
H     -2.859721308519   -0.220165963095    6.443726036585
H     -2.352517314249    2.177819512098    5.955303883522
H     -2.350729897218    3.004477783984    3.616838983874
N      2.076483878294    1.187139598239   -0.041951977714
C      1.381293604593    0.048148258447   -0.283930163082
C      2.036269038673   -1.206915526401   -0.321451549206
C      3.393432553950   -1.279429130922   -0.074073471250
C      4.102042101957   -0.100180544306    0.212647637783
C      3.406851710702    1.095161401410    0.212634348372
H      1.430342522486   -2.088672972358   -0.532850639995
H      3.904766216095   -2.245239395692   -0.093635006819
H      5.171964202901   -0.108203667022    0.423981856302
H      3.916532669212    2.036561844371    0.416546768726
