59

C     -0.848657369154    4.526688695936   -2.144924818040
H     -3.693239737729    2.000487935107    3.159097919287
C     -0.373506214960    4.752147232737   -0.774664543145
H      1.877755383403    3.231120012347   -1.462827104432
H     -1.150484703972    4.671302987145   -0.006042320081
C      0.840713309483    5.297136714088   -0.368068696590
H      1.594263116224    5.624254446402   -1.087088862619
C      0.964437948556    5.909080504998    0.992611680677
O      0.057907165046    6.106574685281    1.764695087846
O      2.244281032589    6.255802644063    1.240899957115
Pd     1.136515686928    3.130167453666   -0.132813276206
C     -0.999765114124    2.528369247005    1.871470593665
O     -1.418742869256    1.557186822838    1.200596275459
O      0.140080829170    3.065060112981    1.781364986772
C     -1.949366498891    3.172395661537    2.894592596052
H     -1.810665741019    4.260232750240    2.819814417927
N     -3.337767462529    2.824348291536    2.689582232359
C     -3.973583884617    3.219396778463    1.548432356597
O     -3.482220852516    4.032801035116    0.776080836947
O      0.014373899497    0.103988289862   -0.201215382738
H     -0.528693249394    0.826573094946    0.352514968719
C     -0.051684999729    4.724895976447   -3.291070282951
C     -0.550222456886    4.541705994149   -4.580419986987
C     -1.902898616160    4.142479990379   -4.746803497330
C     -2.695100374511    3.950487916755   -3.607838006462
C     -2.188095899852    4.135928335253   -2.321413728605
H      0.992836207561    5.024405683734   -3.175349505391
H     -3.738931189565    3.648733377806   -3.731704195789
H     -2.825517468298    3.995594059101   -1.444457429562
C      0.337411325517    4.762210281444   -5.780755459136
H      0.430825346162    3.847584687036   -6.390763326188
H     -0.065191578690    5.543533296058   -6.447743396928
H      1.349805609905    5.067668967912   -5.479363627230
C     -2.476746350021    3.929885915538   -6.123921867548
H     -2.416476497320    4.846517957726   -6.735521054801
H     -1.925601297935    3.150025341492   -6.677016006350
H     -3.532181554133    3.625893183265   -6.075652812619
C      2.505268548089    6.868960095824    2.513265239997
H      1.877438019107    7.769791402101    2.611439446723
H      2.197147417008    6.174926346327    3.312124852300
C      3.982219738580    7.197396485702    2.583642715036
H      4.272380161030    7.886518589781    1.775373095994
H      4.215020193049    7.677692933000    3.546881839566
H      4.594705576796    6.286640984102    2.496057416874
C     -5.324212564242    2.577519481164    1.289585396079
H     -5.809185712824    2.206397450891    2.204854517043
H     -5.977659677153    3.309451359618    0.796219928894
H     -5.182075372044    1.729783066049    0.599222350866
H     -1.641605903552    2.870406553000    3.907718381653
N      2.028344839062    1.225377252126    0.063951927229
C      1.310120526281    0.082046854660   -0.070541064220
C      1.982128880400   -1.169058030281   -0.104800174486
C      3.354868558044   -1.222775942716    0.036735171763
C      4.077056631623   -0.029186924674    0.216769087349
C      3.372183044588    1.160705795285    0.216882475084
H      1.369610323036   -2.062608751212   -0.230449269955
H      3.871532654504   -2.186063625644    0.017408040950
H      5.160553690933   -0.023568293105    0.341611447007
H      3.884852345255    2.118003095293    0.329172742687
