63

C     -0.837564415721    4.503879787822   -2.135799570985
H     -3.685332131148    1.997514811055    3.170636966645
C     -0.361931929805    4.741093786145   -0.767426092495
H      1.890771164682    3.215404508621   -1.440477357465
H     -1.138831329530    4.667734130309    0.001919471467
C      0.851866419593    5.290855565819   -0.366035005532
H      1.605427623939    5.611451860333   -1.087944024840
C      0.975778994132    5.914690800312    0.988988945312
O      0.069751114566    6.118405978090    1.760074281429
O      2.255678331085    6.264645592385    1.233605128151
Pd     1.145653414881    3.126059563094   -0.112074512015
C     -0.996490877448    2.534373404820    1.891586420497
O     -1.412597488508    1.557618215584    1.226949705536
O      0.141120547679    3.074882941236    1.799070914281
C     -1.949604629802    3.180812308215    2.910193928405
H     -1.815328769307    4.268724860788    2.829743840574
N     -3.336457650559    2.826334496568    2.704768493641
C     -3.971365148971    3.214427583518    1.560439273757
O     -3.484103678240    4.030410117159    0.788345253767
O      0.024439145318    0.112620614679   -0.179898956284
H     -0.524225720266    0.827332711998    0.378819913152
C     -0.040483868664    4.690871625197   -3.283652711347
C     -0.539211009431    4.496376061300   -4.571324527548
C     -1.892146513889    4.096935187247   -4.734152480103
C     -2.684452430943    3.916017315480   -3.593484742661
C     -2.177251126466    4.112673761058   -2.308784375533
H      1.004392967276    4.990121034052   -3.170574413024
H     -3.728488950183    3.613799232887   -3.714520380884
H     -2.814852019521    3.980373155097   -1.430697090917
C      0.348819418263    4.704845333198   -5.773549271787
H      0.441314894079    3.784535132084   -6.375113228161
H     -0.052726910785    5.480479986398   -6.447814481593
H      1.361525073587    5.011845615237   -5.474773681704
C     -2.466132704806    3.872017196925   -6.109318795308
H     -2.404667461836    4.782632064857   -6.729751571376
H     -1.916072730800    3.086077419952   -6.654874377267
H     -3.521982197681    3.569870824546   -6.058201550819
C      2.516950326080    6.887594901025    2.500870344292
H      1.888195551038    7.788440638899    2.593028796405
H      2.210491915232    6.199297212383    3.305341538378
C      3.993623814845    7.218285712577    2.567429047166
H      4.282130258774    7.901822538585    1.753816983470
H      4.226920685108    7.705839182150    3.526923889344
H      4.606972234455    6.307583212825    2.485682064779
C     -5.315738964285    2.560789943417    1.298197062505
H     -5.803043788765    2.192506773027    2.213400477629
H     -5.971732392825    3.284220477503    0.795821550592
H     -5.162876061089    1.709078173510    0.615038588765
H     -1.642317510328    2.885446019659    3.925432443956
N      2.039092555508    1.224044004470    0.103206634549
C      1.316102665976    0.097794472475   -0.030421341395
C      1.986884263700   -1.177838493168   -0.046123031706
C      3.361847175473   -1.223995837796    0.119836367299
C      4.076330108479   -0.021127240157    0.295020063860
C      3.387475568845    1.170669310973    0.276481976400
H      3.892439025877   -2.176594994343    0.125474259427
H      5.158361498188   -0.027580171217    0.433877970821
H      3.896084892570    2.128996787914    0.387482937889
O      1.175176603689   -2.241320194269   -0.212928127749
C      1.742681723445   -3.530293740155   -0.241858558201
H      2.254437180059   -3.775400034641    0.707097028807
H      0.913040055984   -4.233769624616   -0.391239009408
H      2.463269533949   -3.643427350734   -1.072630728493
