62

C     -0.574223146420    4.701619177750   -2.272360534280
H     -2.249603292999   -0.210004387738    0.414597552857
C      0.506488901317    5.065177182164   -1.351061309066
H      2.514608936842    3.729026276993   -0.518816531244
H      1.424990764293    5.404403009189   -1.836981005459
C      0.436002542521    5.250828241627    0.032039465710
H     -0.491324657718    5.099313179453    0.595893307179
C      1.468218102721    6.021433322825    0.792074994602
O      1.414248792146    6.215875929009    1.983055180914
O      2.459173576244    6.503622616192    0.010544161283
Pd     1.133759227506    3.193145560029   -0.188228813103
C     -1.837390543946    2.680943265781    0.937082685882
O     -0.793478541714    2.275180986444    0.272481203760
O     -1.966927491088    3.783583986810    1.445953668572
C     -2.987990073355    1.663670656437    1.080568818553
H     -3.919257227057    2.207773860419    0.876152232102
N     -2.937557387072    0.507632753460    0.217318533189
C     -3.524351215565    0.506762302934   -1.022663199479
O     -4.240481304870    1.415041175443   -1.412852872523
O      0.046963303458    0.110021617115   -0.567133700467
H     -0.402278744526    0.997649787780   -0.264901188124
C     -0.261352078469    4.540089172206   -3.638052069839
C     -1.219964739667    4.170734365158   -4.584875349533
C     -2.549933554699    3.942485284351   -4.154695634683
C     -2.866737386400    4.121660179982   -2.798174582260
C     -1.907197200936    4.505636300714   -1.867073828184
H      0.770581729465    4.702112219163   -3.964427428180
H     -3.885022296112    3.922561572509   -2.458400706657
H     -2.192031953327    4.637969207189   -0.822998459407
C     -0.839706071207    4.008578457430   -6.036104088650
H     -1.025625366332    2.981149147123   -6.392881589521
H     -1.428152481376    4.676548772912   -6.687803227018
H      0.224541568986    4.232281800162   -6.199651432292
C     -3.614370549414    3.511224814831   -5.129701947155
H     -3.792069633917    4.278857217748   -5.903113531979
H     -3.323390467272    2.591251092073   -5.664474796877
H     -4.565988148541    3.314760512010   -4.616791569612
C      3.501475902397    7.235477581605    0.672568740561
H      3.051397878726    8.063470526902    1.243501398543
H      3.993523917180    6.573783776392    1.405082445371
C      4.469958072856    7.732737775689   -0.380643536177
H      3.964304786819    8.396069823067   -1.099395653451
H      5.285546855079    8.299007905754    0.095569206283
H      4.913299685874    6.893635819088   -0.939148153075
C     -3.217441435311   -0.722673922376   -1.863717843424
H     -3.514984224413   -1.644475963565   -1.337991731834
H     -3.765600908659   -0.650516463497   -2.810723660928
H     -2.135519689950   -0.784485862563   -2.063602541075
H     -3.017115799515    1.351578352261    2.137951140086
N      2.021371735238    1.230010721986   -0.070329644012
C      1.338450591378    0.091168496780   -0.329694877794
C      2.011614763329   -1.154731824139   -0.360500194882
C      3.362995372515   -1.211859342944   -0.090349982512
C      4.076921327031   -0.033224155721    0.218068623904
C      3.350019856717    1.147639746843    0.206072064707
H      1.423089547390   -2.044334040349   -0.588166049454
H      3.880771520394   -2.175534320623   -0.107997630870
H      3.843472192493    2.095490755023    0.422183230354
C      5.549917561987   -0.053071503745    0.535725786453
H      5.932653581201    0.959090567263    0.732620180932
H      5.759956545168   -0.669173922305    1.426004872003
H      6.135048296635   -0.477386092421   -0.297124118800
