74

C     -0.850638055979    4.487704861789   -2.134988425898
H     -3.721522373679    1.958878632270    3.168679179854
C     -0.395424181723    4.705094727468   -0.756065367083
H      1.854337956801    3.191243445707   -1.436673185964
H     -1.182560828354    4.612038749526    0.000965306867
C      0.809028520397    5.256732807481   -0.331077157348
H      1.569446307836    5.591889302942   -1.039091582872
C      0.915368759681    5.862040734466    1.033484458030
O      0.003170704614    6.038025996345    1.804714656657
O      2.187590048696    6.231464437222    1.287866544136
Pd     1.116993918016    3.086642577841   -0.107573576905
C     -1.016173317397    2.472810294458    1.935102830236
O     -1.423186304959    1.463517227858    1.301436207201
O      0.112987188648    3.016441910845    1.811828263268
C     -1.970267309380    3.134290695328    2.948359131992
H     -1.860188005796    4.214383984900    2.771300206692
N     -3.353811676244    2.776136232826    2.696318744879
C     -3.968458426031    3.157195695013    1.540145978746
O     -3.464397399659    3.957924919751    0.761806981631
O      0.021393462365    0.057208097448   -0.059187643169
H     -0.560655046862    0.793156574273    0.511963288312
C     -0.039733662826    4.700673871028   -3.268600748239
C     -0.519228875237    4.524419382700   -4.566172924010
C     -1.866659937261    4.117413759701   -4.754517512271
C     -2.673002271759    3.911142067193   -3.628089341722
C     -2.184815468630    4.089720120681   -2.333361324697
H      1.000997334543    5.006522298548   -3.136476059484
H     -3.713035185240    3.603580413208   -3.768691890150
H     -2.832975417117    3.938559689913   -1.466195404199
C      0.383390114909    4.760349498287   -5.752309866277
H      0.491637270055    3.851078274730   -6.367817839529
H     -0.015463044386    5.543947574740   -6.418883159353
H      1.389345967567    5.070412622383   -5.434584087836
C     -2.419943515431    3.911861670922   -6.141098124503
H     -2.357364612140    4.833624031240   -6.744693853714
H     -1.855970824801    3.140034286528   -6.692524476211
H     -3.473900459368    3.600556300615   -6.109892966906
C      2.434323337146    6.844116126211    2.563064989809
H      1.784517207557    7.728620633427    2.666503262918
H      2.144280677368    6.138454801955    3.358593759072
C      3.902876334732    7.208154550008    2.634400383988
H      4.175190892880    7.908965414998    1.830003199868
H      4.124679193235    7.688346913031    3.600277732838
H      4.537336579700    6.313222595656    2.540823765424
C     -5.314701647501    2.511666525497    1.265344358850
H     -5.812975631489    2.145570400117    2.175413276410
H     -5.961706880963    3.239699871368    0.757805222973
H     -5.161663175265    1.660260206538    0.581926182344
C     -1.540587895672    2.841972880831    4.406003956326
H     -0.475574272160    3.124694103254    4.440556022413
C     -2.299721214390    3.728383556319    5.400730622021
H     -1.946243765557    3.554854375351    6.430030169679
H     -2.160745346736    4.795943578304    5.168843233005
H     -3.382255388302    3.521439721331    5.378402017098
C     -1.642764685651    1.354875359441    4.776783590464
H     -2.691896819880    1.014708962782    4.839767549236
H     -1.127351515128    0.710683767856    4.047985557829
H     -1.196021232177    1.172914654144    5.767081734041
N      2.022381632852    1.193816865400    0.081097702907
C      1.314447557329    0.057354532662    0.003140694344
C      1.998028750342   -1.223938196132   -0.045062864767
C      3.419559550311   -1.258897599525    0.025317245417
C      4.111457447255   -0.015382801645    0.145311851693
C      3.393124552131    1.146454382699    0.163866465396
C      1.265783396999   -2.429919103213   -0.152403146276
C      1.928123914169   -3.643758821614   -0.197462059087
C      3.339803984767   -3.684429385562   -0.131760925306
C      4.073122599813   -2.516956255268   -0.021070087867
H      0.177712774455   -2.372472032458   -0.199501689582
H      1.361680288552   -4.574295679121   -0.282266846446
H      3.854649913704   -4.648231447786   -0.167243656971
H      5.164463451227   -2.549677595577    0.031756429097
H      5.200407366374    0.011751522677    0.212700346415
H      3.889650379017    2.114936584610    0.238536570119
