72

C     -0.584310973895    4.629365608485   -2.178724991958
H     -2.063950394080   -0.362276998415    0.569931115509
C      0.503613808730    5.024194038135   -1.279578985397
H      2.567645035114    3.750009677535   -0.507094785463
H      1.399468959962    5.395472964950   -1.783994967339
C      0.458664721114    5.201636219795    0.105806042259
H     -0.451065633718    5.020851893029    0.689086635312
C      1.482233114416    6.002505295381    0.846345032771
O      1.445179511834    6.194098246142    2.038427328110
O      2.442868956568    6.514326304217    0.046484692188
Pd     1.216278681381    3.168445392325   -0.136395271724
C     -1.701050152317    2.555310737912    1.083536084843
O     -0.663777380914    2.185058194247    0.390057975721
O     -1.855389494836    3.659657047590    1.585176790754
C     -2.813088055334    1.495001500123    1.282361175979
H     -3.750933091850    2.019093572709    1.049940527751
N     -2.738721086531    0.369512221308    0.377913165473
C     -3.377868522388    0.358394208249   -0.834203569495
O     -4.116595309698    1.259880739423   -1.198656009539
O      0.220604736340    0.043990750263   -0.461157281177
H     -0.248951228271    0.919187403784   -0.148374508659
C     -0.299455796249    4.500868082422   -3.554144674170
C     -1.266350193195    4.109015677889   -4.483213276332
C     -2.575202315279    3.821791368171   -4.024296211788
C     -2.864462044360    3.965407482245   -2.657385152904
C     -1.897699741139    4.372831672404   -1.743932362802
H      0.716717407808    4.709030583824   -3.902996855485
H     -3.864431684608    3.718938207370   -2.295266620046
H     -2.161519549280    4.477167910646   -0.691199570389
C     -0.916694441205    3.984943148438   -5.945817616655
H     -1.073021732732    2.957177330289   -6.315506349576
H     -1.545808777597    4.640734622583   -6.571363418472
H      0.134008898858    4.251331708678   -6.131424771713
C     -3.646287456787    3.365726509655   -4.980521989366
H     -3.869050091241    4.136845938532   -5.738594034931
H     -3.335437273462    2.464099704409   -5.535079103408
H     -4.578237660038    3.128810796899   -4.448911399958
C      3.475581166144    7.277100944304    0.688990085180
H      3.011841593458    8.091799882117    1.268021635250
H      4.000263075153    6.630525302380    1.412228891127
C      4.409243316375    7.801917733988   -0.382071831752
H      3.871140212189    8.449665877028   -1.091405016968
H      5.216417015714    8.392226359616    0.079008022504
H      4.866873914314    6.975910229604   -0.948489962659
C     -3.097120163622   -0.872570676231   -1.682081338586
H     -3.434077154254   -1.785796798540   -1.165203088475
H     -3.632746127001   -0.776890704353   -2.634162779686
H     -2.015902943041   -0.969672194780   -1.870556184628
C     -2.835305108089    1.053544267734    2.763975627182
H     -1.887696278197    0.538069321738    2.999219323244
H     -2.851474507949    1.974911375999    3.365520727094
C     -4.005843047109    0.166637640570    3.124361560839
C     -5.297094763462    0.705959465972    3.249466693813
C     -3.840663077044   -1.211981811378    3.324751698753
C     -6.388104654397   -0.107669994276    3.562043069428
H     -5.447986057809    1.779516680135    3.102119695464
C     -4.929806475214   -2.031312696977    3.639128239894
H     -2.841445281587   -1.650464373098    3.241968196021
C     -6.208516323451   -1.481341740441    3.757425258466
H     -7.384050370409    0.333070332349    3.656906912299
H     -4.777089479400   -3.102756862846    3.794570052756
H     -7.061744903060   -2.118451815275    4.004163586260
N      2.172909487413    1.234441719504   -0.054546639317
C      1.519213686231    0.067762408879   -0.283711521781
C      2.227341211569   -1.158458318107   -0.346760487330
C      3.592424713408   -1.175093891274   -0.138792728587
C      4.258627074008    0.032145880721    0.133916005241
C      3.513518831101    1.196403232237    0.160435420358
H      1.653453095702   -2.063782375990   -0.547941053554
H      4.143322408290   -2.118275404846   -0.179400758851
H      5.333686185770    0.069113144745    0.313760873180
H      3.989063510843    2.157353988932    0.354677756383
