71

C     -0.547711668024    4.612262951057   -2.352538225067
H     -2.341078705138   -0.237866805197    0.474716626862
C      0.478755145147    5.003916081829   -1.381332517119
H      2.440501324085    3.693830160036   -0.518462892061
H      1.413759902837    5.352518241903   -1.827125951889
C      0.335743894840    5.216462938530   -0.007535372781
H     -0.621585670533    5.072191644871    0.506187980482
C      1.322344066587    6.008455375073    0.789271208951
O      1.208515126239    6.220132406312    1.973373939473
O      2.347369018679    6.487329927668    0.050593715346
Pd     1.069758745683    3.166716378596   -0.140047211236
C     -1.921128085691    2.683870375378    1.030781988622
O     -0.825608719750    2.260768332183    0.459878209254
O     -2.161826013565    3.849885302643    1.304164780691
C     -2.948372195419    1.582368897698    1.387546403083
H     -3.924466416726    2.088672393936    1.388520846232
N     -2.998881784612    0.529716370986    0.386031409589
C     -3.622571557485    0.700645774848   -0.820817766647
O     -4.286537502558    1.691508770674   -1.082542498368
O     -0.009873370022    0.045879743104   -0.228466959803
H     -0.442518530902    0.961288143221    0.034828831263
C     -0.174415938643    4.516080249940   -3.709557924861
C     -1.079852556813    4.153361521765   -4.709414319495
C     -2.416802814228    3.860909922040   -4.343931993549
C     -2.791150080638    3.959556503753   -2.993845920513
C     -1.884498209289    4.338651467772   -2.008153893193
H      0.861831006996    4.732452198357   -3.987156580469
H     -3.810850557042    3.705181486691   -2.696890289453
H     -2.217974332926    4.409459665463   -0.972482064487
C     -0.636983448399    4.069886770461   -6.149562569837
H     -0.780362188171    3.056478361651   -6.561774503412
H     -1.216016566006    4.753496534163   -6.793590483488
H      0.426536224488    4.327957221198   -6.257919030340
C     -3.426963975946    3.449436545271   -5.383732057734
H     -3.568899336273    4.236114376651   -6.144966664192
H     -3.104075602524    2.545281810690   -5.927932194151
H     -4.404498637746    3.238776948191   -4.927865624042
C      3.349051863972    7.238619944287    0.752395010548
H      2.864099981050    8.071502744116    1.286479590446
H      3.808796629186    6.592893358139    1.519291980477
C      4.365448257550    7.728016631811   -0.258511284159
H      3.891341422621    8.375207694540   -1.012620779878
H      5.151073717837    8.309230416432    0.249049990322
H      4.843708064525    6.884353107724   -0.780123916403
C     -3.421163654524   -0.443363913671   -1.804004154677
H     -3.738804234657   -1.403870588031   -1.367399532310
H     -4.007552508590   -0.241870132268   -2.708418820097
H     -2.354724287455   -0.531890189915   -2.068005764198
C     -2.676837585674    0.980006401426    2.791047109784
H     -1.720088431859    0.425915418789    2.718925200837
C     -2.513731655232    2.057906378487    3.870288618340
H     -2.346461206374    1.587081207192    4.852219457217
H     -1.670424097994    2.733155655369    3.668730686437
H     -3.419490845715    2.681743433334    3.943016536229
C     -3.780626174179   -0.012108336293    3.182786827985
H     -4.747776963798    0.507499614391    3.288659193600
H     -3.910992171260   -0.805572312175    2.432228145043
H     -3.549674666871   -0.490097371494    4.148240087660
N      1.978784072840    1.214042220195    0.026494852422
C      1.294891683009    0.049869933632   -0.100409486187
C      1.970982507131   -1.194875564928   -0.106845043574
C      3.346231123661   -1.260788180305    0.046461337994
C      4.036486862596   -0.037698298878    0.209653498179
C      3.326616067328    1.144774323486    0.189497609140
H      1.360060852230   -2.091535624605   -0.223419615416
H      5.119607937446   -0.012869769953    0.343723140565
H      3.839150902887    2.099574572015    0.302547664295
C      4.085718783450   -2.571168281980    0.049290743088
H      4.637096431659   -2.706526990417    0.994372851510
H      3.405370055558   -3.424777206126   -0.078149769348
H      4.831138085812   -2.599601122371   -0.762655304021
