65

C     -0.907795796045    4.566848851166   -2.163509562777
H     -3.642055733829    1.839866177980    3.080926517534
C     -0.385301335750    4.804590241992   -0.812197229241
H      1.869534388244    3.286361741379   -1.531475240627
H     -1.133425851272    4.733650967656   -0.014964301168
C      0.844041047700    5.351009968353   -0.456459608480
H      1.571328947673    5.667577184288   -1.206556066206
C      1.028080087119    5.966183717228    0.895332878109
O      0.154433269323    6.187241830349    1.697529754071
O      2.325746640695    6.281319760332    1.099589967781
Pd     1.139391587013    3.189807359645   -0.196411744850
C     -0.978017083180    2.526302720847    1.797339770367
O     -1.370668268167    1.571601138438    1.085396139713
O      0.135887572350    3.113027912870    1.716025901740
C     -1.934694173786    3.075058001925    2.868136440062
H     -1.830842877391    4.169131484651    2.862019676190
N     -3.314293673223    2.698550650683    2.655818769793
C     -3.973712265469    3.143703763156    1.546667762185
O     -3.511224338218    4.013592917524    0.819666202451
O      0.058428384672    0.217082159199   -0.403619172021
H     -0.491086843434    0.909483635194    0.193349668675
C     -0.146880489149    4.745178279335   -3.336994685943
C     -0.688197352813    4.551048153265   -4.607536949368
C     -2.048426324867    4.161177934404   -4.725625439154
C     -2.804441061704    3.988007172222   -3.559343103204
C     -2.254753540841    4.183659036131   -2.292081351518
H      0.903197689441    5.037319531127   -3.258880272690
H     -3.853901029812    3.692734357435   -3.645814929349
H     -2.864799843878    4.055083747387   -1.394019534656
C      0.162197660373    4.750350501600   -5.838164437014
H      0.228136023794    3.828259036400   -6.440458413205
H     -0.254967643744    5.527822886601   -6.500714773433
H      1.186355616973    5.050008671539   -5.572916182064
C     -2.668382682145    3.937873785096   -6.080967126054
H     -2.620773249856    4.846991468318   -6.704793512163
H     -2.141854573753    3.147209385217   -6.642672514820
H     -3.724126398017    3.643310484161   -5.995022722133
C      2.641840415796    6.899035936817    2.357490008936
H      2.036309340300    7.813450717268    2.468370509684
H      2.346509988720    6.218472388059    3.172588200532
C      4.126605997812    7.197917540873    2.376381959981
H      4.404380264946    7.872251363383    1.551469363624
H      4.399997562298    7.683450355345    3.326211750031
H      4.718071637861    6.274101561787    2.280386293917
C     -5.310768571025    2.483597140547    1.264175335949
H     -5.773710657626    2.043094548349    2.159860795645
H     -5.989397613786    3.227516278014    0.825764948131
H     -5.156581655035    1.685009883595    0.519916081716
H     -1.605936832271    2.718142240302    3.856513575273
N      2.062872667418    1.288704802391    0.002028916882
C      1.350082479767    0.185125561709   -0.252092871498
C      1.999750278286   -1.090080421132   -0.396314328114
C      3.347802304594   -1.194240325677   -0.216197395404
C      4.114757703002   -0.038772739603    0.121737057848
C      3.423507831791    1.207093781494    0.223980798974
C      5.512935298973   -0.083794382843    0.348334282119
C      6.215512546707    1.062038592259    0.669574337627
C      5.530059472141    2.292825816311    0.773529228053
C      4.165669057991    2.367889237123    0.555809289242
H      1.365669822993   -1.944806010644   -0.633825943081
H      3.851425357804   -2.159940169047   -0.315389201640
H      6.025653659170   -1.045921387435    0.263890753259
H      7.293086110724    1.019275868183    0.843687754066
H      6.082439349765    3.200171545422    1.030720126179
H      3.637724553090    3.320657559711    0.642334422379
