65

C     -1.415513504663    4.409163643904    1.642421703442
H     -0.329015084345    4.577522380479   -4.460750407846
C     -0.299891274125    4.823768115972    0.782323019043
H     -0.581329844099    5.097455713686   -0.236924840423
H      1.584720254955    2.848892594983    1.778617806273
C      1.001775176116    5.109754848096    1.181209423625
H      1.294582286229    5.069678582786    2.231128401391
C      1.999336292334    5.851952467350    0.354720395864
O      3.132686822390    6.061952735286    0.724758903422
O      1.504733146740    6.274284898144   -0.825920589188
Pd     1.081806078583    3.055028146477    0.358030649227
C     -0.613524114824    2.599491363086   -2.097100080581
O     -1.069807421226    1.561301855775   -1.562151124783
O      0.350022838334    3.303576887346   -1.690217534210
C     -1.319155121875    3.027483966915   -3.395186189774
H     -2.395146963244    2.869630801046   -3.236348540687
N     -1.077911665822    4.390640507849   -3.806563672891
C     -1.604987837991    5.429836369872   -3.099636325162
O     -2.380544017507    5.255500122753   -2.168911494696
O      0.045221011822    0.042055271516    0.011329492055
H     -0.410738041237    0.802997746703   -0.585504443049
C     -2.695205905876    4.320570890881    1.059197209597
C     -3.823136081675    3.954223127574    1.801327787876
C     -3.676047983945    3.662607085006    3.177606133868
C     -2.398444509398    3.752001961907    3.757063009606
C     -1.281637707092    4.116639592740    3.012693790360
H     -2.801223773923    4.550197907009   -0.004540787325
H     -2.282083487746    3.525626224346    4.820660162119
H     -0.305352722272    4.165776186617    3.499439948263
C     -5.172944467017    3.870708556871    1.132358718301
H     -5.598038030649    2.854959500726    1.204076405491
H     -5.903519910429    4.550798124671    1.603002593699
H     -5.103870937409    4.132676720511    0.067303645946
C     -4.864513281902    3.259384568727    4.011817582390
H     -5.644661198515    4.039839354916    4.009956841897
H     -5.340317402733    2.343717863610    3.620899650615
H     -4.578388326616    3.070732620183    5.056589839096
C      2.427744130870    6.864525364188   -1.757469254531
H      1.826319493652    7.576286742829   -2.341774575471
H      3.195573605445    7.419242371840   -1.199326558813
C      3.048092393673    5.803656149083   -2.651896673721
H      2.264073395408    5.199962222515   -3.133273038987
H      3.667674580745    6.278305911502   -3.429823524833
H      3.690457677246    5.127720987474   -2.067808316110
C     -1.180305682255    6.821367339499   -3.532054942748
H     -2.077791972536    7.449004899219   -3.628816475606
H     -0.561836551032    7.254595173929   -2.731045318231
H     -0.616507873494    6.841958761749   -4.476304656609
H     -1.002156991104    2.342651537302   -4.197063817267
N      2.028344010089    1.201890101389   -0.001076330688
C      1.345701693573    0.051107999814    0.010940661351
C      2.043783423515   -1.217610801510    0.044416636199
C      3.468147032773   -1.222680804913    0.031384083058
C      4.139615828978    0.036412043177   -0.024654628018
C      3.401587652946    1.186576201084   -0.035520638576
C      1.330346761743   -2.439557571794    0.081307945758
C      2.014962463289   -3.640802510734    0.116640665359
C      3.429146275257   -3.652645008516    0.109793097680
C      4.143810598781   -2.469492704849    0.065917763346
H      0.240243232113   -2.404720006764    0.082593127624
H      1.464758443775   -4.584255649236    0.147595998786
H      3.960780774504   -4.607499616559    0.137202994020
H      5.236739645808   -2.480857715706    0.057707266587
H      5.229628882005    0.084752415957   -0.048175717106
H      3.879986391983    2.166874955702   -0.058891366399
