65

C     -0.542951740173    4.630801400697   -2.285751788742
H     -2.301595850065   -0.236670363619    0.548703254767
C      0.511911162637    5.011267301633   -1.341430560276
H      2.490214346699    3.693187747798   -0.461229351335
H      1.441657086096    5.344686097915   -1.809535470903
C      0.404789199943    5.225483818555    0.035156427220
H     -0.537974836944    5.087674122305    0.576482510529
C      1.417297606351    6.011071706753    0.806337146448
O      1.330253526961    6.231825932905    1.990812566431
O      2.431163225508    6.473970094051    0.042804229800
Pd     1.109839058708    3.165382920580   -0.120271640331
C     -1.869525771012    2.683768569830    1.019987918065
O     -0.816276999098    2.259163918640    0.380217687355
O     -2.025567551258    3.820338538842    1.440671482505
C     -2.986907248794    1.640513976879    1.270286737644
H     -3.925086992749    2.179717644750    1.080032323560
N     -2.960665822575    0.511011959536    0.360892165887
C     -3.539462780497    0.561842811213   -0.879658924234
O     -4.224414890497    1.503020644603   -1.248881440810
O      0.032192025083    0.060029334501   -0.332879584472
H     -0.417173923204    0.965465996284   -0.070111376956
C     -0.198372134528    4.487237903710   -3.645953135190
C     -1.131742225303    4.118614386229   -4.617772503837
C     -2.468107887366    3.870653249711   -4.219282390476
C     -2.815165460515    4.023579126313   -2.866961554932
C     -1.880549289432    4.407773627815   -1.910533356704
H      0.837895579819    4.667251388205   -3.948256526428
H     -3.836263586518    3.804854522235   -2.548408783806
H     -2.190133393307    4.521221920358   -0.871326021823
C     -0.718689667468    3.980299288507   -6.062508724532
H     -0.890985385778    2.957539393216   -6.438974546778
H     -1.296214517515    4.655092255348   -6.717021768489
H      0.347602008543    4.212155204529   -6.199136831640
C     -3.507113512569    3.447116793874   -5.224933211345
H     -3.659899935363    4.218172981814   -6.000088395365
H     -3.205874494242    2.527786070593   -5.755550760680
H     -4.474290056851    3.254768532660   -4.740108409849
C      3.456115462812    7.218415417901    0.718036988904
H      2.992054933635    8.060351349765    1.256462164006
H      3.924547753008    6.572492267236    1.479479912507
C      4.456347307197    7.689109466895   -0.317525868834
H      3.973926513043    8.336979519899   -1.065755269020
H      5.259339321578    8.264246223122    0.169337347428
H      4.913439389529    6.836411940301   -0.843378168031
C     -3.254655092907   -0.643781214604   -1.762290097488
H     -3.433697107335   -1.589579070760   -1.226605358190
H     -3.898043558754   -0.594757930246   -2.649111224376
H     -2.198115487634   -0.630745135590   -2.076046806894
C     -2.947184523798    1.179997437206    2.731040686367
H     -3.799534787573    0.519443785395    2.951881959159
H     -2.015121822017    0.631019597990    2.949420509075
H     -2.989631507328    2.052809529569    3.397539201086
N      2.009166594284    1.208503086751    0.057461274487
C      1.330984073189    0.053254054707   -0.135424925121
C      1.990161987421   -1.212984408125   -0.142589845385
C      3.355318358163   -1.231954336679    0.093515413143
C      4.051792703663   -0.034987091359    0.330209791256
C      3.345381808937    1.150344389932    0.298301238257
H      3.886156863757   -2.188155446729    0.101550891465
H      5.124573176997   -0.026456895789    0.527148384648
H      3.842381696883    2.105537645053    0.462632410805
C      1.177371242168   -2.453012054981   -0.387619662241
H      0.387099025070   -2.565306058884    0.372657535502
H      0.665229505320   -2.406770110712   -1.362476531391
H      1.811169127926   -3.351084369728   -0.367564679623
