72

C     -1.408341724022    4.414526448563    1.529308997996
H     -0.314383195079    4.241801240668   -4.298325302789
C     -0.230406126029    4.865648493168    0.777844667175
H     -0.434999501379    5.216609359219   -0.235803478607
H      1.779227499549    2.909183124153    1.697402859002
C      1.041924958490    5.104499121004    1.288311972033
H      1.247357499262    5.002392199833    2.354339618522
C      2.089655959610    5.920565930731    0.607017603041
O      3.130179483096    6.229363127244    1.142486006746
O      1.753291385245    6.297254622715   -0.643720550324
Pd     1.143717444846    3.107153251274    0.328524887906
C     -0.736332077267    2.542493528110   -1.961307489689
O     -1.112932602899    1.512984610039   -1.355907671692
O      0.230728375713    3.293594616680   -1.645167556263
C     -1.561929432619    2.928359194568   -3.209860501612
H     -2.590414842125    3.048861905187   -2.838175688856
N     -1.173412382357    4.211262297834   -3.762156418160
C     -1.596355097450    5.382481318645   -3.203493801365
O     -2.463386636823    5.432991408775   -2.340523495687
O      0.185428741931    0.072341818478    0.200284955581
H     -0.344856517669    0.776823274899   -0.368713965828
C     -2.654552858105    4.435581411822    0.872546659566
C     -3.835589264516    4.045995797920    1.513124500649
C     -3.777935490614    3.613639465005    2.858585782374
C     -2.533028151427    3.591804416957    3.511049686262
C     -1.363146290526    3.982670339512    2.868344700101
H     -2.696641896273    4.770098598416   -0.167975840522
H     -2.485407553450    3.254818123355    4.550352620257
H     -0.414785715641    3.940974060335    3.408138882836
C     -5.145710354096    4.085325336322    0.765751760395
H     -5.611614871598    3.086377482364    0.713809663626
H     -5.876910580915    4.747465374447    1.260501462356
H     -5.003024906548    4.445990564032   -0.262568200027
C     -5.025619671342    3.178017565149    3.582640992067
H     -5.778060503534    3.984541839434    3.615117115343
H     -5.507540086225    2.323529610596    3.077387559954
H     -4.807223637868    2.877854548473    4.617650526323
C      2.723675953918    7.062001145660   -1.380465533964
H      2.133819854448    7.624200554696   -2.119038536181
H      3.211481858143    7.772297272867   -0.696781087069
C      3.749652557744    6.169716601149   -2.059597475203
H      3.259356811908    5.433108668705   -2.714695004726
H      4.430446937430    6.782131881302   -2.672702155787
H      4.353659951349    5.634104129474   -1.312413299983
C     -0.907740358195    6.637605675243   -3.711302530241
H     -1.642384856637    7.452928066274   -3.754750740001
H     -0.132543501036    6.922496782913   -2.981548311073
H     -0.437148422150    6.508800431356   -4.697426281595
C     -1.560951709174    1.795736886326   -4.264516872422
H     -1.861666743164    0.897404551962   -3.702117343826
C     -2.598254066351    2.051982287072   -5.363170499436
H     -2.631372833663    1.212331562415   -6.076096446397
H     -3.607748205433    2.174814957562   -4.939410546898
H     -2.363220690203    2.967405095670   -5.930371256385
C     -0.167570756599    1.530978257578   -4.852137611994
H      0.200538576910    2.385417739270   -5.447498174310
H      0.575787038021    1.318676537599   -4.067457884038
H     -0.192529346646    0.662842137861   -5.529835091470
N      2.120026502916    1.289802564070   -0.127350796045
C      1.473438257186    0.119062372965    0.003295651236
C      2.211688789342   -1.114255613161   -0.052946999290
C      3.577837964651   -1.071675768245   -0.288473765494
C      4.210625950997    0.175711357632   -0.463645701299
C      3.456847473066    1.325047197899   -0.372797365831
H      4.162401264858   -1.990029064055   -0.350715533582
H      5.282590306331    0.236807552319   -0.656625958680
H      3.901493116011    2.315529471263   -0.476542460298
O      1.472434250898   -2.227063623109    0.120025170846
C      2.113519088337   -3.481812107524    0.084303769493
H      2.879592353028   -3.573571860776    0.875839682837
H      1.333451830797   -4.235572371087    0.253234982671
H      2.589789789321   -3.671303860452   -0.895195754769
