74

C     -1.420170028532    4.440364573268    1.625983636886
H     -0.335256803348    4.577873748995   -4.353818074702
C     -0.323112827371    4.844997086944    0.737807421346
H     -0.624148682420    5.095279576456   -0.281621969978
H      1.555829558006    2.896533372990    1.756048624396
C      0.983484153864    5.149038913070    1.109088643575
H      1.291637186458    5.131642520469    2.155135155604
C      1.961521473080    5.888989435289    0.258426812911
O      3.094744565536    6.123795362139    0.614456580953
O      1.452882845910    6.281051631849   -0.926429732985
Pd     1.059075602722    3.080683705557    0.328300135578
C     -0.653015178330    2.602680295251   -2.072220539241
O     -1.165076152175    1.669909497049   -1.412481967269
O      0.359932853828    3.283970693874   -1.735670268117
C     -1.332801534465    2.949526479874   -3.418522691822
H     -2.408272772986    2.814107475136   -3.232552116600
N     -1.132185327958    4.343771171285   -3.775444503733
C     -1.723247659834    5.346498023616   -3.069125616049
O     -2.536770246074    5.132440312339   -2.178806439475
O     -0.027501873488    0.057391270763    0.118995607103
H     -0.471922649811    0.832523842848   -0.416241257648
C     -2.704930141966    4.305777020855    1.063260344141
C     -3.815170323474    3.942539658133    1.832943357973
C     -3.644655350067    3.702772888299    3.216428201350
C     -2.362029088156    3.839046610562    3.775581368431
C     -1.262680700889    4.199562678499    3.003899602794
H     -2.830227635265    4.493791139070   -0.006420081437
H     -2.227760902547    3.653590571598    4.844994196954
H     -0.281847645118    4.286960714472    3.475921861664
C     -5.170651717325    3.806870271699    1.184380075034
H     -5.571672228648    2.784895052935    1.295650584603
H     -5.910681220485    4.486304748176    1.641059913521
H     -5.119403383165    4.033559427937    0.110322763894
C     -4.813685863374    3.304466568032    4.079883707260
H     -5.610787110397    4.067333111920    4.060088518503
H     -5.273906375690    2.365354887302    3.727864572039
H     -4.510877891710    3.159633709805    5.126975101173
C      2.362161371399    6.878636116656   -1.867610319269
H      1.731174850242    7.520996845258   -2.498813760210
H      3.080434589028    7.507809680810   -1.322117088159
C      3.071371804781    5.819074718060   -2.695034583013
H      2.340706528430    5.142595453388   -3.163485227299
H      3.676750507534    6.296656370458   -3.482276269856
H      3.743098303485    5.217794743376   -2.064518161900
C     -1.312584155607    6.760114301663   -3.443601303874
H     -2.216367539098    7.381780983089   -3.513374666299
H     -0.694434334060    7.165882333922   -2.627677105540
H     -0.751131302772    6.823277099123   -4.387530135545
C     -0.923909981095    1.994566821425   -4.590913217803
C     -1.280960592918    0.539377739047   -4.231249849504
H     -1.053296717460   -0.120537186112   -5.084230795919
H     -0.724655697106    0.179815008264   -3.355653591237
H     -2.352610980092    0.438566188685   -3.998831144397
C     -1.719517749875    2.389153049695   -5.851917525316
H     -2.804261779228    2.326997795791   -5.668645262885
H     -1.496990841179    3.414840722531   -6.182213903246
H     -1.478573471779    1.707480895311   -6.683604158142
C      0.587807432387    2.083067065014   -4.881537177828
H      0.901245960996    3.093752477826   -5.194287378244
H      1.187877362222    1.808510333634   -4.001001061921
H      0.856441177051    1.400419118402   -5.703708909593
N      1.977006168380    1.204491250745   -0.002146174518
C      1.278880407708    0.047371695822    0.063724679258
C      1.959891048252   -1.194776338857    0.094905133832
C      3.343434447248   -1.251467153498    0.023988671429
C      4.041583541764   -0.026155822130   -0.086846357570
C      3.327856110905    1.155446265415   -0.090003569369
H      1.347447264406   -2.095492629423    0.160418023699
H      5.130726867660    0.000375825426   -0.155870865684
H      3.836985109416    2.119535860287   -0.148651521555
C      4.086961466935   -2.560117190115    0.052126887435
H      4.773861046971   -2.599673220354    0.913848471836
H      3.401953458395   -3.416888535832    0.119647425303
H      4.703233766838   -2.680853916970   -0.854088987103
