71

C     -0.861874683113    4.499742320565   -2.189815859445
H     -3.783017126581    2.055735647338    3.313296132589
C     -0.420369587130    4.673236036721   -0.800149325775
H      1.880393255184    3.259268228335   -1.523446409446
H     -1.208099947521    4.525458858373   -0.052594068267
C      0.765519785835    5.240708742571   -0.346652396206
H      1.518035394363    5.628825387089   -1.035447566291
C      0.859545105031    5.779374310049    1.045185394179
O     -0.040902301444    5.832107756845    1.850616012551
O      2.100861194348    6.242561769404    1.286999073684
Pd     1.123095457620    3.059824973828   -0.228964354205
C     -1.042317596714    2.360325410035    1.940832894741
O     -1.510298583178    1.285272261571    1.401537015874
O      0.071868147763    2.845363651751    1.707199843308
C     -1.949876441431    3.074252042595    2.947781914420
H     -1.790427050210    4.142284465350    2.735327013598
N     -3.350517862900    2.766052158280    2.735476514237
C     -3.967454502807    3.115834714581    1.570001306763
O     -3.407936971646    3.800120231642    0.722244980419
O      0.063353216266    0.181357716945   -0.150110371573
H     -0.819938949007    0.850067590885    0.724959569047
C     -0.052672347567    4.787077723189   -3.308142537443
C     -0.517092710993    4.643715454993   -4.615320108033
C     -1.847083957077    4.194404540061   -4.829670058027
C     -2.652283119472    3.914601874806   -3.718282348839
C     -2.178924073952    4.060711453997   -2.414260521960
H      0.974702896126    5.127530359475   -3.156957197653
H     -3.678793728365    3.573387876493   -3.878785729557
H     -2.826256154149    3.850630400313   -1.559223961724
C      0.383579039172    4.958489242252   -5.784327466924
H      0.530409675849    4.077588186273   -6.432102700605
H     -0.040968606211    5.750633330317   -6.424287435804
H      1.374842340095    5.294460808208   -5.447514541456
C     -2.383196185421    4.021745109286   -6.227269939220
H     -2.351226441617    4.967711207618   -6.794645953825
H     -1.786657885997    3.293349941018   -6.802834145175
H     -3.424758499841    3.670103513923   -6.216555614465
C      2.338755881064    6.808540235446    2.586025618106
H      1.616727751757    7.623611289561    2.757609625154
H      2.141979074245    6.038759545628    3.350159715441
C      3.770908325587    7.299080561450    2.630513625279
H      3.949842592849    8.064079057415    1.859229707348
H      3.984753883796    7.744486773833    3.614606141918
H      4.477890589688    6.471487140690    2.465647601551
C     -5.376231096950    2.588194627142    1.377559899112
H     -5.859889651243    2.284051866481    2.317477246652
H     -5.980494361833    3.363147200792    0.886582476222
H     -5.336253095093    1.717740691340    0.702653438423
C     -1.494578302451    2.808251387973    4.404694351266
H     -0.418406340390    3.048134548479    4.405431911247
C     -2.190175231136    3.764301052318    5.381403238646
H     -1.814215358591    3.615014487888    6.406066844439
H     -2.013468819503    4.814872134245    5.103300404916
H     -3.280369950398    3.602176911693    5.398807471703
C     -1.650066211210    1.341347888109    4.831667913422
H     -2.709980958357    1.043270272182    4.918075612996
H     -1.166671589347    0.648567519744    4.126032467242
H     -1.199073647726    1.182152206532    5.823615422519
N      2.110441428048    1.220389823905   -0.102600381117
C      1.320594358658    0.087829314711   -0.100295412489
C      1.990642141938   -1.185547228845   -0.057562471153
C      3.359623428574   -1.264544869094   -0.006147367423
C      4.128383491826   -0.074769120126    0.002742914582
C      3.453969107999    1.132182898878   -0.053961822227
H      1.357791427535   -2.073959923432   -0.067400159722
H      3.857534198176   -2.237307066543    0.027070625294
H      4.004466320618    2.073908741567   -0.065873974973
C      5.622690922177   -0.135697441541    0.070069189399
F      6.052395216870   -0.712296682398    1.213025236709
F      6.140647991180   -0.870703132193   -0.936376162569
F      6.187575488291    1.084021066548    0.005448178225
