55

C      1.993624906792    3.307149879563   -2.326167038787
H      2.840955992902    2.618953547018   -2.377681651595
H      2.194350643816    4.380233378972   -2.296934869982
C      0.725834941259    2.841725324253   -2.589992844875
H     -0.105839723220    3.534979201993   -2.738592129614
C      0.476382560059    1.401595891842   -2.941485866315
O      1.343376948045    0.564424784271   -3.034166762483
O     -0.824482361242    1.189279925677   -3.135616294625
Pd     0.933106245346    3.028554128314   -0.363249731626
C     -0.076248729837    5.526157506507    0.488494278742
O      0.103779530381    4.823995794529   -0.612952597184
O     -0.492011938920    6.663495727266    0.494939118545
C      0.319330339753    4.805544053342    1.797612870766
H     -0.418398567001    5.112418408129    2.549564420296
N      0.242225057835    3.353368791374    1.556607433736
C     -0.420054541700    2.559579404215    2.350817438542
O     -0.690870734328    1.319140839658    2.080660595441
O     -0.041929249673    0.148724846862   -0.036085813538
H     -0.452877989628    0.956640712301    1.138434950420
C     -1.243543023964   -0.175338908796   -3.356015585514
H     -0.628245281843   -0.607482938359   -4.160532797467
H     -1.038643482936   -0.736422286423   -2.430713815116
C     -2.716906749495   -0.162168512157   -3.700927498619
H     -2.905696415170    0.418069345137   -4.617342106902
H     -3.068403508029   -1.192384956410   -3.866441247145
H     -3.309381217124    0.276386601132   -2.883664434517
C     -0.971242514354    3.002807358223    3.685324404846
H     -1.202149796551    2.108984853619    4.277445012290
H     -0.269711357740    3.642305398725    4.236404786619
H     -1.906783467177    3.566532907574    3.537006270838
C      1.730200445865    5.210154294884    2.277525088245
H      1.939226761407    4.639726793090    3.201475225679
H      2.463106240782    4.854563898294    1.531027912784
C      1.968372628600    6.708889619885    2.543839280132
H      1.835993200333    7.246097724352    1.589349398487
C      3.413755744195    6.922510539293    3.012618044648
H      4.140884390695    6.519998786522    2.288346742616
H      3.631938943655    7.994095417544    3.144562228701
H      3.597673866388    6.424057642272    3.980314862221
C      0.964440142087    7.301566435770    3.541298932220
H      1.225975221745    8.344647788926    3.780797748045
H     -0.053747731513    7.310277405432    3.125164689385
H      0.958728519975    6.737826042668    4.491548317977
N      1.948542743995    1.251187688615   -0.042681452214
C      1.215068740974    0.074859886782   -0.030313501116
C      1.941287548710   -1.165363215594    0.011363845591
C      3.309924107041   -1.180529537281    0.094160742990
C      3.996958043058    0.053198567628    0.128055506486
C      3.285736805684    1.237769780285    0.047680324344
H      1.352245758082   -2.082787871930   -0.007810131745
H      3.881851651538   -2.107895753590    0.141276351477
H      3.818729591273    2.190176968045    0.052010679756
N      5.449188013396    0.099493256830    0.228880633419
O      5.986353948246    1.200072593238    0.244857675206
O      6.042210529492   -0.967398608093    0.292283647661
