62

C      1.976284548495    3.245770313929   -2.332134505688
H      2.820419717755    2.555709946326   -2.397025455942
H      2.181298748864    4.318281665367   -2.311303309091
C      0.700242899625    2.784310160701   -2.558091758678
H     -0.134215967786    3.478786869758   -2.681896380544
C      0.441202443950    1.350314811748   -2.922856852510
O      1.301486154430    0.513599016665   -3.063642324510
O     -0.866373338596    1.141096039687   -3.088478779348
Pd     0.965196661010    2.991706515379   -0.339017402076
C     -0.165946980821    5.456832392519    0.499995267755
O      0.048879294031    4.757473191478   -0.594923475822
O     -0.685206339809    6.551563350955    0.507021352680
C      0.342795479683    4.787063902097    1.802538543929
H     -0.339317170972    5.097267369986    2.606511476242
N      0.283467292121    3.332245513598    1.586351516923
C     -0.449348204993    2.549348590696    2.329649535187
O     -0.714049478370    1.313502656821    2.039478749224
O      0.027343327846    0.175773076961   -0.041377912852
H     -0.412370722204    0.946419228155    1.107214801061
C     -1.281822229086   -0.214976271562   -3.346145687804
H     -0.735580390375   -0.590924168687   -4.226029498382
H     -0.985661513538   -0.826748887438   -2.480035997801
C     -2.780427475561   -0.212486792420   -3.558422357081
H     -3.059037946392    0.419229030995   -4.416101325283
H     -3.130364661279   -1.237517294192   -3.756894881023
H     -3.303421537294    0.163974312463   -2.666147448950
C     -1.097192178296    2.998592506988    3.619646153856
H     -1.442807039100    2.108657480380    4.159045323218
H     -0.408379708386    3.571770052722    4.252934626876
H     -1.971416826764    3.633545638104    3.402597513568
C      1.772672781999    5.285651644156    2.162095936729
H      2.402646818130    5.118297023356    1.268278737492
C      1.775067454531    6.788926947034    2.469341519800
H      2.804214453262    7.139092814286    2.647496042377
H      1.338706045994    7.379445081053    1.652797056527
H      1.189362748650    7.001901166724    3.379922927796
C      2.383314229977    4.489160180410    3.320789549931
H      1.807470467298    4.635836284237    4.250756454489
H      2.425815831557    3.411286010183    3.105839466298
H      3.411550961825    4.830681226241    3.519173354848
N      2.024681476839    1.235249198049   -0.014796428933
C      1.292149337547    0.106891429643   -0.030352360693
C      1.972013154891   -1.195395429151   -0.026767183503
C      3.384752852710   -1.263609786816    0.015970279475
C      4.136139254864   -0.014459711202    0.094414902697
C      3.411853859935    1.212958783402    0.084340386767
C      1.196572572641   -2.370750935553   -0.064029464947
C      1.809727531581   -3.614413784776   -0.077994716186
C      3.213800148228   -3.694470601214   -0.050691206209
C      3.986785234717   -2.542597188116   -0.002050961200
C      5.543419052145    0.034783578984    0.191309804231
C      6.230449676973    1.237415264134    0.278809392298
C      5.511739656301    2.443114089288    0.276964134273
C      4.127363764459    2.427929285745    0.182914022639
H      0.110818141026   -2.267077213183   -0.079542348538
H      1.208619520857   -4.526289324628   -0.109446361296
H      3.703804392951   -4.671533814141   -0.064770629320
H      5.073059915661   -2.636384267884    0.021974910696
H      6.110119351780   -0.897264653774    0.201110734767
H      7.320159271745    1.242809271880    0.352717250781
H      6.037601783105    3.398073689763    0.353804136408
H      3.569552578390    3.365931602488    0.191820298539
