73

C     -0.858561098560    4.485464372411   -2.189555344249
H     -3.841119235990    2.099979255788    3.321940924240
C     -0.430675568666    4.652174122286   -0.795209539772
H      1.871394005898    3.241370561108   -1.501684602106
H     -1.226094842499    4.502211416839   -0.056149734411
C      0.752857850887    5.213683668261   -0.327451610154
H      1.512248870453    5.604075144231   -1.007411612255
C      0.835778653622    5.745806431797    1.068217847932
O     -0.071088141206    5.790493029190    1.867324275492
O      2.072994671163    6.210854229241    1.319927094079
Pd     1.107377709683    3.033116205945   -0.214012608759
C     -1.080965456781    2.344546956688    1.946051673312
O     -1.562729202549    1.273578942190    1.401880104533
O      0.042302975201    2.806707959352    1.717610680448
C     -1.985966337572    3.076081229979    2.941279527645
H     -1.812711825811    4.139044603249    2.714131068844
N     -3.388982713415    2.781550078557    2.725133061168
C     -3.996617122544    3.127499759140    1.553979929964
O     -3.419249822300    3.785723485287    0.697326003627
O      0.054254936300    0.142951806399   -0.127412262678
H     -0.877915734039    0.838817323535    0.744949390555
C     -0.037997969489    4.777489060777   -3.298538205544
C     -0.489699044441    4.640839166174   -4.610781967609
C     -1.818150952221    4.193709535904   -4.840091319999
C     -2.634581895887    3.909367147315   -3.738031233608
C     -2.173933498691    4.048817598240   -2.428781425821
H      0.987982076908    5.116904567338   -3.135885580814
H     -3.659844869283    3.570246853055   -3.910297957848
H     -2.829905142832    3.835891930908   -1.581085066651
C      0.422318880560    4.960827083625   -5.769431885230
H      0.574223460043    4.083252972518   -6.420479715584
H      0.004444890372    5.756769550070   -6.408997187135
H      1.410686486464    5.294000798049   -5.421631992976
C     -2.340750028775    4.028602697909   -6.243574982633
H     -2.302139021247    4.977482826767   -6.805563916098
H     -1.739033489998    3.302748208343   -6.816891338418
H     -3.382657392010    3.677937788707   -6.244979541470
C      2.303711108771    6.771101709068    2.623492871244
H      1.578920402411    7.583689756458    2.794931508524
H      2.104565456012    5.996645848443    3.382221343040
C      3.734669682987    7.263798749443    2.677193471816
H      3.915736164619    8.033553890240    1.911214472102
H      3.942816155525    7.704007832420    3.664806706823
H      4.443914032921    6.438477086866    2.511066980223
C     -5.416700930791    2.630137440420    1.366144938464
H     -5.904560982765    2.336833995195    2.307268204612
H     -6.005472352486    3.417922380445    0.876589525017
H     -5.397862714049    1.759354969104    0.690840697225
C     -1.540002644428    2.829122026524    4.405201874708
H     -0.456620086927    3.038549587248    4.402708739008
C     -2.212245390952    3.837610096586    5.346286455540
H     -1.846886089025    3.727699721100    6.378205511163
H     -2.004941527697    4.870414400934    5.026496004324
H     -3.306643004554    3.706160623558    5.361787294808
C     -1.730958376428    1.364314839808    4.853173017085
H     -2.808743632551    1.154018340540    4.993134633279
H     -1.396968463795    0.690264941233    4.046663483439
C     -0.988616895699    0.998542476526    6.141172658976
H     -1.341018831920    1.582733443795    7.005689382666
H     -1.127923408149   -0.065962568877    6.386537717648
H      0.094609614715    1.176544913770    6.038056923701
N      2.096748034371    1.189729254724   -0.092788109819
C      1.305052504636    0.046968376612   -0.087712692662
C      1.977179863124   -1.229028604553   -0.050299290439
C      3.344606223271   -1.313846672847   -0.002308675316
C      4.091879399254   -0.115530599323    0.005405444114
C      3.432833000267    1.103704170460   -0.048921644476
H      1.342375186471   -2.115957505341   -0.058478743090
H      3.870335102331   -2.268776570515    0.031039457003
H      4.009990468714    2.028631026161   -0.060457621736
N      5.543896951360   -0.143436438897    0.057556764636
O      6.140943062847    0.926645141939    0.062289554560
O      6.086197182283   -1.240555546398    0.095091063801
