56

C      2.033657794674    3.173588774645   -2.330660575271
H      2.839374522823    2.439306413004   -2.407525944356
H      2.290570774741    4.234682456813   -2.310817574634
C      0.738425238351    2.772013518262   -2.543583135475
H     -0.065676433341    3.502385662542   -2.658867795792
C      0.417203583036    1.349666022674   -2.899050156763
O      1.242575998419    0.475404900472   -3.031903771380
O     -0.897128581802    1.192935389947   -3.064303062828
Pd     1.013423237958    2.996722309851   -0.300355058881
C     -0.098104785945    5.487084648306    0.479894822444
O      0.176927481512    4.776465453277   -0.601675085627
O     -0.628118265768    6.574846363988    0.429921170999
C      0.348332792633    4.830563571413    1.807501140329
H     -0.401276929247    5.110287943180    2.561825437071
N      0.359788786318    3.378958521260    1.589630238734
C     -0.450429210760    2.535822592172    2.235931683775
O     -0.680844921446    1.362076530113    1.855291033559
O      0.024344684057    0.079332606363   -0.122880456020
H     -0.323678531079    0.721623186182    0.644244850102
C     -1.371940352658   -0.145179017287   -3.316701789641
H     -0.818705298498   -0.560661455183   -4.173971426882
H     -1.133473677533   -0.756436177672   -2.432361984212
C     -2.861523604543   -0.071608075603   -3.575077725372
H     -3.082027699393    0.556873356610   -4.451769007659
H     -3.256556620284   -1.081537895995   -3.766025730906
H     -3.391636031001    0.347235375177   -2.706233615522
C     -1.158619184473    2.978787226341    3.509088840624
H     -1.544182892392    2.079480060620    4.004490091156
H     -0.501803239477    3.529719644018    4.195411118766
H     -2.013208025408    3.629371233385    3.261009327549
C      1.725593850110    5.393016389636    2.277249037053
H      2.444576493399    5.195680563235    1.458202598647
C      1.662375164254    6.909845928409    2.503978854700
H      2.658528334612    7.314346033338    2.738256897399
H      1.273808036395    7.441181841637    1.625731038750
H      0.996832976599    7.148788620140    3.351380746022
C      2.228245107579    4.648783735150    3.529386882564
H      1.548093310636    4.873832019939    4.371838854097
H      2.146321428069    3.564110025053    3.352230682955
C      3.664905198286    4.978630726547    3.942857397974
H      3.784670902718    6.033081130776    4.235894199863
H      3.977463710330    4.363275461577    4.801687470436
H      4.375196686031    4.783558763380    3.121168977267
N      2.026290151215    1.183305095994    0.075031920417
C      1.332648110991    0.025252246944   -0.054992956555
C      2.004225861396   -1.213800877503   -0.120021281877
C      3.378504521053   -1.240325628831    0.015319680614
C      4.074119039864   -0.041328994302    0.233545449477
C      3.375663143456    1.161374103953    0.261906783236
H      1.404215415938   -2.113689010327   -0.254387230454
H      3.918930110711   -2.189500325953   -0.024386078309
H      5.155067063520   -0.037174406642    0.378681470652
C      4.083833108238    2.462865895002    0.517107702211
H      3.969629222843    3.164837177976   -0.323470203264
H      3.667962413911    2.957819168689    1.407752463999
H      5.156969450882    2.295290124130    0.680196412365
