65

C     -0.550325781346    4.666303801842   -2.267149576121
H     -2.248290169744   -0.237068034949    0.492561731656
C      0.514536585716    5.037895910308   -1.330579585612
H      2.509167136204    3.711486615047   -0.473261512150
H      1.438886343070    5.378145351618   -1.804496927860
C      0.422104024023    5.232876063653    0.049926002341
H     -0.513928653521    5.084046104972    0.599930319520
C      1.440863332669    6.010415067000    0.820723391981
O      1.366614087045    6.214713728724    2.009028926121
O      2.444992449251    6.486819127187    0.052429813567
Pd     1.128170231910    3.175655148793   -0.145025055213
C     -1.847261152784    2.666374077286    0.984026224035
O     -0.798720911824    2.256915817158    0.328555304277
O     -1.991908266014    3.787508699256    1.449411261486
C     -2.982662298279    1.631606348445    1.186331517552
H     -3.906104008126    2.174091367709    0.940120981287
N     -2.922007843805    0.493629436901    0.290050675255
C     -3.498455705640    0.508802719857   -0.952982092341
O     -4.204749664018    1.426044070398   -1.342147209017
O      0.052252870397    0.071338623422   -0.434725311772
H     -0.398806298248    0.968854437512   -0.157775611609
C     -0.218500832169    4.520557623946   -3.630201624420
C     -1.161387822749    4.151638356740   -4.592760640558
C     -2.494389337916    3.906272441267   -4.181736009434
C     -2.829449206747    4.065430478237   -2.827134382093
C     -1.885593749289    4.449872413986   -1.880161840173
H      0.815601128869    4.696859108592   -3.941998514974
H     -3.848757876389    3.850253997682   -2.500525807855
H     -2.184970884378    4.567235097627   -0.838396849898
C     -0.761504264946    4.008617743428   -6.040737836171
H     -0.935880409338    2.984175052719   -6.411645730113
H     -1.346001111163    4.680150693307   -6.692385303828
H      0.303201480720    4.241293491643   -6.188027035711
C     -3.542503378791    3.478043135746   -5.175735641270
H     -3.708908124133    4.249067884212   -5.948206261527
H     -3.241833732885    2.561025558887   -5.710463350786
H     -4.502346504111    3.278550577306   -4.679479211617
C      3.475429720925    7.224413538496    0.726490910361
H      3.015417643330    8.057455679496    1.281981100632
H      3.954206375650    6.569196409891    1.473453761116
C      4.462688004848    7.712394337291   -0.313552368523
H      3.970099262143    8.369332910307   -1.047108637501
H      5.269685154187    8.282863810823    0.172197249865
H      4.915905355351    6.868399653360   -0.856534252356
C     -3.192304485044   -0.713679550352   -1.805254404489
H     -3.491632877620   -1.640389591881   -1.289339595591
H     -3.738142810329   -0.631210946791   -2.752779666036
H     -2.110097696438   -0.774935136922   -2.003564230766
C     -3.026877983427    1.189821537944    2.653084081545
H     -2.116318993385    0.630128687783    2.927892813126
H     -3.091026674133    2.072518154172    3.304477453763
H     -3.899173663097    0.544094453217    2.836263947106
N      2.023420755033    1.219477157476   -0.004973418002
C      1.347061136534    0.065467858924   -0.224369174617
C      2.020089679199   -1.180527446320   -0.242362410927
C      3.382875503461   -1.258539832845   -0.004776486978
C      4.063166920398   -0.046674629273    0.254973381035
C      3.357892745133    1.138662195218    0.240298602618
H      1.417078255079   -2.069070927199   -0.436420345825
H      5.135522042509   -0.032375238803    0.458861833626
H      3.862962221177    2.086098673842    0.426138265595
C      4.118814196621   -2.570882522646   -0.011846451400
H      4.608531495836   -2.749302573153    0.959680489343
H      3.446856160988   -3.415357356754   -0.219450561704
H      4.914519131240   -2.567148333440   -0.775094640354
