77

C     -0.837143759130    4.474352126196   -2.180464621929
H     -3.800291125729    2.024190658711    3.285958775918
C     -0.406616653720    4.646950124341   -0.786647270668
H      1.885485557143    3.210817367657   -1.497932046092
H     -1.202536638177    4.504264583273   -0.046982311837
C      0.775154959994    5.213414195566   -0.322770745001
H      1.536907576946    5.595898135649   -1.004507319008
C      0.855701245266    5.755640716522    1.067539662927
O     -0.053157528797    5.817215236942    1.862938927312
O      2.097266292713    6.213481243218    1.323539070973
Pd     1.125273306211    3.028827701200   -0.201789017039
C     -1.054715154054    2.349045345881    1.946645305548
O     -1.517727456607    1.280261616154    1.392476657721
O      0.064487631431    2.832484609501    1.733290857907
C     -1.976608035545    3.065470637246    2.939928119302
H     -1.824418235545    4.131859386021    2.714853107153
N     -3.373955262244    2.746447251035    2.718488109018
C     -3.986838909182    3.094741641960    1.550225876778
O     -3.432391193869    3.792414174664    0.710307263935
O      0.056219459778    0.144437602291   -0.122234411026
H     -0.813702317316    0.836687814986    0.724233548459
C     -0.016942537635    4.755452498078   -3.292080420661
C     -0.470974716744    4.613275884106   -4.603154627125
C     -1.801509649488    4.171846711200   -4.828753836602
C     -2.617769342547    3.898281505823   -3.723977904030
C     -2.154676735726    4.043079835116   -2.416024752232
H      1.011297321826    5.089171001590   -3.132171722997
H     -3.644935433644    3.562950151413   -3.892796173333
H     -2.810803391773    3.837697556447   -1.566506107455
C      0.442066824284    4.920671497458   -5.764617970342
H      0.589704994623    4.037706240090   -6.409469091367
H      0.028223217811    5.714187651312   -6.409958665734
H      1.432215637780    5.251303916405   -5.419242288822
C     -2.326480870214    4.000383643180   -6.230878196400
H     -2.283390128518    4.945002198859   -6.799838585878
H     -1.730137578531    3.266754613593   -6.800045386153
H     -3.370496872411    3.655779290121   -6.228568424658
C      2.320705940458    6.780527660860    2.623803268442
H      1.600684719478    7.599512681899    2.785259787022
H      2.110809117224    6.013534517507    3.387293096225
C      3.754511450248    7.264747125646    2.685896972703
H      3.946913785513    8.027071896048    1.915147408498
H      3.958057964631    7.711403790452    3.671653497671
H      4.459562856691    6.433402703516    2.531657567216
C     -5.386474937181    2.547098448267    1.344744416430
H     -5.875932454364    2.240659115745    2.280987905406
H     -5.995792273725    3.311392286671    0.843482370162
H     -5.327053763561    1.673771889694    0.674898790169
C     -1.532698165609    2.824238537479    4.404834647989
H     -0.453367787039    3.053534799733    4.407011174180
C     -2.228228880015    3.816165223087    5.346482903655
H     -1.867987809969    3.708360505108    6.380589924062
H     -2.037494636191    4.854021427748    5.032550587739
H     -3.320175013980    3.665071758481    5.353115951620
C     -1.697845468320    1.354715908277    4.847750836102
H     -2.771960239992    1.125671697637    4.987276530485
H     -1.351979182453    0.689851625217    4.038710641876
C     -0.949113945624    0.997109683115    6.134329974996
H     -1.309830805881    1.573670593715    7.000693531207
H     -1.071205956139   -0.070185960983    6.377122423525
H      0.131087279134    1.192336479696    6.030512502597
N      2.092714320003    1.187293228343   -0.069933790973
C      1.319071923440    0.069777087557   -0.075797192099
C      1.985309062866   -1.235107475057   -0.043668586670
C      3.405540601155   -1.310096865337    0.006233681742
C      4.142251209877   -0.083991309104    0.019962725895
C      3.459637847613    1.099329507960   -0.025023669789
C      1.216333752237   -2.419298006526   -0.061095908652
C      1.835893675475   -3.657894704527   -0.029402651898
C      3.245046510913   -3.739236281723    0.021074613283
C      4.016395277197   -2.589756302247    0.038529549989
H      0.130266568123   -2.322444973696   -0.103032759673
H      1.238112771424   -4.572683833553   -0.044153741139
H      3.730017662235   -4.719021153557    0.045757449625
H      5.107161897403   -2.655592022797    0.076357484673
H      5.232930240492   -0.088859122038    0.057966929174
H      3.990131350360    2.053485946911   -0.027760706203
