44

C      2.012781189875    3.173005047538   -2.413480083504
H      2.827399238157    2.445926928925   -2.455553008964
H      2.258611609288    4.236774152383   -2.408547673970
C      0.723570179936    2.757940716011   -2.645342154660
H     -0.080379569348    3.481889188684   -2.798205842291
C      0.411185215707    1.324232512582   -2.959030724032
O      1.239535523907    0.447905543737   -3.054902290095
O     -0.902787573088    1.154693235977   -3.119855166127
Pd     0.958145258179    3.002529336708   -0.413930960315
C      0.096002083680    5.577466544990    0.364021884641
O      0.233950597195    4.829009802143   -0.717903164956
O     -0.169186965276    6.755855853725    0.328701329606
C      0.328237839712    4.833976136798    1.691689132506
H     -0.456263185616    5.160736451150    2.388831514527
N      0.337679067690    3.392157306027    1.477586625084
C     -0.325168899277    2.538405009182    2.259472911986
O     -0.564706944738    1.345814619648    1.953516883157
O     -0.029768312843    0.003159872269   -0.039116465561
H     -0.341646394071    0.666875128907    0.723249211529
C     -1.371229735842   -0.194992998585   -3.319641349343
H     -0.810331442147   -0.643854406404   -4.154705015960
H     -1.137960269442   -0.768136924232   -2.408604699688
C     -2.859108630223   -0.137646926350   -3.591520523999
H     -3.075356014366    0.452444526257   -4.495499537274
H     -3.249391649987   -1.156140834915   -3.742375097079
H     -3.396958277345    0.315356444653   -2.744867061148
C     -0.840927552034    3.011341616613    3.611878787645
H     -1.097508624230    2.123282151915    4.202107547245
H     -0.106389804207    3.622711357190    4.155659101013
H     -1.754745166177    3.614844330444    3.483702272322
H      1.290035808426    5.195831777799    2.103258937151
N      1.935988478988    1.187143049550   -0.033558344994
C      1.281825632802    0.005667814974   -0.038245151034
C      2.017219154476   -1.201278009121   -0.039762599420
C      3.395850549268   -1.163456436741    0.018742359208
C      4.076994916161    0.072491337435    0.091345811363
C      3.287375579209    1.212275131315    0.055924827800
H      1.458442253474   -2.137157605114   -0.067493010815
H      3.965355150408   -2.097533458134    0.025897334242
H      3.744130915778    2.205122300878    0.086828392243
C      5.578512179967    0.149817479236    0.190147352463
H      5.928753486266    1.192240791182    0.214866763994
H      5.945797009579   -0.348238621011    1.102929644337
H      6.062112057157   -0.347286614344   -0.666970680274
