77

C     -0.579617693848    4.678915111807   -2.223820981037
H     -2.088543401884   -0.338782538729    0.465202245958
C      0.508805431412    5.050398699605   -1.315080974700
H      2.553051140761    3.754806929159   -0.558515380973
H      1.409161518341    5.423409736964   -1.810260879273
C      0.460500080614    5.204319939752    0.073333326091
H     -0.453997013887    5.023992668339    0.648749302959
C      1.488189909268    5.983104514654    0.832831594406
O      1.436366356752    6.165717604029    2.025742819903
O      2.468311570214    6.481499338240    0.050244867775
Pd     1.201770909427    3.170533720442   -0.201836221077
C     -1.729513734893    2.552647839994    1.012336541375
O     -0.686067515547    2.182493747345    0.319074354356
O     -1.871695667647    3.657708428297    1.513162775566
C     -2.856275964672    1.507318486464    1.196582522553
H     -3.775498863608    2.047860189353    0.930602504516
N     -2.781048609073    0.379883147355    0.288753462971
C     -3.399373730622    0.384239356202   -0.935369900098
O     -4.141500848036    1.283247938742   -1.298574955745
O      0.183072293484    0.034738685348   -0.445896289848
H     -0.283768281368    0.939902723628   -0.149678929924
C     -0.292616672505    4.574708166104   -3.600852004683
C     -1.259612624942    4.205292608167   -4.539018991451
C     -2.570819287442    3.915885310752   -4.088171995512
C     -2.862047540593    4.035071073668   -2.719294273059
C     -1.895249371992    4.420918587936   -1.796501033507
H      0.725185331322    4.784571222538   -3.943845315829
H     -3.864469597318    3.788029841988   -2.364051016275
H     -2.160905790307    4.507586724110   -0.742664197831
C     -0.907747468965    4.107792308934   -6.003091494562
H     -1.069635813274    3.088516967095   -6.393298834545
H     -1.531636679652    4.779649799664   -6.616695800947
H      0.144874187594    4.371419165814   -6.181462692218
C     -3.642298424878    3.484362209503   -5.055277403686
H     -3.857588357481    4.270591717241   -5.799817854525
H     -3.336042074465    2.590854185491   -5.625333380128
H     -4.577513880594    3.244442564926   -4.530767665922
C      3.512581698641    7.212667006332    0.712781417315
H      3.062154810178    8.039113787394    1.285668893323
H      4.005148308898    6.548403779995    1.442138011373
C      4.479377848385    7.711903599306   -0.340715982917
H      3.973093031464    8.376289325403   -1.058128111081
H      5.294769344213    8.277692083629    0.136289246556
H      4.923654751254    6.873644786220   -0.899500874088
C     -3.091309029386   -0.828392361189   -1.800875038402
H     -3.394022311388   -1.759419550004   -1.294788917128
H     -3.636751162216   -0.736153610114   -2.747704717630
H     -2.009267967812   -0.890633823629   -1.999407518543
C     -2.958553888264    1.084724685330    2.685386726426
H     -2.971973111107    2.037118061799    3.241804762860
C     -4.275603988226    0.347586904021    2.954259975439
H     -4.393256305689    0.105705361345    4.021479594930
H     -5.139837018548    0.961943280176    2.656444456237
H     -4.326682865759   -0.595494120835    2.385757086703
C     -1.722741794543    0.288790855025    3.154464900485
H     -1.737780028328   -0.719217572695    2.697740243662
H     -0.811826111514    0.781802574503    2.773143273376
C     -1.599157658433    0.144275948355    4.673416892858
H     -2.444034499675   -0.413232293106    5.107728864822
H     -0.677356766526   -0.393985335485    4.946092662900
H     -1.564707464542    1.131630593351    5.162701674304
N      2.154547744443    1.226638383160   -0.175780940591
C      1.482313852687    0.054522420180   -0.350747839880
C      2.185487003305   -1.175679523748   -0.442800867018
C      3.557305480275   -1.197626844933   -0.324133739184
C      4.246650871675    0.015911188863   -0.113473350384
C      3.499136306613    1.185742845032   -0.052929529856
H      1.597400024837   -2.081263945495   -0.595018630100
H      4.112801159360   -2.134660648464   -0.384940128828
H      4.013617081760    2.134038382091    0.096774436032
C      5.722793791062    0.118989154521    0.036456436607
O      6.325321871894    1.153958040325    0.206043542364
O      6.322907893378   -1.084213129159   -0.038562245288
C      7.744568216846   -1.089984832653    0.096272071193
H      8.045723249217   -0.678817702121    1.071556428150
H      8.055286188131   -2.138474592194    0.011876317505
H      8.214247634208   -0.486656727808   -0.695176597093
