65

C      2.088520672139    3.153971469318   -2.324509407081
H      2.923176077562    2.452036463083   -2.384697950089
H      2.308109473874    4.223713722749   -2.316461069289
C      0.805511949957    2.707673814500   -2.543419592488
H     -0.018866267340    3.412846887102   -2.672683285278
C      0.525586166335    1.277070681047   -2.904021719080
O      1.371373590648    0.423044451820   -3.028912868417
O     -0.782928516748    1.092149398446   -3.090965080595
Pd     1.080414872717    2.947403675453   -0.325511688981
C     -0.055829362131    5.451881511957    0.431640993030
O      0.173924435437    4.707860400468   -0.628607350751
O     -0.535142226600    6.564530981857    0.373999413284
C      0.374185352144    4.826413652716    1.779227306339
H     -0.417546773319    5.083433589528    2.494076765182
N      0.416584233329    3.363496435531    1.598778191420
C     -0.288109343300    2.576240836914    2.368707908166
O     -0.518141560071    1.326815624962    2.114935707527
O      0.050819637045    0.188801791805   -0.004587647116
H     -0.282644974614    0.954739428409    1.161561261282
C     -1.219041174629   -0.254587871646   -3.360948191474
H     -0.670372368554   -0.634824745686   -4.237525294934
H     -0.942675831453   -0.878312044725   -2.496863238512
C     -2.715091447877   -0.224768316576   -3.588524761653
H     -2.973574097506    0.417515294141   -4.444604195865
H     -3.080743031058   -1.242150771670   -3.797714888266
H     -3.240536352901    0.154948743884   -2.699122264001
C     -0.959648687281    3.029878983499    3.645880502529
H     -1.164676072531    2.141088000639    4.255304132375
H     -0.360760477039    3.744894307360    4.220596415693
H     -1.925543878284    3.503982708835    3.404209373780
C      1.701395019136    5.500128199591    2.316183173534
C      1.292753540429    6.814869647984    3.010890877979
H      2.186055413603    7.371007639155    3.338090529861
H      0.711080196521    7.451730616758    2.329012214430
H      0.675280259901    6.618292820443    3.903357136824
C      2.402519050816    4.578796440087    3.329809176572
H      1.749783276255    4.329019250881    4.181224343634
H      2.736961279088    3.636997497822    2.869670505767
H      3.289436318098    5.086374327462    3.741735860680
C      2.684079851216    5.837748179731    1.177701804590
H      2.945068489210    4.950834305950    0.582579257889
H      2.265787661748    6.590878923044    0.493881665105
H      3.619039769733    6.244014785716    1.595095758676
N      2.096399353177    1.150290547149   -0.001190802404
C      1.312027354326    0.057731982884   -0.016393093114
C      1.921703973599   -1.277756027634   -0.035916910683
C      3.328897267541   -1.419684949897   -0.026578845818
C      4.143621091964   -0.210923297050    0.040741192718
C      3.483512212436    1.052618822236    0.059235199586
C      1.084938944408   -2.410815960209   -0.061459107185
C      1.631892127599   -3.684504613129   -0.096369593609
C      3.030238758410   -3.837668770260   -0.102518605094
C      3.863173225594   -2.728011420982   -0.065751624715
C      5.553690520773   -0.236163360196    0.099184175082
C      6.305695250037    0.927547213113    0.175819773690
C      5.651003949644    2.168593604390    0.201298528664
C      4.265721838844    2.225449903486    0.145012531011
H      0.006010022220   -2.250647239790   -0.050305863194
H      0.983511364138   -4.563696519882   -0.118093988764
H      3.468093934373   -4.838821757809   -0.133151831837
H      4.943304495146   -2.878411337509   -0.067357125106
H      6.070174197237   -1.196874940552    0.086632105542
H      7.395768318693    0.875089902630    0.219848823732
H      6.226834109041    3.094895497771    0.269803788712
H      3.759441943393    3.189419493666    0.175573034658
