29

Pd    -0.013025793755    1.950384045287   -0.127570161616
C     -0.870714144113    4.650123916816   -0.059746107317
O      0.217779783187    3.918877362192   -0.028056272290
O     -0.888673629774    5.858727685073   -0.008026507175
C     -2.197418707814    3.868301859033   -0.171099219865
H     -2.720295928413    4.226552443721   -1.074370381234
N     -1.965715111508    2.427363582729   -0.222957661264
C     -2.923635735742    1.564169715790   -0.320753606656
O     -2.702950172578    0.265751515214   -0.367499470768
O     -0.012835887090   -0.126031374723   -0.218766057053
H     -1.742597249937    0.029801557857   -0.320281094768
C     -4.373776293324    1.945550111120   -0.390794547563
H     -4.560152407976    2.593116381724   -1.261772238484
H     -4.990631197725    1.042653703981   -0.468894669842
H     -4.666690057658    2.513055036394    0.506308408983
H     -2.821381420015    4.146315134600    0.695573638545
N      1.843113803231    1.056617996800   -0.057512873034
C      1.294422321780   -0.182258230603   -0.144732679191
C      2.107920312115   -1.329600329766   -0.147950198827
C      3.480932791252   -1.128751596864   -0.058468661665
C      4.023252288501    0.164739512860    0.030685989628
C      3.167603508447    1.270036372912    0.029527226017
H      1.656139853986   -2.319499786826   -0.218380924471
H      4.151574136380   -1.992498391923   -0.057430557001
H      5.101339409597    0.315143795837    0.100548364957
C      3.639023723086    2.691488117040    0.120133788828
H      3.301718179958    3.265989814191   -0.757172857056
H      3.200629295856    3.187462405788    1.000667904949
H      4.733919676569    2.745971182955    0.185594422667
