32

Pd    -0.064840031385    1.950982078926   -0.024802260350
C     -0.896223132651    4.649373167347   -0.125004855839
O      0.185158052171    3.910468884117   -0.162349173869
O     -0.898045470618    5.860103257798   -0.170326991594
C     -2.240201317200    3.891171585823    0.028588852119
H     -2.889890977309    4.259158886385   -0.783114510189
N     -2.014718461487    2.444295317213   -0.125606405693
C     -2.943507713837    1.582731932857   -0.388391874770
O     -2.693402570486    0.291856736883   -0.503711538430
O     -0.081178859767   -0.130245739722    0.087063835678
H     -1.746209573863    0.054958335708   -0.337536050281
C     -4.396256653523    1.902106233182   -0.592020812941
H     -4.576915649825    2.965617776192   -0.781605287272
H     -4.770944975185    1.303947319669   -1.434759062362
H     -4.963409145442    1.597807016947    0.302436468745
C     -2.864945410608    4.250225308514    1.381851164407
H     -3.871320466844    3.819629923440    1.497759986109
H     -2.233485445146    3.885930011955    2.207349114403
H     -2.936517110244    5.344670273680    1.454718041708
N      1.791756590124    1.042036035598    0.016312448512
C      1.227998978981   -0.189299310458    0.055221094586
C      2.040687061129   -1.339170923374    0.066535837659
C      3.416763510541   -1.154320009209    0.038343743054
C      3.997864568603    0.134076524575   -0.002233416729
C      3.119180002761    1.216918517046   -0.013598499222
H      1.581752071577   -2.328238555400    0.096898017821
H      4.071219614645   -2.031589492552    0.047358810003
H      3.475126175364    2.250573648073   -0.046637817577
C      5.492849976040    0.327928784245   -0.031631030340
H      5.757822493221    1.394782838598   -0.069691863749
H      5.973568418237   -0.103557499190    0.862330596133
H      5.945851340387   -0.160143567515   -0.910787162656
