35

Pd    -0.085243464797    1.978829376697   -0.007265967912
C     -0.931882604758    4.674265019477   -0.120467449680
O      0.154521578617    3.940291539516   -0.108985496681
O     -0.926685683931    5.881707199376   -0.238342632114
C     -2.267519583142    3.915601135763    0.078688234001
H     -2.953960069317    4.289177169804   -0.697914413488
N     -2.033880599972    2.473859745210   -0.113061263114
C     -2.955752089206    1.617555633167   -0.415990869171
O     -2.697874614237    0.331080393377   -0.565898615392
O     -0.089305016948   -0.106964198952    0.060127988200
H     -1.752545355811    0.093248088226   -0.394668944951
C     -4.406514432659    1.932057327911   -0.640207531314
H     -4.603940162366    3.004319412485   -0.739344389473
H     -4.739759300264    1.406422714939   -1.546916836733
H     -4.996855898687    1.534971924772    0.200887473570
C     -2.894178770585    4.227819362232    1.472324506137
H     -3.735975108328    3.519838758204    1.582129373000
C     -1.923247408253    3.974820801336    2.632771310158
H     -2.440345634748    4.105918788833    3.596485226412
H     -1.509615165106    2.954562921533    2.609476458777
H     -1.079882033160    4.683331081020    2.607701517201
C     -3.473133199020    5.647182513657    1.517132874776
H     -2.685622108020    6.397130939880    1.358804571839
H     -4.235099200806    5.796883578696    0.734269544006
H     -3.951548879924    5.832348259671    2.492124414792
N      1.775342670841    1.078867752249    0.025632358576
C      1.218147856410   -0.160401585566    0.033830557102
C      2.030950028307   -1.310911992750    0.023038038740
C      3.408675802842   -1.125040044633    0.005416741526
C      3.963775417749    0.168220982950   -0.003378498416
C      3.101049369672    1.258958799573    0.005281281568
H      1.569416274311   -2.299152004175    0.028700830090
H      4.068764146489   -1.996756046522   -0.002402419936
H      5.043409432808    0.322140615010   -0.017464057347
H      3.457958265149    2.292162672600   -0.003358350447
