42

Pd    -0.073411894794    2.023788137677   -0.059495336698
C     -0.980381413317    4.697678972413   -0.064375013425
O      0.115658167499    3.994658959386   -0.169334061161
O     -1.016475507906    5.910709104610   -0.031946854415
C     -2.303213448980    3.898382320762    0.062374783705
H     -2.956464885187    4.270134474090   -0.745000851205
N     -2.038343524873    2.465214834504   -0.128113986113
C     -2.940037381877    1.585846725800   -0.424262010906
O     -2.649457320930    0.307509231955   -0.578315241431
O     -0.023074734387   -0.060939917733    0.010419950302
H     -1.696121137695    0.096594130580   -0.412535912638
C     -4.400580814555    1.867263807632   -0.629008519908
H     -4.606801254508    2.925658970776   -0.822564226243
H     -4.759520130441    1.257484577616   -1.469990124651
H     -4.962124743218    1.554198480628    0.266016676613
C     -2.985575805913    4.237873349978    1.412630595085
H     -3.108277133899    5.331820732963    1.404852953204
H     -3.995056371334    3.797512600573    1.426073242995
C     -2.226057386913    3.805802025069    2.649209562313
C     -2.562338749199    2.621396840699    3.323637463206
C     -1.160960325124    4.577944016537    3.145118511375
C     -1.853159871356    2.210104775996    4.456092755481
H     -3.398575813365    2.014088098066    2.963915531483
C     -0.450436267969    4.168642006606    4.276220275398
H     -0.889376489385    5.506075922065    2.636340190429
C     -0.792050346807    2.983241487111    4.934880925354
H     -2.133739967523    1.285423400433    4.967307092861
H      0.373977282931    4.783135838420    4.647221412000
H     -0.236646360565    2.666159309316    5.821345132697
N      1.808527643753    1.174619257102   -0.061330044314
C      1.288445306416   -0.074728531782   -0.034787497467
C      2.113399709536   -1.225418833368   -0.045133822075
C      3.485673519241   -0.985795151987   -0.082886042887
C      4.011404041290    0.320427858732   -0.110047103444
C      3.129767795705    1.392777810528   -0.099134836543
H      4.169962663594   -1.839628243718   -0.091392243150
H      5.087914837753    0.493759255162   -0.139190440126
H      3.459854701331    2.434244989959   -0.119417101927
C      1.488995920922   -2.591396680694   -0.014956945568
H      0.858284978410   -2.718067184949    0.880507426564
H      0.829682932828   -2.745500665731   -0.885402385845
H      2.254438590513   -3.380727692103   -0.016150608368
