44

Pd    -0.194393426768    1.941206003160   -0.015606913217
C     -1.024441152228    4.623601492526   -0.322630377633
O      0.060504444937    3.883947277433   -0.287513290071
O     -1.020840281991    5.805951493218   -0.589337245621
C     -2.340414248987    3.894655174467    0.058730607690
H     -3.125529559187    4.287301712226   -0.604498799293
N     -2.136316245782    2.458593157324   -0.183829730804
C     -3.008936691909    1.635493263648   -0.670322283219
O     -2.730599912450    0.354868878058   -0.851092594744
O     -0.217849729357   -0.143356865711    0.175329649448
H     -1.827348780767    0.100878563922   -0.541217184559
C     -4.405403118546    1.966436564821   -1.107576864310
H     -4.599165812288    3.042027304586   -1.156390765532
H     -4.569267725838    1.513839421714   -2.096628045423
H     -5.122760491571    1.502665049965   -0.413034959046
C     -2.765778124378    4.229934797689    1.543270932858
C     -1.614432438855    3.971307511917    2.533681696628
H     -1.947196273343    4.199274307139    3.558934861631
H     -1.287087186070    2.919502306719    2.516160457661
H     -0.739049400414    4.601929736857    2.318455325698
C     -3.172570734324    5.715741495573    1.604093212392
H     -2.351854165656    6.374809527259    1.293235714099
H     -4.031771539780    5.920625613391    0.943936259969
H     -3.470488719379    5.977808895214    2.631979279938
C     -3.979358616693    3.376018099840    1.955736306825
H     -4.843602469440    3.545472676317    1.294170320226
H     -3.750445698560    2.299086184635    1.967141532931
H     -4.293479477528    3.651434944890    2.974945930854
N      1.659327146588    1.020539504209    0.066675933464
C      1.083027404210   -0.213094280609    0.147127559561
C      1.881271329430   -1.374662055850    0.200342903196
C      3.257768238065   -1.214541145067    0.170731545072
C      3.835479508169    0.072913635943    0.087894504425
C      2.980783320877    1.178695271538    0.034944447568
H      1.404798199700   -2.353611161586    0.263312549293
H      3.914785391141   -2.084957104929    0.211030664374
H      3.378394302572    2.194114551943   -0.033309402756
C      5.300808305334    0.317026100259    0.053115923458
O      5.811749236746    1.411288480441   -0.013635304714
O      6.009553192177   -0.828463043876    0.104827375745
C      7.430155403674   -0.691160798266    0.076254190699
H      7.782833586315   -0.096426169978    0.932440106029
H      7.836832936418   -1.708728469835    0.125501669276
H      7.756294783911   -0.193275411344   -0.849418869018
