42

Pd    -0.220102241689    2.006350690867   -0.009394657490
C     -1.082696449873    4.683978937434   -0.282609825204
O      0.011852045923    3.961648587149   -0.247930630002
O     -1.097794090910    5.871446462549   -0.530338454894
C     -2.392627607371    3.929220033013    0.073422955767
H     -3.176542341366    4.321993149989   -0.591367811308
N     -2.166147367616    2.500653257315   -0.188607943202
C     -3.019238488726    1.671654030090   -0.700039556027
O     -2.719798964451    0.399961275872   -0.900877493278
O     -0.241698397042   -0.073246089933    0.147908856551
H     -1.814508681731    0.148600371264   -0.585437826232
C     -4.416289636925    1.990110973513   -1.146677048028
H     -4.625569720478    3.063501097021   -1.179002828680
H     -4.563428398268    1.552304882148   -2.144951888553
H     -5.133853881920    1.504044325963   -0.467739581823
C     -2.837765397144    4.234957684704    1.558529273862
C     -1.691719772128    3.979986234811    2.556072157507
H     -2.038461616733    4.184155656449    3.581819980480
H     -1.344796783376    2.934962909970    2.522854724518
H     -0.826097767292    4.629941871527    2.359818403631
C     -3.269877187680    5.712609960577    1.638449788857
H     -2.457914611886    6.389206282449    1.342557807666
H     -4.127636513101    5.912769778495    0.974903114486
H     -3.579569693078    5.954824439881    2.667838758372
C     -4.040476971464    3.354586457177    1.946430128832
H     -4.900808231178    3.518997116944    1.278490564246
H     -3.792818097407    2.281850229491    1.943601694388
H     -4.369455515015    3.609311605619    2.966426787735
N      1.639691810775    1.092390064837    0.061354511556
C      1.066030368537   -0.124044591546    0.110002985623
C      1.868799528363   -1.302400131457    0.127503625824
C      3.249969471022   -1.129137436430    0.096535607339
C      3.810840613431    0.166278800068    0.045705896104
C      2.973237817915    1.267682001848    0.026000965397
H      3.912370590989   -1.995852486298    0.109593898967
H      4.893524756310    0.297530165569    0.021007234763
H      3.338031961616    2.295920442832   -0.016621332218
O      1.199620904070   -2.473128854849    0.170779140030
C      1.937801762819   -3.675011228192    0.191590963445
H      2.590301137467   -3.738677999594    1.081372489674
H      1.205081746478   -4.491705621061    0.227074300090
H      2.559569925938   -3.788939236194   -0.715075265190
