43

Pd    -0.084078408975    2.004412096233   -0.050309445394
C     -0.963943440152    4.686786843094   -0.066129278180
O      0.125566664440    3.973344756824   -0.165540110957
O     -0.989253889317    5.900368916671   -0.037999481370
C     -2.294485912693    3.900169332041    0.060018282295
H     -2.942819774239    4.276337852957   -0.749254003809
N     -2.043031993952    2.464080505457   -0.126556049477
C     -2.952779827890    1.592784448046   -0.423964109155
O     -2.677891457379    0.311535267176   -0.575240634629
O     -0.066604748841   -0.078159365789    0.025568378254
H     -1.728429390265    0.083793703190   -0.405552432510
C     -4.409687132720    1.890932951384   -0.633247658131
H     -4.603381172601    2.950898029060   -0.831078230974
H     -4.773490208182    1.282164628528   -1.472818895019
H     -4.976835755061    1.587499251095    0.261537952870
C     -2.975873394441    4.249402140263    1.408292673276
H     -3.090530650359    5.344183052435    1.396736546005
H     -3.988527017142    3.816364275845    1.422048992508
C     -2.220889124553    3.816218918334    2.647251782272
C     -2.563558560288    2.634460031513    3.323095325535
C     -1.153302999170    4.584544680151    3.143716584296
C     -1.858388634057    2.222191823397    4.457662715846
H     -3.401192580852    2.029676451956    2.962450599735
C     -0.446917920150    4.174387243802    4.277094234757
H     -0.876217130733    5.510078039816    2.633159700612
C     -0.795062263010    2.991750135271    4.937294916801
H     -2.143543483383    1.299250325203    4.969470920414
H      0.379617797220    4.785860669785    4.648413501464
H     -0.242696597154    2.673780927506    5.825357916147
N      1.790752238287    1.122253940839   -0.046678725492
C      1.240206212369   -0.105485307067   -0.021751340355
C      2.064675815728   -1.268772470861   -0.037072894895
C      3.441906899427   -1.068825819400   -0.075070963885
C      3.978411355031    0.237805201451   -0.099016344149
C      3.120388983886    1.323390609095   -0.085638659091
H      4.120369557950   -1.923052488401   -0.087212011981
H      5.058250466706    0.389794033102   -0.128338137841
H      3.465449561982    2.359113997000   -0.104151236168
O      1.417378172263   -2.452698247528   -0.014498393736
C      2.178109667878   -3.640364103832   -0.025374405216
H      2.839091884657   -3.710751336250    0.857653221783
H      1.461305160024   -4.471537655968   -0.001840644167
H      2.794534355723   -3.723106314936   -0.939090382206
