41

Pd    -0.137734215962    1.989176413474   -0.059699283166
C     -0.997701793004    4.663880620633   -0.342367963634
O      0.096165211339    3.946600518151   -0.265250912378
O     -1.012189365921    5.855853235449   -0.571986810352
C     -2.320483268411    3.910546364223   -0.063480576367
H     -3.046415601627    4.261704281882   -0.811875070510
N     -2.087223647029    2.464656041297   -0.221936868116
C     -3.004433771590    1.593682347524   -0.492114535479
O     -2.738730962659    0.304047696866   -0.595595809697
O     -0.142411432094   -0.087153952594    0.108777454058
H     -1.794502865616    0.078211641688   -0.401857309463
C     -4.456816056017    1.892930789168   -0.723873880968
H     -4.668189945111    2.963272682808   -0.812396004817
H     -4.778475752594    1.373442190687   -1.638640955888
H     -5.045685066417    1.476883969497    0.108986805206
C     -2.845360159418    4.212916009409    1.359817597922
H     -3.773105488777    3.629005364823    1.504769805413
H     -2.113768753530    3.806139199928    2.079344632448
C     -3.132064473853    5.687305981389    1.702862696937
H     -2.181149282113    6.240032635431    1.633490268195
C     -3.638171827177    5.784429752434    3.148296781476
H     -2.925738100681    5.334904609463    3.859378587579
H     -3.788009704287    6.834963504752    3.444355305261
H     -4.604427443827    5.263943387355    3.270872443755
C     -4.111581080617    6.345295858667    0.722876401453
H     -4.367451656669    7.364337694293    1.055022375639
H     -3.669065284680    6.432779966730   -0.280184820136
H     -5.056688803421    5.776793742985    0.650874586728
N      1.724182659847    1.095964321220    0.044412962326
C      1.167667215285   -0.137988031213    0.101585338474
C      1.987225389242   -1.281848824147    0.153483303347
C      3.362378446972   -1.088497670358    0.145090642668
C      3.935976487896    0.202520622942    0.084713714306
C      3.050837718924    1.278900212928    0.032914747996
H      1.533989610043   -2.273010576774    0.198120533031
H      4.022096072116   -1.960928897661    0.185586283411
H      3.400956494404    2.313797630940   -0.018640845276
C      5.429996231786    0.405648924563    0.076517436161
H      5.688874555170    1.473024538221    0.017092800409
H      5.897800465146   -0.000863985205    0.988861324371
H      5.901284869229   -0.100461004141   -0.782567290623
