38

Pd    -0.033615212823    1.891080664126   -0.138480509696
C     -0.743643674693    4.634522524243   -0.137123386200
O      0.303328412826    3.843935797786   -0.100743266912
O     -0.692006198812    5.842582773466   -0.120365026878
C     -2.112835997569    3.924638976879   -0.205528658408
H     -2.629491249597    4.284455569283   -1.111733747134
N     -1.961458201358    2.472336436194   -0.217212133152
C     -2.965218287945    1.660844234294   -0.272806545153
O     -2.809694064446    0.350193227009   -0.282822591838
O     -0.097836124311   -0.208914691326   -0.165587044890
H     -1.861903697454    0.075930388775   -0.243705084213
C     -4.395037664115    2.112301252558   -0.331201497847
H     -4.563717950491    2.742411259146   -1.218435683081
H     -5.058217379129    1.240307608339   -0.371847634480
H     -4.643099616478    2.720251211431    0.552835812055
H     -2.706398451418    4.262019977758    0.661361169789
N      1.778324448840    0.927770775579   -0.069556433789
C      1.205181456594   -0.265586183332   -0.108299355810
C      1.984181075473   -1.482821791810   -0.086738874909
C      3.401928054969   -1.357583485917   -0.022102916460
C      4.001842000973   -0.024779048742    0.018989429133
C      3.139592440007    1.110521399622   -0.006952288420
C      1.360973601974   -2.747137322267   -0.127872359757
C      2.129443492223   -3.899174026608   -0.105689980999
C      3.532950558869   -3.794648914136   -0.041973904917
C      4.155188031181   -2.555172737549   -0.001157572725
C      5.394129772380    0.211018653088    0.083473397579
C      5.905623549350    1.500155640244    0.120374231695
C      5.036808374786    2.608217663733    0.093881079088
C      3.665300956634    2.419658110461    0.030769664642
H      0.271413559576   -2.791026892508   -0.176860946203
H      1.653799160450   -4.882076350112   -0.137203813854
H      4.142569099120   -4.701742331180   -0.024280862405
H      5.243756514347   -2.511867678410    0.047919791786
H      6.085373017961   -0.632945401692    0.104924959998
H      6.986071168804    1.653938801995    0.170093817460
H      5.443465832806    3.622056539863    0.123068623881
H      2.967109247565    3.259642890205    0.008859307254
