32

Pd    -0.092971029366    1.963967990869   -0.036718107457
C     -0.928212204853    4.661429004705   -0.130274530208
O      0.153812565356    3.923882964745   -0.172764467144
O     -0.931799940012    5.872189965029   -0.175159174428
C     -2.270509731793    3.901596039270    0.029381325716
H     -2.924610652663    4.269272412843   -0.778907950638
N     -2.044170979670    2.455023629885   -0.126672255766
C     -2.973760033266    1.592802057922   -0.383971613419
O     -2.723390291015    0.301891509346   -0.500198026553
O     -0.104755797177   -0.118014740817    0.071978238564
H     -1.775276228899    0.065991377931   -0.339293747736
C     -4.427870604946    1.910790270463   -0.579783778609
H     -4.610595162335    2.974192123738   -0.767917388466
H     -4.806314824094    1.312688374539   -1.420884319054
H     -4.990075115752    1.605444033533    0.317406004647
C     -2.888884712078    4.259217619578    1.385958014805
H     -3.894417480552    3.828026122806    1.506510666934
H     -2.253175360723    3.894683262447    2.208035466475
H     -2.960685132878    5.353533265420    1.460016622323
N      1.763937204679    1.057286310490   -0.004339922123
C      1.203379041263   -0.177642606644    0.036035626603
C      2.006188410271   -1.333845598034    0.044620763929
C      3.392866163020   -1.186706412538    0.012513871609
C      3.940594921671    0.118235819428   -0.029621579397
C      3.092933078228    1.216439130869   -0.038514659050
H      1.527624256540   -2.314098602680    0.076625335056
H      5.021626097436    0.267875853306   -0.055709740724
H      3.465787621013    2.243412622463   -0.072617236549
C      4.304149048868   -2.386609426954    0.022593492925
H      4.971268198833   -2.363102958537    0.900146438515
H      3.739276652960   -3.329063398808    0.046450158007
H      4.950394296996   -2.394662685450   -0.870623456100
