50

C      0.824212800547    2.785955819727   -2.866489305324
H     -0.079341258036    3.390423675054   -2.769002694622
Pd     1.101274944435    3.056131546360   -0.433561746689
C      0.149919558192    5.616788471725    0.270385595016
O      0.301811819464    4.846583775949   -0.788280327050
O     -0.106692819877    6.798763730143    0.210203237917
C      0.352087117379    4.908325578061    1.630817606656
H     -0.532549385420    5.173345846786    2.229999320391
N      0.405994777657    3.459084322618    1.414555836889
C     -0.344172947507    2.594228070079    2.098292746014
O     -0.556172801909    1.410133577456    1.741147746460
O      0.132399004517    0.110832300682   -0.237865810046
H     -0.223721803863    0.768801333900    0.509264436111
C      0.738288748986    1.445587468078   -3.299033672224
C      1.875819013159    0.703340635584   -3.603423581614
C      3.160797031680    1.314461918487   -3.477824988420
C      3.244208232895    2.636280099994   -3.047682105012
C      2.091335776257    3.386712961426   -2.734142594319
H     -0.246884904388    0.986337293624   -3.407999209944
H      4.225734203337    3.113381019449   -2.978318456626
H      2.166616366629    4.454559656409   -2.520152779609
C      1.753034715431   -0.721000349758   -4.081607572190
H      2.183394190017   -0.847518323213   -5.089449374516
H      2.292771424157   -1.416237249742   -3.417582169106
H      0.701910522879   -1.039451137352   -4.119433111310
C      4.407696948467    0.540477170780   -3.821034760776
H      4.515695456427   -0.350387538174   -3.179799218888
H      4.386121758969    0.178743753379   -4.862652828442
H      5.309292950635    1.157037695503   -3.696361620442
C     -1.000772207815    3.036338086212    3.400006525323
H     -1.248872310476    2.132644048845    3.970456756868
H     -0.364221709292    3.695986321271    4.005527008531
H     -1.940659318447    3.571008799367    3.184378344544
C      1.593255814979    5.471645642781    2.332829102220
H      1.715610946459    5.032463555771    3.335344775896
H      2.503602687076    5.258522361471    1.750064260031
H      1.494357132147    6.562818720460    2.430010446705
N      2.108001210687    1.259123898815   -0.010928819187
C      1.437075318607    0.087822148571   -0.157012841447
C      2.136756096632   -1.139121532767   -0.210636683996
C      3.506694793009   -1.140360744268   -0.021875700416
C      4.170748072499    0.069911285162    0.228693695062
C      3.446922237630    1.259802019797    0.232758045669
H      1.556690585261   -2.051245438676   -0.353389953099
H      4.064310482476   -2.080691222663   -0.035870509848
H      5.243492403124    0.092971323457    0.424140861551
C      4.114144473446    2.573032051308    0.533237029159
H      4.003480570580    3.282534072156   -0.300647354859
H      3.650702035383    3.039718751662    1.416409431112
H      5.185258188802    2.430248679815    0.731437632260
