59

C      0.821198191916    2.802161443748   -2.806608475079
H     -0.113962313005    3.363385877226   -2.754273780980
Pd     1.018998736058    3.007320822572   -0.418818554912
C      0.003279811163    5.513830680569    0.408410047193
O      0.176565142957    4.809655800706   -0.687393295036
O     -0.433582805468    6.644924561323    0.428601729909
C      0.442592391098    4.788732212778    1.709481897580
H     -0.230561589160    5.129201929548    2.509082849459
N      0.289545930394    3.346149162483    1.462532722064
C     -0.542907598612    2.600544597629    2.135775585489
O     -0.865229896102    1.388677828239    1.808760558991
O      0.022507854947    0.119146811456   -0.127127012591
H     -0.488543985081    0.976275629914    0.918352648315
C      0.819382815984    1.464208444293   -3.260090867738
C      2.003327779752    0.782275365110   -3.519491504492
C      3.251664636218    1.454391836823   -3.332174000140
C      3.254260163031    2.771186468895   -2.882555509024
C      2.053404769708    3.461077269694   -2.608761510439
H     -0.136849619451    0.959706925174   -3.415838999186
H      4.207186099814    3.292446590158   -2.757415290509
H      2.069212163985    4.529943793955   -2.387739007795
C      1.972527272623   -0.645460505906   -4.000777726360
H      2.482710218759   -0.757283932934   -4.972134874827
H      2.485483093957   -1.317238787727   -3.292613220973
H      0.940433161480   -1.004937637620   -4.114827892877
C      4.546966728865    0.741668347089   -3.620734132149
H      4.663709124767   -0.146088141845   -2.977141044138
H      4.589645437066    0.385785294267   -4.663645009721
H      5.412016195246    1.398328477053   -3.450915119530
C     -1.245657719562    3.078005182252    3.387320186086
H     -1.705447036907    2.210428745927    3.875273510815
H     -0.557525893587    3.572809301065    4.084978442120
H     -2.041291699945    3.794435529060    3.126934064208
C      1.896948443539    5.170827803505    2.106468082840
H      2.534188192248    4.952015787712    1.228556051162
C      2.013093035509    6.667599802999    2.422800940424
H      3.062249254866    6.932858063154    2.629415373908
H      1.646707140910    7.294527229760    1.599043958926
H      1.422781467954    6.924372989311    3.319066610385
C      2.406494354737    4.323191576054    3.278119507401
H      1.812722662368    4.508144602033    4.190000235161
H      2.369092121063    3.246353552236    3.055995452744
H      3.451108287989    4.582364758732    3.513696710699
N      1.999529965974    1.239280160595   -0.060928997768
C      1.283953445571    0.082551020397   -0.073325354556
C      2.015161020591   -1.183675708575   -0.008564666220
C      3.430047726697   -1.179416806583    0.150061815228
C      4.095062670423    0.086023131403    0.234164499971
C      3.356712017825    1.231097043560    0.118245508935
C      1.313601368331   -2.406747170385   -0.081340019229
C      1.997558169128   -3.609744314177   -0.012281847014
C      3.401526018343   -3.613824149298    0.141888218689
C      4.105840096016   -2.424225104141    0.224558424611
H      0.228341936497   -2.368619258351   -0.190306129751
H      1.453900674523   -4.555792107270   -0.071026585965
H      3.936171484983   -4.565775932171    0.200435026983
H      5.191970540509   -2.432243740775    0.349899518178
H      5.174508283920    0.140053386538    0.384506426344
H      3.830483853775    2.214098794087    0.163031435636
