44

C      0.811603925283    2.693974757311   -2.863076994486
H     -0.156355944983    3.198990275845   -2.829918642116
Pd     0.966613821017    2.980825746099   -0.487000033183
C      0.094933372759    5.556014683431    0.266197218119
O      0.183897735350    4.794194614352   -0.802658170531
O     -0.184124460476    6.732124743870    0.248954346439
C      0.411568068851    4.828798458874    1.591463230483
H     -0.262068810987    5.223396788455    2.363436020302
N      0.296395389981    3.382165960277    1.406933703166
C     -0.404690879560    2.633357412369    2.212781580715
O     -0.723950480737    1.401665971775    1.973444119850
O     -0.138872052092    0.170001207677   -0.098600745092
H     -0.498896002612    0.993397993924    1.032269685416
C      0.889960746222    1.344740083047   -3.279478553741
C      2.111826603981    0.730328865740   -3.531260522606
C      3.318231438769    1.484279151584   -3.374846886125
C      3.241619714991    2.810341073587   -2.958162962526
C      2.002718899322    3.432219865740   -2.695181154601
H     -0.034610870687    0.778180192962   -3.411949589751
H      4.160650228867    3.394007000942   -2.857470685048
H      1.953055375166    4.504341466473   -2.498241430573
C      2.166521136834   -0.708199261213   -3.977519437517
H      2.624477535535   -0.804156052628   -4.976488590322
H      2.775235931260   -1.318117152154   -3.290102505075
H      1.162294513915   -1.152121027045   -4.018323799459
C      4.654887029799    0.851206024677   -3.661565305512
H      4.866664722125    0.025919923876   -2.961337757550
H      4.691540009738    0.424957924561   -4.677428133975
H      5.470964859984    1.581644204051   -3.568941544509
C     -0.933942381081    3.139219760097    3.535345171161
H     -1.235704324093    2.274294548466    4.138188164080
H     -0.187767977233    3.731323090057    4.082230959858
H     -1.821682748830    3.772110420064    3.372806791150
H      1.442622245677    5.100370583102    1.881569544434
N      1.906172745751    1.178802546197   -0.118889555329
C      1.114848016061    0.055128505455   -0.104886338251
C      1.806586352880   -1.214040208258   -0.083836967157
C      3.180328842010   -1.285639045360    0.003072189633
C      3.921065226990   -0.087320352242    0.051477717827
C      3.251721722097    1.119095233983   -0.019755892401
H      3.683258959289   -2.253062097790    0.041077673608
H      3.795228630979    2.064957372125   -0.008712515282
Cl     0.841815632834   -2.655605620663   -0.153241369620
Cl     5.664989235743   -0.125597267520    0.159295509572
