47

C      0.787062464849    2.700137897295   -2.871770766752
H     -0.183452466812    3.199076194170   -2.824691026362
Pd     0.957944834524    2.972748116947   -0.498280003098
C      0.070397459857    5.542275192155    0.259156542064
O      0.146425591250    4.776721936962   -0.807629177133
O     -0.223130412126    6.714976299387    0.243865188833
C      0.423517689416    4.823566433896    1.580183364503
H     -0.231108765758    5.219334987202    2.367621304215
N      0.309706885894    3.375525483482    1.404648095327
C     -0.385970026492    2.631194851927    2.218589726339
O     -0.703730630472    1.396845714201    1.987910197856
O     -0.097391247110    0.134150201046   -0.059696325408
H     -0.470672651823    0.982775712801    1.052921835832
C      0.869917843368    1.356555977078   -3.306095259128
C      2.092452276392    0.755402679344   -3.583556965207
C      3.295808095742    1.515163079759   -3.431123868908
C      3.215359714554    2.833785914333   -2.992288389284
C      1.975165433698    3.444113911046   -2.708452657986
H     -0.052501153287    0.785936458422   -3.436988901527
H      4.131648019620    3.422121875285   -2.894014121274
H      1.920761110847    4.513730610005   -2.499564864409
C      2.152897932434   -0.674553390494   -4.055405779026
H      2.624045394144   -0.752356755440   -5.049588504971
H      2.753690492426   -1.296135189182   -3.371219963820
H      1.148881754932   -1.116641774935   -4.119463565802
C      4.631610798670    0.896839747294   -3.750942451846
H      4.849511232273    0.041779578590   -3.090605589489
H      4.661889093313    0.516489661078   -4.785368979715
H      5.447282225802    1.624037284561   -3.632591625309
C     -0.911110203776    3.143212150560    3.540396133003
H     -1.214275064918    2.281498044938    4.147071592650
H     -0.161510940600    3.734368791228    4.083653649639
H     -1.796684558846    3.779033370573    3.377821066038
H      1.460859609244    5.099308138027    1.842206651170
N      1.923894745087    1.187448211615   -0.136077003187
C      1.158600866586    0.038172421897   -0.079826236440
C      1.854944237911   -1.219189858076   -0.023550596582
C      3.224763816924   -1.261480976992    0.057140631451
C      3.964549332003   -0.052422242481    0.064779823117
C      3.265716005704    1.137481980418   -0.043666898770
H      1.242699999904   -2.121857576980   -0.012271417442
H      3.745711871317   -2.220142879379    0.128003528645
H      3.793386303563    2.092421241707   -0.063281102233
C      5.458461676056   -0.077496482511    0.152717295094
F      5.890812278722   -0.725649256093    1.250627188342
F      6.008776250792   -0.725099634211   -0.903658430391
F      5.990036074880    1.157369983370    0.176513046175
