63

C      0.753774714517    2.787366716771   -2.857692013757
H     -0.169536869520    3.357712438622   -2.740913119855
Pd     1.093767023963    2.973693678316   -0.459707647735
C      0.083521302577    5.469812721911    0.385407779672
O      0.195886300936    4.751521784138   -0.706841349065
O     -0.211544213775    6.644850886190    0.408401209791
C      0.396420001317    4.714736198198    1.704163771894
H     -0.398690360655    4.995918774369    2.408791858037
N      0.372034756864    3.270879094966    1.436644677405
C     -0.371786613439    2.452139999318    2.132430468117
O     -0.615857002369    1.226668276928    1.792854613104
O      0.164236879821    0.116617962756   -0.277545943372
H     -0.294883392013    0.882070918347    0.852373954302
C      0.710965143529    1.460877384367   -3.337126368607
C      1.872786960289    0.770939526151   -3.667299904020
C      3.138126262220    1.421240230679   -3.523897787248
C      3.180303854322    2.727213199072   -3.047483771249
C      2.002536879374    3.426482167253   -2.702980620300
H     -0.258006813083    0.971379968705   -3.456368049841
H      4.145252727128    3.230635096705   -2.951741053348
H      2.042741473022    4.491963273948   -2.468338715150
C      1.799221513241   -0.643752778428   -4.181216214078
H      2.250860410793   -0.735128961083   -5.183348576080
H      2.348112734869   -1.336665298848   -3.521948707004
H      0.758773986893   -0.991861779305   -4.243196822250
C      4.409414971694    0.699165623759   -3.888655160611
H      4.544448538591   -0.206801181237   -3.274545009370
H      4.401129758553    0.370054060101   -4.941268222695
H      5.290020353505    1.339332665895   -3.738871840001
C     -1.056808140469    2.854194257542    3.418153227514
H     -1.358825451544    1.939978343983    3.943265241221
H     -0.410224474553    3.459272072092    4.065233711571
H     -1.966211867110    3.434762171878    3.190817569644
C      1.741694447630    5.224179575846    2.276484526309
H      2.546770866149    4.952242881713    1.574779613697
H      1.670055604080    6.322335537162    2.278566009046
C      2.066908642947    4.718373380486    3.663208158398
C      1.638083333625    5.426608591879    4.798998646029
C      2.773939791975    3.519579724650    3.853084327088
C      1.899401578668    4.948356143361    6.086028395024
H      1.097028685668    6.369160811446    4.671116683812
C      3.036842117323    3.038425928017    5.139586471818
H      3.127101271334    2.959801507890    2.983272740951
C      2.598451813533    3.749495270078    6.260440330024
H      1.561416924887    5.517397306005    6.956179390675
H      3.590754656272    2.104411208361    5.265446599146
H      2.806107732420    3.375054419745    7.266113279477
N      2.150741426418    1.219464242511   -0.157591861180
C      1.425909814677    0.069373613477   -0.234806044103
C      2.131602949564   -1.199196130387   -0.244041727340
C      3.481661110338   -1.244883868122   -0.075712907953
C      4.230297512519   -0.035836065391    0.094098567203
C      3.514403465597    1.201381703766    0.040971099627
C      5.629016101116   -0.027814768317    0.307098871245
C      6.321584373261    1.159787931062    0.468466358067
C      5.617220329352    2.380382226155    0.415216000477
C      4.247847178242    2.403870353272    0.202467569080
H      1.518259728937   -2.095194685956   -0.350538814224
H      4.010497995307   -2.202623382715   -0.052808254837
H      6.155358045358   -0.985817754124    0.345800412536
H      7.400672557596    1.154454614573    0.637057481867
H      6.154875292974    3.323279367713    0.544574762822
H      3.713830351548    3.354285516356    0.157079744775
