57

C      0.807043603809    2.696556154226   -2.815589546646
H     -0.175531565804    3.172379820881   -2.779198047521
Pd     0.934491390890    2.931439367924   -0.428777921943
C      0.051728203292    5.475749255532    0.384769970139
O      0.108483945918    4.733319142991   -0.698343658565
O     -0.197311662799    6.660558913734    0.390869842228
C      0.374298637468    4.729550858224    1.705547005882
H     -0.363845853880    5.076293637317    2.441795811145
N      0.246325608613    3.286267343028    1.468230317235
C     -0.522639803106    2.525214401369    2.200513521274
O     -0.837962167297    1.305717195923    1.898771228035
O     -0.116090795587    0.093709115708   -0.146938200864
H     -0.543446040331    0.915374167524    0.973309866479
C      0.927181376455    1.360018028436   -3.261593826742
C      2.168162647151    0.785582516583   -3.514853007605
C      3.351177100955    1.569025326832   -3.329715326605
C      3.233333849696    2.883365329640   -2.885732823878
C      1.975224592972    3.464165022195   -2.621477264831
H      0.020185315143    0.770859410321   -3.415029667527
H      4.134580603049    3.490231490727   -2.763582259968
H      1.894079681560    4.529520817717   -2.399799462065
C      2.267368474892   -0.640526033833   -3.992428701436
H      2.734511957100   -0.700880225419   -4.989940707340
H      2.888847756584   -1.248090699148   -3.314440732181
H      1.276674112431   -1.112081609924   -4.050518877816
C      4.707986474115    0.979574729618   -3.614939606203
H      4.937057762642    0.148681113090   -2.926793092868
H      4.766002596557    0.572082285499   -4.637432025650
H      5.501911054346    1.731328827287   -3.502265333950
C     -1.152658276440    2.994936374621    3.490973029001
H     -1.508202225194    2.113421235502    4.037844624291
H     -0.450171058718    3.561808287794    4.114563747869
H     -2.021507546435    3.637085491701    3.271433437004
C      1.780871944218    5.149378244636    2.198751314032
H      2.524861887876    4.811648624147    1.457855480845
H      1.790172942347    6.249832182030    2.190313811517
C      2.141138352890    4.633203125241    3.572916238426
C      1.826207968853    5.380493615889    4.720811436053
C      2.767366746978    3.387360411797    3.741336639717
C      2.120906570161    4.895411359038    5.998048342592
H      1.349453316594    6.359180763033    4.610069919071
C      3.063492114210    2.898522314062    5.017493174348
H      3.028768231595    2.793448435221    2.861609037533
C      2.739182973367    3.650158219392    6.150567543142
H      1.872633967860    5.495342864971    6.877546987103
H      3.553198176570    1.927270819773    5.125994683165
H      2.972959723574    3.270434404343    7.148398838219
N      1.908621763631    1.141760573556   -0.099559301425
C      1.138395775734    0.003374931872   -0.126011080908
C      1.854564137498   -1.253245667286   -0.118637169100
C      3.227609806514   -1.301046431559   -0.010496524215
C      3.944881017926   -0.090167949727    0.073477052916
C      3.253578932783    1.104603999198    0.017934090609
H      3.748255341578   -2.259459903023    0.015097851585
H      3.779459881724    2.059809935207    0.054339308967
Cl     0.918623276903   -2.710543324573   -0.234846025766
Cl     5.687615324722   -0.097749175943    0.205848091275
