59

C      0.866908836432    2.787463538052   -2.830631532753
H     -0.037592228406    3.394455213282   -2.756951274794
Pd     1.090731031397    3.005417092461   -0.412396966407
C      0.214873570517    5.581145857731    0.366563433323
O      0.349172856879    4.830638506688   -0.709350358342
O     -0.111747713968    6.748620944245    0.320066999198
C      0.532916212884    4.859307543881    1.699992286264
H     -0.248306936831    5.169136586737    2.408113266428
N      0.439723451216    3.415869167253    1.454226276846
C     -0.477902969443    2.636099405770    2.032462895150
O     -0.782713497523    1.490487657993    1.620388748293
O      0.043841053521   -0.003820695033   -0.149964974255
H     -0.339064563044    0.736601745153    0.499931872164
C      0.788918014338    1.448735909156   -3.273294280842
C      1.931889324522    0.705597820528   -3.553344257745
C      3.214400444571    1.313668215280   -3.393075325565
C      3.291081578937    2.632014336208   -2.950471047537
C      2.132633392778    3.383124187652   -2.663075918494
H     -0.194448246159    0.992703427413   -3.410381371307
H      4.271190494689    3.105587197774   -2.846124431451
H      2.206747707522    4.447708148674   -2.434639552313
C      1.817792556705   -0.717967739426   -4.036492772830
H      2.282375138311   -0.847978267023   -5.028464638214
H      2.329037688611   -1.416581969000   -3.353369615239
H      0.766821510976   -1.030446405970   -4.110798056031
C      4.467717050617    0.538840927733   -3.709387146113
H      4.556453299957   -0.357334242135   -3.072511184619
H      4.472293966015    0.184949769325   -4.753910447975
H      5.367345857691    1.151912646384   -3.556628159340
C     -1.230571916860    3.121086003590    3.265481198743
H     -1.712677216710    2.248114189002    3.721795736003
H     -0.582848544165    3.614495793567    4.001774400866
H     -2.017138831581    3.835427757308    2.971606828671
C      1.901576920817    5.343185470512    2.316118234804
C      1.703314266687    6.768616793966    2.868772807474
H      2.651045620056    7.155100559707    3.278304344067
H      1.347635468200    7.453292555725    2.086785413142
H      0.959851200990    6.776052304636    3.683284061920
C      2.307164415458    4.408216092400    3.469043525058
H      1.544758377635    4.392579193061    4.264666439399
H      2.456546717363    3.374902266608    3.122061161473
H      3.247462762181    4.757215902544    3.926158418258
C      3.029937749742    5.367944088389    1.267417287161
H      3.188604881036    4.375843421940    0.815035594916
H      2.814288523800    6.079877315849    0.455771674200
H      3.977814263362    5.675618292264    1.738128114425
N      2.016801317014    1.171308727739   -0.026233451988
C      1.346485180622   -0.006251022168   -0.075464765769
C      2.055908431658   -1.231581911866   -0.045782188064
C      3.435117249713   -1.254229441369    0.106714467787
C      4.097976510338   -0.010208901922    0.219488435823
C      3.358970479101    1.154496621485    0.142971729799
H      1.466123613021   -2.147903007673   -0.103475857940
H      5.178961644403    0.044342039281    0.361319589120
H      3.843848625533    2.130227202851    0.210155534780
C      4.204729435794   -2.546234335216    0.183182918923
H      4.700864351380   -2.646054427336    1.162955769899
H      3.552084131056   -3.418903779069    0.040552709198
H      4.998833715032   -2.578629184639   -0.580873522160
