62

C      0.841186512408    2.766675462525   -2.828724194408
H     -0.075677101795    3.349445546162   -2.724040318022
Pd     1.162917189979    2.999494828473   -0.423872275539
C      0.061186462063    5.517280661596    0.324336015936
O      0.283347221237    4.773925961965   -0.734653153605
O     -0.387354752772    6.644105151832    0.274589487053
C      0.457248889342    4.864540332697    1.670727495871
H     -0.339253373194    5.125843762867    2.378960404635
N      0.468016564036    3.404340332544    1.465763440191
C     -0.290971835397    2.618402667517    2.184257558635
O     -0.551991264954    1.386122469920    1.887519935713
O      0.051460548601    0.245058517069   -0.208652673404
H     -0.295309611642    1.017679994490    0.928408671305
C      0.785496407479    1.437626477378   -3.299733437565
C      1.940835296714    0.729983964693   -3.614515040782
C      3.213601589933    1.363701468246   -3.461706647574
C      3.268481279759    2.672173371202   -2.993858561596
C      2.096850270843    3.390440391139   -2.668407666487
H     -0.189013597115    0.960783588247   -3.425213302585
H      4.239147408195    3.163388081019   -2.891950182754
H      2.150034395741    4.457618817281   -2.445143377471
C      1.853534602814   -0.685353546560   -4.124732747979
H      2.314695935679   -0.785789006170   -5.121647238896
H      2.385232174358   -1.383845245341   -3.457450105623
H      0.809068706782   -1.019174931282   -4.197625253023
C      4.478713001971    0.622439818268   -3.808753261478
H      4.593250630292   -0.283693995669   -3.190943106759
H      4.478913041268    0.291335434119   -4.860816294159
H      5.366417806460    1.250220135996   -3.648941060138
C     -0.986431100020    3.062375395472    3.452894524801
H     -1.240293532540    2.164892476747    4.030408108653
H     -0.380332511200    3.739353712997    4.065356462739
H     -1.927441579065    3.576971674525    3.196753749717
C      1.789494187709    5.497218117417    2.239011031410
C      1.400537005917    6.810719879009    2.947405409276
H      2.301243864821    7.342178845804    3.295071671045
H      0.842681379645    7.469480097471    2.266381061995
H      0.766231014832    6.615195369475    3.828287783128
C      2.447414671848    4.543069655559    3.251071058191
H      1.769342959697    4.295403436466    4.083384610665
H      2.767442572615    3.600685116997    2.782206759894
H      3.337267671750    5.021638295170    3.690841085596
C      2.798449647438    5.829557796644    1.121687257176
H      3.033462019035    4.950797058003    0.503922261746
H      2.412431876887    6.613568899777    0.453681588201
H      3.741075587972    6.194199103737    1.560189125428
N      2.123257914011    1.178976728377   -0.099759480007
C      1.307520866671    0.092448988282   -0.181481097934
C      1.898986113637   -1.231330735225   -0.211943634981
C      3.241807268697   -1.394725080163   -0.061023164033
C      4.091160422523   -0.255584876163    0.111754171065
C      3.483234802640    1.039413618658    0.082141870413
C      5.488135630934   -0.371360928710    0.306167185663
C      6.282912287031    0.749417741499    0.471021763364
C      5.684741312783    2.026180950369    0.442764369203
C      4.320245205702    2.169735609417    0.249658147442
H      1.208814433050   -2.069231851590   -0.320480535192
H      3.687390578096   -2.394138567191   -0.054641513630
H      5.929334757970   -1.371959012101    0.327510061524
H      7.359570738382    0.648896181325    0.624841310898
H      6.302255593998    2.918078837399    0.577398450606
H      3.870019054361    3.160892336615    0.232042186060
