59

C      0.865436682657    2.748639508557   -2.812352463236
H     -0.048624956447    3.342068694977   -2.745686565802
Pd     1.079150038342    2.992542835146   -0.395071839518
C      0.205109293798    5.575859852797    0.360569601436
O      0.335516064073    4.814340180439   -0.708038843165
O     -0.121486814407    6.742813105820    0.303432453844
C      0.527590673725    4.867829835762    1.700228543555
H     -0.250498824988    5.186024238966    2.408018658446
N      0.431075208492    3.421884146995    1.469528577544
C     -0.480988156704    2.649871158349    2.063951128323
O     -0.788273780226    1.497413057650    1.669132515269
O      0.019790927768    0.008988538755   -0.101682333473
H     -0.355660460854    0.754107606742    0.558286622433
C      0.809348884750    1.406017123555   -3.246863399545
C      1.964460312737    0.679038490633   -3.519341317436
C      3.237279109797    1.307613924241   -3.359773635576
C      3.292132080543    2.629958254393   -2.926034397863
C      2.121555340617    3.364953444638   -2.646674486422
H     -0.166641414478    0.934289950991   -3.383905125678
H      4.264465381164    3.119355214587   -2.822294934836
H      2.178644225705    4.432051396689   -2.425487582573
C      1.874498580225   -0.748751089048   -3.995265881049
H      2.338244103269   -0.874929464479   -4.988139503398
H      2.401845944998   -1.435044825659   -3.311826090582
H      0.829000849192   -1.080218556243   -4.066120074176
C      4.503120792811    0.550072021196   -3.667502791041
H      4.605208834938   -0.338623829778   -3.022256199340
H      4.514864133298    0.187344872948   -4.708932796876
H      5.392536956965    1.178884042530   -3.519003271551
C     -1.227238264307    3.148561049091    3.294960491002
H     -1.705901018511    2.280795761788    3.764600668954
H     -0.575875224556    3.651415512328    4.021505630976
H     -2.016156203282    3.858532367273    2.996830434426
C      1.899333604862    5.356409229141    2.305835084269
C      1.703363743804    6.786735697245    2.846583188263
H      2.653050789646    7.177205961017    3.247632533574
H      1.343422719601    7.464197064379    2.060284363298
H      0.964211856211    6.801225862001    3.664882429591
C      2.310125644400    4.431820603477    3.465264641302
H      1.551358842217    4.423204679184    4.264460687123
H      2.458788999759    3.395467694775    3.127085121086
H      3.252269309169    4.785263821267    3.915033576999
C      3.023095918433    5.371908819460    1.252055282304
H      3.180285624346    4.375924884373    0.807853271905
H      2.803945885308    6.076698734856    0.435160989870
H      3.972836077071    5.683863703799    1.716078960702
N      2.005159457009    1.160190561571    0.002537227946
C      1.324216397514   -0.008709407049   -0.036362537658
C      2.007835841812   -1.261072669957   -0.006640997748
C      3.387871312637   -1.241047022336    0.136097504340
C      4.077724412279   -0.020461914908    0.242959650028
C      3.348454519664    1.150977201043    0.165090138687
H      3.936273478227   -2.186205155683    0.187508791338
H      5.159292341327    0.015389942389    0.379382509740
H      3.832368363280    2.127333790427    0.223879680835
C      1.197812997185   -2.524347452707   -0.083629141256
H      0.456632788791   -2.561841516312    0.730721433170
H      0.621818340766   -2.571233139584   -1.022211192530
H      1.840707711667   -3.414193210251   -0.021012806712
