57

C      0.884825814182    2.783527504007   -2.893157647809
H     -0.009723139844    3.407517094979   -2.843832304613
Pd     1.081083726598    3.032781845487   -0.476877798808
C      0.242887419558    5.623027790804    0.256388040533
O      0.380027330023    4.867624591095   -0.810206414636
O     -0.058350563073    6.796332155678    0.217019395890
C      0.504322022563    4.892281458201    1.605216913893
H     -0.301632730559    5.236834812284    2.271493953983
N      0.400350141677    3.454313542147    1.372592445296
C     -0.434240232021    2.659738040276    2.045606200667
O     -0.747840015766    1.502985420437    1.677998201908
O      0.001368424967    0.046169154730   -0.167715450572
H     -0.369184624410    0.766524756404    0.507127429672
C      0.789470304599    1.440248123271   -3.318033726991
C      1.923328176062    0.673152085303   -3.568790395066
C      3.214028087710    1.260674324974   -3.395786913312
C      3.307504383034    2.583345118848   -2.970061193667
C      2.158139187127    3.359202416849   -2.711896256044
H     -0.199659269325    1.000101873267   -3.465071936097
H      4.293984264380    3.041086756558   -2.856313071111
H      2.247589456690    4.426079701927   -2.499401578362
C      1.791712030987   -0.754601083730   -4.034621295252
H      2.268721152244   -0.905558290360   -5.017673872586
H      2.281106549149   -1.452636520588   -3.335099958381
H      0.736761524297   -1.050113524942   -4.120790635940
C      4.457581032753    0.458620563970   -3.681330715722
H      4.516481230187   -0.433632022063   -3.035392729895
H      4.474183131823    0.094342967008   -4.722176574423
H      5.366179886575    1.055646963574   -3.518462499105
C     -1.050358849871    3.155914255773    3.347192095444
H     -1.420181685524    2.280446265642    3.895003802169
H     -0.337274025878    3.713017841757    3.971008876394
H     -1.908729851269    3.814391001727    3.135197756979
C      1.835688340212    5.324375014057    2.230078992925
C      2.753065840287    4.380236103084    2.712350636196
C      3.950683376375    4.789252848348    3.310952879760
C      4.246707649872    6.148096034575    3.436043663861
C      3.334156334878    7.096103890067    2.959786098754
C      2.138426800264    6.690745317637    2.363667583256
H      2.521055810314    3.317529179721    2.622357102137
H      4.652334850414    4.038364107486    3.685001451428
H      5.180982748337    6.468713587399    3.904397694100
H      3.554510936618    8.162879399922    3.053648030491
H      1.431111360955    7.429613947754    1.982034392567
N      1.984921259964    1.205134540298   -0.045713088536
C      1.305740887270    0.035433204349   -0.085569590678
C      2.018860778577   -1.186658286201   -0.034207118317
C      3.390981724498   -1.174812462376    0.131463964430
C      4.088288409033    0.047778941148    0.249903714932
C      3.325143991983    1.203162325045    0.145093654612
H      1.443828587457   -2.111844807882   -0.088631474124
H      3.937947748627   -2.120507881170    0.195467518634
H      3.794316216268    2.187740804844    0.210022784728
C      5.577703448936    0.099550084682    0.475126944875
H      5.940928375034    1.136381542735    0.528203386735
H      5.858244832836   -0.401151620312    1.416813143179
H      6.126781530868   -0.407476529767   -0.335808817714
