59

C      0.813037692009    2.698440438841   -2.805013819277
H     -0.149714408756    3.211408810724   -2.750597757942
Pd     1.003890183812    2.964427030519   -0.426862659051
C      0.119802977165    5.536735542729    0.351619993084
O      0.196371318432    4.771956274220   -0.715295096755
O     -0.206076001237    6.704418301689    0.318399657873
C      0.503024221594    4.838062972283    1.682685850877
H     -0.227412574119    5.182343821996    2.426693273197
N      0.354184505388    3.387392966769    1.469876483624
C     -0.484203417442    2.672685903854    2.172756352138
O     -0.830064302107    1.458485875037    1.883791447510
O     -0.080308328524    0.126038863975   -0.060061499677
H     -0.504265593476    1.019439334315    0.985645015503
C      0.873002892495    1.354937412740   -3.242828778710
C      2.084787729122    0.734552895956   -3.525445669496
C      3.300635878139    1.474170481176   -3.375188757988
C      3.242719066917    2.793356776498   -2.934401441507
C      2.013447172467    3.422872705074   -2.645458315976
H     -0.058748136990    0.799129873649   -3.370783246644
H      4.168638646599    3.366545910925   -2.836886344969
H      1.978613042015    4.492504957025   -2.432841858610
C      2.120108974868   -0.695207986034   -4.000761163722
H      2.582670748582   -0.777963292579   -4.998621385418
H      2.716098403010   -1.327593974895   -3.322378528652
H      1.108959311460   -1.121638602646   -4.058481000364
C      4.625629967937    0.834615735283   -3.698699134462
H      4.835047868699   -0.019173325155   -3.033854688867
H      4.645076530471    0.447493113851   -4.730800214559
H      5.452318226234    1.550698561416   -3.589106892132
C     -1.178023409608    3.189397526290    3.414002728367
H     -1.604042291683    2.331743792777    3.948128289842
H     -0.502296429427    3.740782283491    4.078677463236
H     -2.003067347758    3.862396753790    3.128697418026
C      1.918819544015    5.293813540230    2.206130079799
C      1.769932859429    6.720948097975    2.771083736749
H      2.747399501868    7.099436361457    3.110985997421
H      1.365938058878    7.407930891157    2.014859328475
H      1.086605281741    6.734992299819    3.636483565211
C      2.388563723561    4.352386809276    3.329655543465
H      1.677380820918    4.334767390560    4.171304924092
H      2.522203077765    3.319926248500    2.972929745937
H      3.354646876231    4.698878514709    3.730182839821
C      2.978989262705    5.311574953141    1.088405433462
H      3.108422529950    4.319793223196    0.626450618299
H      2.718176163225    6.026000593282    0.292619548991
H      3.954555698801    5.613832615164    1.501494783857
N      1.951104621517    1.163458458397   -0.075811631600
C      1.174940606586    0.020623047084   -0.051454463901
C      1.857057163218   -1.244795375593    0.000866500620
C      3.224973090432   -1.302792748922    0.099935780498
C      3.976666553058   -0.101556678631    0.132549127935
C      3.290790868301    1.096631612299    0.033371129409
H      1.235095222574   -2.140785139059   -0.008397871979
H      3.734992479781   -2.267660154148    0.165690839246
H      3.829984900143    2.045238034631    0.036128962318
C      5.469323592485   -0.142725707740    0.232739511616
F      5.885717407708   -0.829002592114    1.313491111440
F      6.024287322552   -0.761055981120   -0.838560932751
F      6.011449204554    1.086179855195    0.300360099988
