56

C      0.812342090943    2.838226869057   -2.820194671179
H     -0.099270801906    3.433421567672   -2.738777750478
Pd     1.044589774256    3.033482792897   -0.401526540954
C      0.067642562758    5.554025153961    0.419780030353
O      0.252787734801    4.841651107143   -0.676018546156
O     -0.362599430460    6.687326167973    0.411118861096
C      0.483436319452    4.827779189598    1.723292227689
H     -0.222430334805    5.143276540197    2.505823852343
N      0.377369984493    3.388079494185    1.467549091947
C     -0.514318979204    2.588843432633    2.054770729690
O     -0.810234134575    1.443166628096    1.634789416999
O      0.072975651343    0.003624504786   -0.155897268430
H     -0.337269797678    0.719097567181    0.508609168952
C      0.749644763806    1.501037049992   -3.269106529352
C      1.901156709393    0.773171943304   -3.554983741949
C      3.176313156197    1.396263747175   -3.394849636624
C      3.237856956224    2.713511039872   -2.946351745402
C      2.070904790318    3.448666226394   -2.651705660166
H     -0.228354217641    1.033609048020   -3.405892536787
H      4.212455278040    3.198547456909   -2.842936641410
H      2.131906181308    4.513201977669   -2.418358252076
C      1.803450492861   -0.649633945813   -4.043822004156
H      2.266011889472   -0.769314527752   -5.038041214464
H      2.326431709850   -1.344602875331   -3.365882679921
H      0.756329604004   -0.975212941926   -4.115661686541
C      4.438055359333    0.637710390780   -3.717330474488
H      4.536532045528   -0.262996974749   -3.088160057689
H      4.446057886470    0.291669573748   -4.764483887463
H      5.331057466419    1.259548688937   -3.560911695713
C     -1.233599649529    3.052628520266    3.314975142647
H     -1.714884058233    2.175583551311    3.764307804204
H     -0.556413392048    3.518796429990    4.043820715185
H     -2.015568128037    3.786455868246    3.060323238948
C      1.912790165931    5.251303866119    2.171380900238
H      2.585984925566    5.046132106754    1.316653431861
C      1.987332433205    6.749722887239    2.491704091981
H      3.021596820431    7.037168832898    2.741126994133
H      1.641358457277    7.369947140454    1.654209020512
H      1.355972040788    6.993659898725    3.363392812102
C      2.397518791965    4.414694372881    3.360927666947
H      1.774111736201    4.597855944097    4.253164813906
H      2.368666221045    3.337384719119    3.140894320641
H      3.432836554408    4.683268812435    3.626764065266
N      2.017782289464    1.227757366676   -0.025446344385
C      1.375445511287    0.037423962239   -0.078956866307
C      2.128785279075   -1.162315473833   -0.052147174818
C      3.500618684411   -1.109691028116    0.103434375452
C      4.159973354474    0.132808717710    0.234645000743
C      3.358913519934    1.263805660607    0.154112757282
H      1.582993103950   -2.104314100724   -0.118155728057
H      4.077828014742   -2.038387487897    0.148081255100
H      3.798587285786    2.261305048501    0.226718640626
C      5.648754134322    0.228327031062    0.449315033327
H      5.981607361817    1.275374975557    0.503058074832
H      5.951093000955   -0.265933679228    1.387732006559
H      6.207114453376   -0.259814992061   -0.366815918640
