# STO-3G

title

0 1
C      0.250552935108    -2.600664984695    -1.027394456986
C      0.513797339987    -2.334422249003    -2.385537668566
C      1.090322661886    -3.330868639370    -3.198663118425
C      1.397401632798    -4.592494285219    -2.651245443782
C      1.122819876194    -4.859908717397    -1.294340836984
C      0.548179652930    -3.865247306299    -0.478751495476
H     -0.180812311578    -1.834032118036    -0.389914282315
H      0.258440695605    -1.366665729099    -2.816065598791
H      1.290582790370    -3.129152538335    -4.248895081144
H      1.838607699157    -5.363618502520    -3.279406541679
H      1.348562211744    -5.838522571202    -0.876402512359
H      0.338251270087    -4.057237161310     0.570117928189
C      0.917724289461     1.684946485535     0.837575309680
H      0.382978225000     2.374682134737     1.479210113875
H      1.998593577612     1.700236721936     0.912906105577
C      0.291074796137     0.970672785426    -0.177526943925
H      0.888021368294     0.391073866729    -0.866514099547
C     -1.118682207422     1.151152491103    -0.570423254558
O     -1.831860529327     2.024783379644    -0.008676997634
O     -1.613017972506     0.376146280938    -1.633613869465
C     -2.953635094945     0.666741826321    -2.053904291036
H     -3.232282965992    -0.009130723649    -2.891293884250
H     -3.676462644674     0.505721063802    -1.222877111915
H     -3.035805234597     1.717710428460    -2.413507625813
Pd     0.463238035626    -0.451190157611     1.617284003410
C     -1.285500066319    -2.476618402128     2.678130325563
O      0.031721973065    -2.265870528548     2.412600962403
O     -1.747081742730    -3.588330996519     2.989311821889
C     -2.195715754529    -1.196217160271     2.542473821039
H     -2.860858035253    -1.186990183323     3.415716003254
C     -3.047904020005    -1.234351428271     1.296510099771
H     -3.636731124709    -0.296578483494     1.224740237869
H     -2.406251584566    -1.327010574432     0.399819068410
H     -3.741591810620    -2.100110976272     1.336107239291
N     -1.305882105778    -0.030457088166     2.462369231337
C     -1.099513119751     0.881451087627     3.421308031705
O      0.031895343371     1.470595802015     3.607576966128
C     -2.231941586647     1.293128267179     4.275606453415
H     -3.081219341181     1.546201627077     3.616857043180
H     -2.477326727296     0.470485583732     4.965593536131
H     -1.932978051643     2.184091527749     4.858412769596
N      2.524152294491    -0.750008843528     1.583229412353
C      3.238233551301    -1.664750719194     0.857938304530
C      4.584722489453    -1.837299715259     1.104856354465
C      5.216065556016    -1.108988459878     2.088927050014
C      4.475023471627    -0.211797062248     2.812683968345
C      3.097916328189    -0.066397159710     2.542062775283
H      2.757752086788    -2.231767058740     0.073028430062
H      5.140149487245    -2.555363814959     0.524073994116
H      6.275234009523    -1.246386416885     2.289689715630
H      4.903680519388     0.372965978818     3.602058725835
O      2.494556449196     0.805786323367     3.322852723176
H      1.461380117057     0.998829435898     3.341721856577

