# STO-3G

title

0 1
C     -2.907588681765    -0.787650522587     0.326266947894
C     -4.071210011535    -0.706135585397    -0.465814834778
C     -4.895276691736     0.438801447088    -0.406029570088
C     -4.562634412306     1.500428319392     0.466965976449
C     -3.415404005275     1.403030175398     1.284585085801
C     -2.589549606836     0.261893416277     1.213458406574
H     -2.252656501583    -1.647204507765     0.219679764340
H     -4.320192962193    -1.522006678518    -1.139283438593
H     -5.793746770591     0.497680008279    -1.016101422197
H     -5.202756302976     2.377684462416     0.527501915748
H     -3.163165173565     2.210618452508     1.967636434944
H     -1.689543314729     0.209926767492     1.819285510034
C     -0.482842985938    -1.051344659928    -2.606245882447
H     -0.817866436149    -0.152915961462    -3.107938400694
H     -1.232631466553    -1.732143723145    -2.218923001642
C      0.851105776668    -1.444888075057    -2.575311750634
H      1.086070008729    -2.416972621078    -2.172655791284
C      1.964202847448    -0.741437774941    -3.233376727587
O      1.768099577410     0.367750847253    -3.796839388664
O      3.261964723599    -1.261632268990    -3.083100946128
C      4.314172138520    -0.508716322115    -3.703125189487
H      5.286213553782    -1.017328154891    -3.525636717836
H      4.154691813687    -0.438155563207    -4.803281421370
H      4.374138609605     0.516960956874    -3.273003438745
Pd     0.407555136449    -0.350738781687    -0.604582303559
C      1.686250723477    -0.454632864570     1.963237867365
O      0.959627421780     0.397941261572     1.201763812527
O      2.202852202959    -0.133520425269     3.050304001264
C      1.850473229938    -1.878649964187     1.341674886966
H      1.818308067589    -2.587245146809     2.179575109057
C      3.185987656342    -2.022387846494     0.641434756698
H      3.286939122379    -3.048804414111     0.233583857322
H      3.248005423888    -1.301108679801    -0.199436864407
H      4.015787762626    -1.830440366678     1.353590100240
N      0.794198091647    -2.088489913113     0.335616316787
C      0.016083002335    -3.171176017064     0.163665840134
O     -0.921251063882    -3.246676418203    -0.694119549301
C      0.271007126762    -4.366517403971     1.004307911348
H     -0.411088259125    -5.173045489205     0.678425438161
H      1.316098773518    -4.683126061350     0.854764061162
H      0.058274969682    -4.113191115668     2.056885593248
N      0.065127706838     1.638080888550    -1.144635512250
C      1.071106307126     2.501791147312    -0.798317026517
C      0.835177645683     3.863567071232    -0.774527800349
C     -0.406208889244     4.363273514958    -1.100168036056
C     -1.391873052145     3.478238002341    -1.456197853351
C     -1.094597133429     2.094008141937    -1.469143667452
H      2.050353899159     2.115692553155    -0.539960041592
H      1.631336651529     4.532106028906    -0.492079032120
H     -0.595172945545     5.433330893529    -1.085859024233
H     -2.363439039046     3.813338768906    -1.752490582812
O     -2.061959446144     1.251726944133    -1.863009958947
H     -2.968463311948     1.431781649540    -1.533671537652

