62

C      2.228826779810    4.167813194797   -1.597858362845
H      3.229835709956    4.474675092083    0.290357793599
C     -0.284922515084    2.963164639425   -2.357469908261
H     -0.916460406004    2.077274018321   -2.245694004962
H      0.417480765104    2.965964339288   -3.192833836578
C     -0.711303299476    4.172390195562   -1.784509117600
H     -0.313916675566    5.130241253164   -2.130959986662
C     -2.041824804614    4.240159793487   -1.089340921221
O     -2.957450808163    3.485039198480   -1.298526313473
O     -2.102066265564    5.274306618912   -0.227271559979
Pd     0.785588097162    3.262425803777   -0.528730252807
C     -0.898089126103    2.841148176439    1.885769069633
O     -0.725884092203    2.391661832117    0.669603114159
O     -1.790898253043    2.509621080799    2.637588209229
C      0.109353096470    3.910752341527    2.363065757384
H      0.347693211780    3.670720915942    3.410790662698
N      1.289541707577    4.038217654310    1.520242078766
C      2.413058397698    4.417075543063    2.008726047762
O      3.487696403614    4.572222737075    1.232357837641
O     -0.005689571400    0.038401632850   -0.116670454785
H     -0.401788071336    0.910558728027    0.187693422194
C      2.380318938473    5.565759391930   -1.556112611351
C      3.389308624897    6.235714157162   -2.271373703984
C      4.277217473380    5.485738752325   -3.075380905317
C      4.113708013264    4.094556531349   -3.130176428296
C      3.107726506186    3.437955500865   -2.413238276932
H      1.700943173949    6.165879371826   -0.942823976514
H      4.790145049615    3.505038604781   -3.756950683528
H      3.013006229545    2.353416476244   -2.500569367628
C      3.513083643706    7.736837662742   -2.179954762525
H      4.498775991814    8.040599614215   -1.787753790510
H      3.410770960569    8.213615375492   -3.169735616711
H      2.743557757965    8.164169463080   -1.520886612625
C      5.371496373507    6.163386468086   -3.862325186976
H      4.964271665336    6.896041646698   -4.580010713813
H      6.061831119737    6.720435096012   -3.205877593163
H      5.966170876875    5.433736225208   -4.430864620592
C     -3.329640315843    5.412480194460    0.517088145929
H     -4.176656659974    5.384637744598   -0.186005019138
H     -3.429344060619    4.543511033725    1.187660961940
C     -3.271947774517    6.717450047068    1.283561804780
H     -3.160912920437    7.574595832744    0.601100126179
H     -4.199971224838    6.852646610336    1.860555689758
H     -2.427926495291    6.728414909703    1.991018567749
C      2.690399689941    4.738152408992    3.453581046256
H      2.080007994722    5.593817896369    3.782307253145
H      2.437078529186    3.885115723690    4.101207867134
H      3.751058336583    4.986055839820    3.579779562426
H     -0.441732085620    4.868773847056    2.372954237052
N      1.995391515142    1.210987402588   -0.027158184829
C      1.315242535938    0.051953684361   -0.061398559735
C      1.994770432510   -1.189957236437   -0.052037273901
C      3.373442501302   -1.204930793838    0.039965998327
C      4.094272993511    0.005020132790    0.131161741210
C      3.338241158364    1.172214446551    0.089539819595
H      1.400841490149   -2.103636689013   -0.100660214497
H      3.906308001184   -2.160673283094    0.055442747403
H      3.839461821043    2.141906160309    0.147390279641
C      5.595379498470    0.033834344958    0.263477227482
H      5.976029826307    1.065861434066    0.286885490677
H      5.929547527194   -0.466682667030    1.188139085038
H      6.085226733838   -0.484761368705   -0.577796278014
