73

C      2.073293450368    4.792027253100   -1.311106228820
H      3.399754009173    4.311707688585    0.170950071812
C      0.099754335393    2.533061426354   -1.965020432541
H     -0.412058547845    1.661355797709   -1.548768458150
H      0.999332617840    2.362131813009   -2.558372027946
C     -0.549701940926    3.750568028558   -2.008434181855
H     -0.169267242799    4.574132470942   -2.616010993408
C     -1.977522104134    3.885094280798   -1.558387543538
O     -2.696395150101    2.964545523016   -1.262467200704
O     -2.351362893037    5.177856935298   -1.568628385878
Pd     0.781467611536    3.693113289313   -0.222800891153
C     -0.367606433427    2.828405442965    2.348331333957
O     -0.447830588120    2.552209059456    1.068728944400
O     -0.947314522081    2.220131576996    3.224237635097
C      0.547914195128    4.028294811941    2.708054988385
H      1.003376107163    3.767653569472    3.672701623672
N      1.591339808134    4.151216193825    1.676808732210
C      2.846723867335    4.113724663414    1.985715987982
O      3.793071329292    4.181592328962    1.064217283136
O     -0.181632982959    0.029785413691    0.481090202266
H     -0.317075099685    1.001067786349    0.739960839281
C      1.999012731730    6.196810324835   -1.300826209466
C      2.882971124225    6.999896615234   -2.037105478745
C      3.894122470658    6.383231016155   -2.814960468166
C      3.971983529629    4.986511345231   -2.821798740515
C      3.076081317781    4.192964532740   -2.090412994263
H      1.227971180638    6.693265010029   -0.704188342182
H      4.751571283616    4.498276879950   -3.414255089077
H      3.186604816048    3.105192894911   -2.127114777703
C      2.756710637601    8.502811518257   -1.995376890892
H      3.678076499039    8.977419612576   -1.617049819907
H      2.579785234044    8.922603584850   -3.000244779806
H      1.925554320565    8.818554065030   -1.348521654536
C      4.867641433175    7.211659072244   -3.615756854063
H      4.350630519052    7.843561415555   -4.357959910000
H      5.446243831953    7.895839628215   -2.971911842704
H      5.583268504145    6.576220608678   -4.157048328702
C     -3.713367032726    5.475591423153   -1.197607532870
H     -4.015310351844    4.797171215804   -0.386430258816
H     -3.675801005724    6.504415789935   -0.812285262952
C     -4.654905617185    5.361657099426   -2.384584921197
H     -4.707425700050    4.323855986722   -2.745341191339
H     -5.669459493922    5.669570824162   -2.085106721624
H     -4.328550472721    6.011142527351   -3.211794189652
C      3.415020993658    3.967432782957    3.373135740750
H      3.073182376277    4.774731789458    4.034850463025
H      3.098818996268    3.010482806814    3.815868400251
H      4.509432452330    3.989391386233    3.313348805548
C     -0.268715851899    5.354636026405    2.949524000971
C     -1.247183113976    5.648697842446    1.798345423379
H     -1.780733805602    6.593046550044    1.993360824947
H     -0.732044349851    5.754805665783    0.830766962676
H     -2.000454805240    4.853376786798    1.693217944963
C     -1.067014261579    5.187622157833    4.257937789926
H     -1.732418048732    4.314772169349    4.215959872855
H     -0.393835782842    5.049862351631    5.120156982250
H     -1.673393110992    6.088114875918    4.446887050584
C      0.699211716573    6.542126660304    3.104616194987
H      1.404969261920    6.386228821990    3.936895282112
H      1.281171360025    6.723722886168    2.188241781297
H      0.133476581954    7.460415150530    3.329256981082
N      2.036898056729    0.639754456898    0.514514985032
C      1.086812406163   -0.305084805197    0.399934763656
C      1.406497717648   -1.672511404412    0.178195730617
C      2.732711651394   -2.041211010665    0.082165756501
C      3.709829253812   -1.040015713885    0.208789922186
C      3.315998870799    0.280605937745    0.423454627350
H      0.594095583673   -2.395490346212    0.095725296399
H      3.040341586990   -3.074000912877   -0.084113902824
H      4.074694367999    1.062401155951    0.519167417030
N      5.127211384588   -1.374457346072    0.113642853302
O      5.936740408859   -0.464089534674    0.231306261877
O      5.420763910009   -2.545930238007   -0.079515904570
