74

C      2.090469829294    4.648670089326   -1.280692157513
H      3.375134669427    4.207016712287    0.239244361028
C      0.049498473880    2.459593028308   -1.922601001762
H     -0.477323220630    1.598233840954   -1.503629485246
H      0.944087113733    2.268152423290   -2.516967270221
C     -0.570540382841    3.693218406717   -1.962995154142
H     -0.170615272912    4.508152800028   -2.569743692423
C     -1.995824909989    3.862427760592   -1.519648530282
O     -2.744686477459    2.961036713765   -1.239976948063
O     -2.334721248489    5.166489162964   -1.519678202969
Pd     0.764918228591    3.597899141049   -0.183088815075
C     -0.451812783101    2.810781757664    2.377428338401
O     -0.512810003827    2.518409531222    1.103601698421
O     -1.074334418207    2.241929637812    3.251943415593
C      0.495548380098    3.986188194280    2.744841088121
H      0.933802196180    3.715035439508    3.714824335365
N      1.552493854883    4.084592062831    1.725632556563
C      2.802189590387    4.034404076933    2.049447741413
O      3.761140068932    4.088645378242    1.137349525927
O     -0.099512098665   -0.022319993372    0.453791354341
H     -0.280808287741    0.920583926798    0.738657678119
C      2.048381330405    6.055078351725   -1.302643370786
C      2.954789839636    6.822563360157   -2.049532318706
C      3.956429716450    6.167016453996   -2.807216551946
C      4.003172670326    4.768939696730   -2.782648497239
C      3.086109287245    4.011620559822   -2.039424832207
H      1.284491622692    6.581161322059   -0.722282991829
H      4.774998591381    4.251244973673   -3.360451809796
H      3.171516718405    2.921055818591   -2.048953116907
C      2.861786798698    8.328640459305   -2.040932195095
H      3.790929318838    8.791370302030   -1.666562444391
H      2.700042590644    8.731051918981   -3.055524462072
H      2.033783919910    8.676110151748   -1.406348902526
C      4.952273259398    6.956110760311   -3.620494884389
H      4.453572250510    7.582766002195   -4.379549844504
H      5.542939603971    7.641745787030   -2.989103661696
H      5.656314745669    6.293153189661   -4.143920617734
C     -3.689362814138    5.496154190343   -1.153227621359
H     -4.015151178636    4.816725207990   -0.352180132710
H     -3.627519031151    6.519035949629   -0.755143195640
C     -4.626873701979    5.421731961391   -2.346795081931
H     -4.704544870980    4.389923657448   -2.719968832169
H     -5.634812554163    5.753281093813   -2.049942893404
H     -4.277928847609    6.071521725311   -3.164571782275
C      3.354005645135    3.884504584851    3.443285014244
H      2.994937335640    4.680599901291    4.108907510679
H      3.042118785976    2.919106842352    3.871057243778
H      4.448900195747    3.917987645783    3.398652082644
C     -0.290484384232    5.333756303316    2.974400374671
C     -1.260812393492    5.637463399412    1.818914598226
H     -1.770390431610    6.597745819967    2.000546882928
H     -0.742583233401    5.715025124907    0.850689159697
H     -2.033768206175    4.859887350239    1.725244235300
C     -1.092872039157    5.197935846346    4.283827089856
H     -1.771720066340    4.335217149659    4.251085586840
H     -0.422513472643    5.059782647994    5.148393076195
H     -1.683875396827    6.111208390365    4.460729666011
C      0.701671009021    6.502656556044    3.117943375601
H      1.405473359771    6.340511519050    3.950737342242
H      1.285770176840    6.664345588743    2.199276152881
H      0.154570656979    7.434058514142    3.335132554086
N      2.081131384490    0.730778365107    0.410388420593
C      1.202632162920   -0.269381402158    0.322874184178
C      1.584165756802   -1.620162054315    0.078920167985
C      2.944664019777   -1.869040824520   -0.063545793799
C      3.876288731641   -0.822487247878    0.035356334701
C      3.388024191042    0.456027993328    0.274137194554
H      3.284922349239   -2.892381915790   -0.249445480202
H      4.948121844828   -1.001474786286   -0.069308530563
H      4.070298601027    1.309512741978    0.363403510933
C      0.529733705679   -2.687772210428   -0.004184924725
H     -0.063532744989   -2.727827999002    0.924004008525
H     -0.187969096405   -2.475508997349   -0.813923333325
H      0.975918280721   -3.677572338728   -0.181432039772
