65

C      2.176616343209    4.225796747057   -1.439690886406
H      3.282628967266    4.414617845741    0.334209355064
C     -0.286871858284    2.819653685905   -2.128736009836
H     -0.912195536677    1.944622785980   -1.931231790513
H      0.430947382737    2.743961459150   -2.947568455983
C     -0.720585461876    4.075580744731   -1.686162401180
H     -0.307402824865    4.993337187406   -2.110129474712
C     -2.058895121723    4.230615642820   -1.030743352590
O     -2.911567062832    3.380389938866   -0.980757338041
O     -2.218343125699    5.480206345316   -0.541977142298
Pd     0.790310954841    3.270855173546   -0.333846604819
C     -0.590119970539    2.583960422053    2.201444843876
O     -0.624638664456    2.323391454781    0.918075299708
O     -1.230421771241    2.001326681526    3.050821034192
C      0.312725445557    3.772998247887    2.621345900571
H      0.681923559754    3.509058698480    3.623523252630
N      1.424243831427    3.958549747867    1.682183729431
C      2.596514272915    4.269972215124    2.104153744874
O      3.610751114670    4.457704680926    1.259009259902
O      0.009740032045   -0.004111750826    0.000551811224
H     -0.354440370299    0.862889970860    0.364922980815
C      2.285785755118    5.628109731249   -1.398245379983
C      3.247122607162    6.330838183436   -2.145327778348
C      4.132131188020    5.610513083685   -2.980328302499
C      4.014006460817    4.215117633749   -3.031121174566
C      3.053490844506    3.525274460271   -2.282462190226
H      1.607952061712    6.203576083901   -0.760245810497
H      4.689986248869    3.648196389261   -3.678834435728
H      2.995723096201    2.437714990815   -2.365044457715
C      3.325536455753    7.835096057435   -2.055116270583
H      4.313585008278    8.170055265842   -1.695618387620
H      3.174712020879    8.309291143073   -3.039931005960
H      2.565124121332    8.236486135437   -1.369714249752
C      5.176607998667    6.324651618938   -3.801837047973
H      4.721540840582    7.044209397125   -4.503849979478
H      5.869582763192    6.903536149557   -3.167457268614
H      5.775745974525    5.615655568739   -4.391421207596
C     -3.494812360349    5.773178219925    0.053990033056
H     -4.289415933614    5.509299117358   -0.662158536041
H     -3.632055386498    5.127225568189    0.936506168840
C     -3.521110856191    7.243877336095    0.414837878094
H     -3.376126920285    7.871747303860   -0.478004532541
H     -4.492857671287    7.501752237307    0.864047573263
H     -2.731439456844    7.490753831052    1.141350045395
C      3.008792820500    4.449509848323    3.542873089096
H      2.373520801392    5.190372255695    4.049329386714
H      2.914706279599    3.499594070672    4.091848388743
H      4.052767200071    4.782485815605    3.583684447743
C     -0.538053760036    5.047335230507    2.728560337479
H      0.057972470521    5.892155526687    3.109924808859
H     -0.940949910943    5.325593343972    1.743254931292
H     -1.375712652128    4.868831889486    3.418849293885
N      2.029345813754    1.133841050602    0.061186525879
C      1.331733324689   -0.012391452426   -0.008601961568
C      1.992433406311   -1.261189983957   -0.105846241083
C      3.373803584967   -1.296907884082   -0.085256017083
C      4.116066988803   -0.102775154825    0.038637469513
C      3.374916404184    1.073437821027    0.104923485480
H      1.384266931704   -2.164037259399   -0.176848085830
H      3.893071077878   -2.257978726331   -0.152281321099
H      3.892333167277    2.032976594055    0.194739915835
C      5.622260499193   -0.099184040839    0.095216944222
H      6.018511231514    0.925388591672    0.158543691923
H      5.995743999656   -0.656240485036    0.971327966854
H      6.062060637725   -0.573504613098   -0.798317944599
