71

C      2.118760037996    4.551370199383   -1.211434452625
H      3.413843875493    4.106611616888    0.352934139808
C     -0.104179156383    2.630071505137   -1.928737208321
H     -0.621837568822    1.729663476916   -1.586981426416
H      0.726556311794    2.506318987711   -2.625290730907
C     -0.691180049682    3.869948704383   -1.749887948460
H     -0.322415342736    4.753822727866   -2.275571955038
C     -2.066535167712    3.995994068858   -1.157580182106
O     -2.843773469397    3.086669877263   -1.019183905917
O     -2.336323501439    5.277454881542   -0.841387095981
Pd     0.768204164388    3.528599142428   -0.126265416247
C     -0.392754695834    2.697738527682    2.433925760393
O     -0.544173782534    2.465957750542    1.153733190193
O     -0.866211781019    2.031224732342    3.330597554028
C      0.454801766206    3.958905535459    2.755357063673
H      0.827880064751    3.829737903483    3.781353681633
N      1.560539965907    4.015614407058    1.788593305319
C      2.797029024923    4.011621195625    2.152725890213
O      3.780830341305    4.029319067314    1.262383205948
O     -0.172090760973   -0.003020650793    0.302655883220
H     -0.355210169915    0.911686797036    0.673296188876
C      2.131380968031    5.958135941567   -1.214632594643
C      3.072347992399    6.698115088426   -1.947050008541
C      4.050721603859    6.012683503642   -2.708228715469
C      4.040908101519    4.613356278552   -2.702571711902
C      3.090595065449    3.883568785885   -1.973934311145
H      1.386194214915    6.505400415552   -0.629384224911
H      4.793209382172    4.072974647443   -3.285353686425
H      3.125673170532    2.790733755068   -2.001444009271
C      3.040161329526    8.206526761980   -1.918928594445
H      3.984979623446    8.626494507148   -1.533520647660
H      2.900818264743    8.628521467837   -2.928880657067
H      2.223176483870    8.578876901764   -1.284169252822
C      5.081565496671    6.771441678383   -3.506686582983
H      4.612294474563    7.427411004761   -4.259751279621
H      5.696409141287    7.424480874426   -2.863869174902
H      5.760832371917    6.087381009422   -4.035685205873
C     -3.641822997339    5.539993547374   -0.292809946005
H     -4.400640364132    5.097507477390   -0.957389824692
H     -3.724804887378    5.025575921843    0.678524882249
C     -3.805973275570    7.039317173548   -0.159299429761
H     -3.716434753561    7.534935771266   -1.138371291421
H     -4.799570349193    7.270839604086    0.254872148436
H     -3.046099755243    7.465046355951    0.514070012666
C      3.300635579237    3.978278492326    3.571325485701
H      2.928310282487    4.840718556369    4.142571480249
H      2.958151502355    3.064092631530    4.079414094206
H      4.396866225669    3.997067144777    3.564592880751
C     -0.414962492512    5.248791712904    2.709674559722
H     -0.810442583624    5.327030510755    1.679931145622
C     -1.601504540039    5.135153310640    3.676956792671
H     -2.260448270818    6.012465206607    3.594977324051
H     -2.205701359010    4.237996225043    3.484765068008
H     -1.253591937400    5.074174212744    4.722236560790
C      0.434158751613    6.505658274692    2.982681035434
H      0.811114759936    6.463411456379    4.022052778289
H      1.321320643870    6.484355550032    2.328900497646
C     -0.293577583482    7.834245433262    2.761091456234
H     -1.136072472964    7.971716891181    3.456440470457
H      0.390199531507    8.686049364373    2.904990572733
H     -0.694236421479    7.901295681233    1.735359608228
N      2.002152266000    0.775382575066    0.286625384148
C      1.125639535404   -0.228176055330    0.146901549771
C      1.539426494943   -1.542503326224   -0.179883578887
C      2.892310622690   -1.793157409247   -0.344485351834
C      3.814002882536   -0.745715469031   -0.180670232204
C      3.309243464017    0.511608092096    0.134457866014
H      0.781811593183   -2.320743333982   -0.283644913273
H      3.236007843663   -2.801014062686   -0.593371378138
H      4.888240930680   -0.902892696183   -0.292943874504
H      3.987446096776    1.361177108993    0.275806547996
