59

C      2.540736520850    3.870889782157    1.202956019889
H      0.511805633898    5.516290835486    0.891827662502
Pd     1.057950579745    3.055673091026    0.168566173572
C     -1.429973601826    2.553518357113   -1.768158456795
O     -0.722699904769    2.258688774920   -0.705069155151
O     -1.974372841701    1.735502422925   -2.478952317719
C     -1.556231568292    4.070541198744   -2.099530588181
H     -2.410027081202    4.114036986377   -2.792596888722
N     -1.955912495161    4.821090078569   -0.921747969681
C     -1.282423865656    5.199271456150    0.058530416537
O      0.120745368070    4.980678796370    0.182283730839
O      0.020306977694    0.047260963723    0.134728859496
H     -0.408562070494    0.918186057098   -0.237921377064
C      2.880922522402    3.401184801547    2.482943810734
C      3.852999968306    4.031824027340    3.275687848580
C      4.522394464938    5.173794807109    2.773114970044
C      4.185207508255    5.637480812092    1.495621047964
C      3.209012765170    5.004218907975    0.713713236085
H      2.381849508769    2.513734848577    2.883531958525
H      4.700581329665    6.516650595487    1.095800047879
H      2.985404534113    5.400925456553   -0.281413104690
C      4.179208513252    3.492264061638    4.647156157715
H      5.242385873868    3.208504093872    4.730788691860
H      3.994984969164    4.242832257060    5.434947242441
H      3.575309868171    2.604026189437    4.882657518612
C      5.577540968167    5.876147496043    3.592247115315
H      5.174514914691    6.242903326263    4.551992581912
H      6.415518993500    5.203507568984    3.843953871530
H      5.993559079253    6.739729450007    3.052999771512
C     -1.847005721333    5.935282871590    1.241270885987
H     -1.333443496685    6.900334196547    1.395941477213
H     -2.913017067195    6.123383801739    1.071189860454
H     -1.727254682227    5.337781650265    2.160758467256
C     -0.318119797271    4.607262483798   -2.881070344171
H      0.571690776392    4.500140683898   -2.236365624629
C     -0.089664004335    3.772445449994   -4.149193330866
H      0.792659775927    4.128705790567   -4.701764103400
H      0.066673260666    2.708650925060   -3.920810674706
H     -0.959812536595    3.834788875467   -4.824001229737
C     -0.488756696792    6.105308546575   -3.207376776286
H     -1.337834374534    6.219207433241   -3.906334730467
H     -0.783995135823    6.643548981715   -2.292263056179
C      0.753784655251    6.782415687008   -3.790980699618
H      1.045564541087    6.357507794529   -4.764022012881
H      0.578952666387    7.859328864306   -3.945551994871
H      1.619280800789    6.681903757349   -3.113707018158
N      2.028585700055    1.223622954432    0.052599212323
C      1.324116032801    0.061608098674    0.093280527215
C      2.015267893946   -1.177204168659    0.107739637381
C      3.390309511767   -1.204876405237    0.023647584097
C      4.120894645292   -0.000088522822   -0.079915880362
C      3.384519670178    1.173319038592   -0.054154084316
H      1.411261774492   -2.083453143742    0.164005130688
H      3.915995859282   -2.164483469677    0.023056255437
H      3.887407775751    2.137991601456   -0.108570000430
C      5.622788338608    0.013890332867   -0.205334675926
H      6.013915166390    1.041378502684   -0.236989373953
H      6.101720157503   -0.501473501490    0.643934974245
H      5.954252982514   -0.499575489455   -1.123640745998
