59

C      2.549409062039    3.952846994297    1.247458666813
H      0.497081393822    5.574976529727    0.903774284806
Pd     1.121455007979    3.151355160518    0.123578525763
C     -1.346246575795    2.574607396782   -1.799965793504
O     -0.642210664093    2.308854231148   -0.731242193689
O     -1.841594283957    1.740137497561   -2.530086263286
C     -1.539220775397    4.085013712219   -2.126004330459
H     -2.408556211597    4.098501970142   -2.796039232741
N     -1.935756141098    4.855653379881   -0.959339866276
C     -1.271438497025    5.261124803634    0.015997305860
O      0.128612230523    5.044700697040    0.177545614736
O      0.072196394578    0.314211159624    0.600236295963
H     -0.353096703471    1.060852346054    0.030608963319
C      2.970199144082    3.330407629371    2.434345210173
C      3.869144932326    3.942932594694    3.322528071110
C      4.379939916303    5.227293875107    3.016765084628
C      3.965708409166    5.844001714934    1.829861399131
C      3.065432395583    5.225519564192    0.951513496001
H      2.593203381975    2.335292701930    2.687496382868
H      4.361777968134    6.833030105669    1.577954677402
H      2.791785051914    5.740881003184    0.025229166915
C      4.283660729110    3.234005897379    4.588897330022
H      5.375573203549    3.079607071870    4.630025199174
H      4.017793924104    3.816872735737    5.487457264986
H      3.801721529863    2.249317306284    4.673474397729
C      5.350660585317    5.916659549592    3.944044854707
H      4.919109045819    6.070201468762    4.948172035304
H      6.270515224964    5.324199762507    4.088325037134
H      5.646190190111    6.901510704323    3.553613953674
C     -1.851695253657    6.038142385919    1.165683337361
H     -1.331487484031    7.002470202453    1.301014237924
H     -2.912337015194    6.230538717881    0.969177600205
H     -1.755778413662    5.467694129106    2.105062118252
C     -0.339191429354    4.676403854390   -2.902390794071
H     -0.576988046096    5.735252046238   -3.114734217021
H      0.553358595737    4.683559941087   -2.256472540809
C      0.015869794337    3.967554142393   -4.224903862863
H      0.322399492597    2.934196922793   -3.981134637604
C      1.216661757831    4.667152212987   -4.876529435127
H      2.080969946870    4.714138206779   -4.192985829074
H      1.538944063510    4.138910365215   -5.788394385906
H      0.964781543942    5.702855207281   -5.164294219252
C     -1.166329441642    3.873477470662   -5.198696785440
H     -0.841106339573    3.451142320903   -6.163461874652
H     -1.957539924133    3.220074192628   -4.804033468680
H     -1.597990337472    4.869694314470   -5.401604066116
N      2.078954195493    1.301425318353   -0.022858428272
C      1.359607936472    0.216360365654    0.380060923460
C      1.988075837827   -1.033657782615    0.576639504411
C      3.324223189949   -1.172353380640    0.257119596858
C      4.020149981743   -0.079398397742   -0.278511413333
C      3.377714950234    1.147941398833   -0.415373259233
H      1.373260872836   -1.858535947720    0.937274400327
H      3.824794246240   -2.135521764594    0.385610199578
H      5.058621418559   -0.176481232808   -0.597054851008
C      4.101985694917    2.316472215385   -1.022494457054
H      3.440281163568    2.875313881832   -1.700550130027
H      4.443420909272    3.020388955180   -0.249388104586
H      4.978823676597    1.968014623147   -1.585973849158
