15

O     -0.004715481806   -0.004300219146    0.001330523023
H     -0.271982983058    0.929600714185    0.001255996598
N      1.953159360625    1.174720799822   -0.000081919780
C      1.341919435798   -0.002509220501    0.000549623336
C      2.020680333108   -1.235362680923    0.000443965558
C      3.414317306112   -1.230772458702   -0.000374115956
C      4.063891870251    0.021450554793   -0.001044654999
C      3.292946542335    1.178706180254   -0.000864384195
H      1.446198161084   -2.163589541666    0.001000599451
H      5.154506812694    0.086779237838   -0.001693621202
H      3.773755777012    2.163878740655   -0.001371560807
C      4.206580281055   -2.512708484992   -0.000570439499
H      4.861531974260   -2.570443673498    0.884552713303
H      3.552275793964   -3.396231340287    0.000319946078
H      4.859991819951   -2.571106935852   -0.886791033598
