62

C      3.373001332242    3.839566281946    1.119176822002
H      1.724579066048    5.779688393714    0.584483608793
Pd     2.401234552530    3.530068596735   -0.579686426077
C      0.208039156813    3.538673337224   -2.908261854040
O      1.454028069552    3.454103216080   -2.500103358372
O     -0.198492643274    3.027539494291   -3.929032750076
C     -0.689017457385    4.380342929829   -1.945351002849
H     -0.582925647483    3.896099755890   -0.954399331982
N     -0.151468170721    5.733298322807   -1.916317395047
C      0.709035411957    6.137222151104   -1.101701996602
O      1.257270187536    5.285580165621   -0.109147401319
O      3.317237226282    2.061155598454   -3.263915819132
H      2.484810486418    2.679153958846   -3.062119583423
C      2.667014154967    3.877601473337    2.333613938953
C      3.297370582875    4.185820734202    3.552651696474
C      4.681688591244    4.473044416160    3.558815135814
C      5.379141690493    4.437009099771    2.343216905447
C      4.746141016114    4.122294265148    1.135665265545
H      1.596092973803    3.648275130247    2.351144636262
H      6.451382198212    4.656782208941    2.340447609534
H      5.333568242435    4.094625876697    0.213939417540
C      2.502796559004    4.196551994314    4.835615983562
H      2.890245094175    3.456810065689    5.556852670219
H      2.551298448196    5.177479277688    5.338853688902
H      1.443572424773    3.962582742593    4.654788834868
C      5.397963276823    4.802074788407    4.845563015338
H      4.967136514442    5.689914877408    5.339663687550
H      5.328409966405    3.975380342333    5.573210442751
H      6.464834112367    5.002381929124    4.669341852175
C      1.270982283275    7.527211287831   -1.067508470354
H      2.354551113253    7.511888155356   -1.272882720983
H      0.769145795766    8.135762908647   -1.828498176273
H      1.120346541653    7.995150646938   -0.078992296623
C     -2.212485374216    4.411010904671   -2.277730408902
C     -2.768862505334    2.974638166786   -2.247501877820
H     -3.861235058585    2.990130236107   -2.393646749193
H     -2.323012850083    2.356809551059   -3.037750571179
H     -2.574607084022    2.490586130853   -1.274414349281
C     -2.915848445391    5.233042345285   -1.178399861459
H     -2.743734504057    4.800538854727   -0.177489764609
H     -2.560180761713    6.274902348591   -1.165883448606
H     -4.004067029098    5.250413691838   -1.350727706328
C     -2.482960269168    5.061988865589   -3.646340741744
H     -2.069383542814    6.081151951057   -3.680601973007
H     -2.028765452639    4.475226874723   -4.455265167054
H     -3.569027020956    5.126813663801   -3.825402650694
N      3.441472374942    1.767692761440   -0.958542013571
C      3.740045687047    1.389163616108   -2.240364622019
C      4.542841466270    0.238723845986   -2.471463998028
C      4.966865556874   -0.537756864078   -1.418041590025
C      4.596880722861   -0.173794253378   -0.104451630323
C      3.847479064529    0.983520315960    0.064681605131
H      4.773220545981   -0.002075443301   -3.509648842979
H      5.568739447102   -1.432264330003   -1.584759440220
H      3.573567403769    1.295932379753    1.071065111293
C      4.967814409986   -0.949823171421    1.107609005002
O      4.644448249094   -0.661874736543    2.237161198792
O      5.715885569465   -2.029698047972    0.805560806428
C      6.119025162757   -2.844767224191    1.905429156718
H      5.242716789008   -3.241676943027    2.440004087912
H      6.708607858215   -3.665272198157    1.478333782312
H      6.727449671782   -2.267307377197    2.617906022758
