61

C      2.638883735417    3.787348547946    1.229873778714
H      0.666495751004    5.492155386878    0.874438253881
Pd     1.139742518295    2.999604846556    0.201989626598
C     -1.101246934605    2.629013873500   -1.872135246686
O     -0.702142451036    2.295705948075   -0.668477052908
O     -1.213285066494    1.872205194882   -2.813159146018
C     -1.441762325013    4.134462414985   -2.083320011974
H     -2.322712798583    4.114686265569   -2.742854599991
N     -1.846475707763    4.828478434438   -0.880133152884
C     -1.154029380188    5.188050081260    0.093007095537
O      0.252323532852    4.956054732893    0.178197814261
O      0.027454075083    0.037702568356    0.063188707929
H     -0.365882375306    0.938042141883   -0.282642886367
C      2.932364574428    3.348780132844    2.531644855506
C      3.913114505031    3.968208600656    3.322632262725
C      4.637849273472    5.064308958196    2.795244817071
C      4.346059050099    5.495408409674    1.495347041119
C      3.361242872002    4.874252751924    0.714457389838
H      2.390037466489    2.495985436007    2.950777369570
H      4.905049314976    6.338166458967    1.076295882280
H      3.176387160260    5.241333661410   -0.299654720583
C      4.190845610791    3.464037092969    4.717950675891
H      5.239524745165    3.139885760531    4.831993650706
H      4.023617532969    4.248639537175    5.475780433999
H      3.546330985794    2.609969790850    4.971459928801
C      5.704309292719    5.752231300290    3.611933906786
H      5.297777942779    6.167933037850    4.550010040479
H      6.509174936231    5.055756342472    3.903645504050
H      6.165463837138    6.579175562454    3.052383062156
C     -1.689624506577    5.898288963044    1.303001907183
H     -1.169689424516    6.858410979629    1.465545016020
H     -2.757929306195    6.094546436827    1.158389736140
H     -1.552876394496    5.280510729625    2.206502196251
C     -0.296836969800    4.804235928811   -2.896221069419
H      0.648911873919    4.733477657479   -2.338815333850
H     -0.186188501357    4.190203331409   -3.803467648623
C     -0.563872892307    6.243861486733   -3.275087379863
C     -1.471823886781    6.559594856147   -4.300112135305
C      0.076918242019    7.300571871788   -2.609780533872
C     -1.734532345676    7.887219153154   -4.644421690983
H     -1.975838040778    5.751737725311   -4.839056394164
C     -0.180998794119    8.631920642219   -2.952291030588
H      0.793707940396    7.073440366133   -1.815483682409
C     -1.090019184680    8.930161131923   -3.970359248766
H     -2.442443234771    8.109763572041   -5.447321027797
H      0.333519179535    9.439107407614   -2.423618413138
H     -1.292430935464    9.969457101482   -4.241809514746
N      2.071633936545    1.146320740703    0.079478369735
C      1.327499691103    0.018214540909    0.062549908412
C      1.972114644675   -1.270266794322    0.055952204763
C      3.353406802725   -1.337093629623    0.003270015955
C      4.096086646871   -0.139432443511   -0.033960617523
C      3.433806628708    1.064872795940    0.009913642793
H      3.866444747924   -2.298743984209   -0.023309367804
H      5.185214837961   -0.157562830609   -0.091540173152
H      3.970821385470    2.010424629816    0.000180083100
O      1.126370255099   -2.317657231910    0.086814993173
C      1.659092117399   -3.622174971470    0.051901569533
H      2.310436767205   -3.822720884356    0.922355689711
H      0.803296904892   -4.309090886284    0.080172788043
H      2.235349173128   -3.803813473433   -0.873640847368
