24

O     -0.002619146566   -0.001746116169   -0.000203491114
H     -0.268960272270    0.932852660293   -0.000154193899
N      1.963991910059    1.133726272719    0.000126359900
C      1.344086208244   -0.001165358776   -0.000042885964
C      1.992119099804   -1.297712280689   -0.000073469672
C      3.414108614813   -1.316680798730    0.000095972119
C      4.122592293185   -0.043359500096    0.000287042648
C      3.341504527286    1.150960695375    0.000292764857
C      1.253467497482   -2.501265908627   -0.000262176503
C      1.910814477158   -3.720489446403   -0.000284395423
C      3.319378463885   -3.753423764577   -0.000117754399
C      4.055302913084   -2.578364523272    0.000068334139
C      5.531792111869    0.073996985453    0.000465827272
C      6.149686134561    1.315460255602    0.000642773256
C      5.373188265305    2.490977944561    0.000647189904
C      3.990953993442    2.407599401345    0.000474832362
H      0.163924787852   -2.449280926875   -0.000388544609
H      1.341445392856   -4.652994894084   -0.000430141258
H      3.839255292758   -4.714984709640   -0.000134939185
H      5.144613423451   -2.634365573934    0.000194705035
H      6.150607650848   -0.825048221948    0.000465502263
H      7.240457069582    1.380229418946    0.000778831814
H      5.862462903390    3.468382228823    0.000786762701
H      3.362045964393    3.299981958548    0.000473539956
