53

C      2.558113539357    3.827802179933    1.175162615223
H      0.555408457007    5.474803789681    0.808023330035
Pd     1.069402978340    2.984784942369    0.177457402422
C     -1.203568188047    2.551170937974   -1.850289906169
O     -0.777729683231    2.230794920602   -0.648098489709
O     -1.290837518209    1.787046160676   -2.787069849826
C     -1.619179891672    4.035937880258   -2.055077854616
H     -2.528800655418    3.963009461610   -2.670700707351
N     -2.005105097843    4.732573807817   -0.841712004067
C     -1.283089913584    5.117079603284    0.101424149664
O      0.126705520145    4.914104272944    0.140450561578
O      0.040743656407   -0.001835222613   -0.025092336908
H     -0.389410695039    0.915359128931   -0.331773304492
C      2.891060944106    3.404894490212    2.472766021420
C      3.860991309145    4.063871857547    3.244731436816
C      4.533148048240    5.185946758560    2.702297489482
C      4.201632244764    5.602005474196    1.407130932560
C      3.228212715544    4.940834604898    0.644828159140
H      2.390213509987    2.532568621602    2.903029696765
H      4.720071408323    6.464571218533    0.976424630757
H      3.010955866141    5.298246552641   -0.366348972799
C      4.182955290622    3.574379527010    4.635734612860
H      5.245306691994    3.291527008171    4.731371484075
H      3.998887139767    4.353775256952    5.395023430946
H      3.577001687666    2.696397064453    4.902187525543
C      5.586636208785    5.916678836091    3.498347120180
H      5.181400530927    6.318052690948    4.443197796088
H      6.423226476815    5.252677741662    3.776147488642
H      6.004896269457    6.759827194179    2.929347217960
C     -1.791054857860    5.830166334582    1.322398756611
H     -1.278791039607    6.797766988890    1.465005051631
H     -2.866236003683    6.010339908968    1.211367340118
H     -1.617285137702    5.220210933539    2.224839225777
C     -0.565015846698    4.769949786397   -2.905053605047
H     -0.893871735558    5.799499593473   -3.116027058465
H      0.413955884024    4.811266291876   -2.405695416856
H     -0.449118072892    4.237224870273   -3.859818756465
N      2.041892877599    1.153662083392    0.059119883834
C      1.337647055655    0.006954971834    0.010789214185
C      2.011058749487   -1.276976686568    0.009573811870
C      3.432769982529   -1.316270843889    0.009598244599
C      4.128276098470   -0.070083666801    0.000609664965
C      3.419978965364    1.096392996403    0.026476956804
C      1.267972980605   -2.481663448197   -0.003928991302
C      1.924115646668   -3.699399328460   -0.004685975090
C      3.337266156110   -3.744917088329    0.000980467419
C      4.079746390429   -2.578005354134    0.005666826676
H      0.179160362586   -2.423611022002   -0.015298666704
H      1.351065881826   -4.629530415611   -0.014266392781
H      3.845988600958   -4.712536261243   -0.002128007478
H      5.172135092225   -2.614022218370    0.004960059100
H      5.218928644366   -0.041477000763   -0.025050435442
H      3.926344261502    2.058906104398    0.028953510878
