59

C      2.550964884277    3.853016835945    1.182953453103
H      0.520730464994    5.499045736745    0.885540844102
Pd     1.066531935177    3.041753111036    0.148690053730
C     -1.430062670116    2.549003171684   -1.782021057160
O     -0.720996259213    2.250437032093   -0.720554736594
O     -1.970863368898    1.732662919721   -2.497364472114
C     -1.561678599519    4.067296201603   -2.102636740105
H     -2.419366646925    4.113489290840   -2.790761414725
N     -1.956116090718    4.809897632026   -0.917993096826
C     -1.277605228254    5.183560951362    0.060706630412
O      0.126089610792    4.965907472174    0.176042252686
O      0.036797859015    0.037892533133    0.078409532581
H     -0.396407139985    0.918153687259   -0.278615916962
C      2.893577226398    3.377513449213    2.460009477383
C      3.866339051663    4.005623335663    3.253883944034
C      4.533205314218    5.150900061425    2.755527990373
C      4.193157343838    5.620298604820    1.480907978836
C      3.216588839582    4.989426177605    0.697545084119
H      2.396711486720    2.487244304990    2.856999404788
H      4.706939439219    6.501793936793    1.084216425374
H      2.991307238062    5.390023780327   -0.295624537538
C      4.196700098713    3.459227281225    4.621597441551
H      5.260061104274    3.174737569203    4.700049132041
H      4.015229983337    4.205847913765    5.413758718651
H      3.593554357477    2.569793152726    4.854468022323
C      5.589532398413    5.850164914980    3.575731605497
H      5.188618376185    6.210992925923    4.538616712480
H      6.429033926868    5.177140086225    3.821242775119
H      6.002975617236    6.717253158937    3.040132039665
C     -1.837084251411    5.912746791132    1.250110237575
H     -1.324293708685    6.877913139732    1.406608341561
H     -2.904325485676    6.099858080738    1.086767978966
H     -1.711161105514    5.311063423073    2.166059598958
C     -0.328895776616    4.611596250728   -2.887725249967
H      0.564474884611    4.502730984607   -2.248300597166
C     -0.104902375714    3.785371008774   -4.162239179987
H      0.773134886481    4.148104305767   -4.717365156705
H      0.056463933215    2.720712787232   -3.941514524163
H     -0.979005175289    3.849021936162   -4.831800462473
C     -0.505087730930    6.111198022775   -3.203871460647
H     -1.357991167918    6.227164755400   -3.897820824361
H     -0.797076145091    6.643036766205   -2.283992895502
C      0.732784401444    6.795086706541   -3.789489966017
H      1.020524631673    6.377267963376   -4.766802282040
H      0.554475520975    7.872552693724   -3.936084814475
H      1.602047329832    6.692287397578   -3.117395391382
N      2.042227902733    1.211917910718    0.013574557549
C      1.341914983961    0.047139008825    0.037772014198
C      2.008995537298   -1.217194335631    0.034305761940
C      3.390514193996   -1.224501107079   -0.052722005655
C      4.103731466318   -0.015744664606   -0.134844803255
C      3.397577830990    1.168398004859   -0.093588464053
H      3.922892104818   -2.179731616167   -0.071397997355
H      5.190797303576    0.003176988498   -0.222041994554
H      3.904970778556    2.130427736764   -0.133979190728
C      1.172943739342   -2.464000064013    0.097142211857
H      0.562196857232   -2.486411276782    1.014383951193
H      0.461792416900   -2.500955301164   -0.743746539537
H      1.803292009607   -3.364478295149    0.071041913990
