59

C      2.554149828854    3.840348236797    1.197336774525
H      0.537473359557    5.487132189752    0.858008750086
Pd     1.072309759596    3.011981390364    0.176357071648
C     -1.302944470578    2.530624355205   -1.837900218398
O     -0.731371530027    2.230758060363   -0.692923905423
O     -1.624896793038    1.715359303025   -2.676886335864
C     -1.567245667237    4.037405484966   -2.099486249988
H     -2.452345530035    4.035957982126   -2.749513217295
N     -1.959115657148    4.771195672913   -0.907784761986
C     -1.271106586652    5.159921733660    0.057810169061
O      0.132386589997    4.930807800187    0.172537814149
O      0.049838153734    0.001285207745   -0.035389204341
H     -0.382097934840    0.917227543913   -0.352193453195
C      2.873941178960    3.402714184930    2.493145212904
C      3.852262505755    4.040357717139    3.272885185397
C      4.543985249822    5.154887752388    2.739836596557
C      4.222694082728    5.586295070682    1.447018617981
C      3.241710330147    4.946626685475    0.676523629050
H      2.356210009034    2.537049151497    2.917249155183
H      4.756280152037    6.443353863917    1.024284919105
H      3.032213667641    5.315591772650   -0.332045364547
C      4.163020955121    3.535352964674    4.660629663282
H      5.219413696515    3.230792675246    4.754142379974
H      3.994089968560    4.313489452160    5.424556276082
H      3.539672278497    2.667891672248    4.921299188195
C      5.608705953007    5.860895893594    3.542788322312
H      5.209470320197    6.259633542013    4.491180701464
H      6.433662195994    5.179948619745    3.813698429420
H      6.041102097208    6.702082074418    2.981736456006
C     -1.816945595721    5.914453680959    1.237509816139
H     -1.290736620583    6.874865011884    1.377578317826
H     -2.881942589350    6.113808316733    1.074020278590
H     -1.696555219946    5.325293435601    2.162212312564
C     -0.411670076899    4.701312983707   -2.890467520923
H     -0.683067140548    5.764999727879   -3.021619837979
H      0.505868141398    4.689007025447   -2.280867579721
C     -0.095680646704    4.093925458645   -4.271978294558
H      0.232284050725    3.051133577077   -4.116548353917
C      1.070155646289    4.861047152112   -4.911238347174
H      1.958557490017    4.870024179025   -4.258024344588
H      1.365540663367    4.407210835221   -5.870856717285
H      0.793634390336    5.911012957224   -5.111625272894
C     -1.310909220446    4.053622694826   -5.207552490831
H     -1.014926359462    3.710581534932   -6.212214839988
H     -2.077133352865    3.357603974668   -4.837424887048
H     -1.765025044488    5.054259791090   -5.319526903832
N      2.052292067284    1.177868167428    0.062003423046
C      1.342515411060    0.011467955630    0.015821065086
C      2.027256194470   -1.236930488019    0.034815844273
C      3.400713679928   -1.275583124422    0.039173050939
C      4.118386501264   -0.060239500495    0.026758043066
C      3.407103708882    1.124648488386    0.043699482237
H      1.414082357004   -2.138242091733    0.020461996923
H      3.929927357766   -2.231454965119    0.036964530511
H      3.927825178210    2.079490863784    0.053752786251
C      5.620887239006   -0.066252315506    0.022322441553
F      6.115407593703   -0.605011673852    1.154585040296
F      6.105733779661   -0.803927843785   -0.994685093072
F      6.133901165184    1.169011238317   -0.091603390180
