50

C      2.521599400877    3.839034832049    1.136499916612
H      0.561825653236    5.496249427651    0.776479914825
Pd     1.034603075957    2.999211587608    0.131049008578
C     -1.380384709595    2.560429898601   -1.822491617920
O     -0.773451164366    2.197546711481   -0.712688717271
O     -1.802333046916    1.800928322637   -2.664010302911
C     -1.514221844561    4.093936526513   -1.995065713039
H     -2.211277593576    4.258084241810   -2.826462498224
N     -2.024516864948    4.754862399523   -0.812892935038
C     -1.297474110353    5.134260294740    0.133818422493
O      0.107289346929    4.945541305868    0.117467356426
O      0.022898607019   -0.015594422014   -0.043420409864
H     -0.422295389676    0.889241127356   -0.368205003242
C      2.853594746446    3.412373139393    2.433231363767
C      3.822084605465    4.069234957026    3.208716750225
C      4.494125917102    5.193872350111    2.671203409856
C      4.164305109250    5.614052203098    1.377009196706
C      3.192659149748    4.954208190693    0.611046052871
H      2.353078487337    2.538105912420    2.860059034245
H      4.683087528517    6.478135012723    0.949777748642
H      2.978488783964    5.313628785762   -0.400363891109
C      4.142826786963    3.575034953479    4.598307102369
H      5.205159629483    3.292153372425    4.693883611031
H      3.957927350033    4.351758067108    5.360102759819
H      3.536894215773    2.695973697948    4.861149170110
C      5.545925783075    5.922606175398    3.471281224770
H      5.139012083201    6.320426942311    4.416880845632
H      6.382493040606    5.258188569926    3.748026667896
H      5.964464631927    6.767966912871    2.905815086318
C     -1.795305491948    5.806984761965    1.377673214351
H     -1.301888775810    6.782677386797    1.530775431886
H     -2.876328051097    5.965188441880    1.290087355528
H     -1.590771146823    5.182208805006    2.263274075076
H     -0.518950380310    4.476635036830   -2.294393810598
N      2.010924082406    1.167311342249    0.010536939858
C      1.319648780806    0.011578700481   -0.016547691207
C      2.009043835939   -1.264340805594   -0.004788318034
C      3.430951063851   -1.287372398706   -0.018246512908
C      4.111373043906   -0.033356365775   -0.052903763662
C      3.389506145410    1.124810508818   -0.035827855109
C      1.280037723833   -2.477653146993    0.006917417298
C      1.950418340351   -3.687605870296    0.018020779367
C      3.363958465442   -3.716736780327    0.010363363611
C      4.092717393314   -2.541341495593   -0.009800454279
H      0.190550339325   -2.432455504318    0.005624705302
H      1.388190541330   -4.624304766579    0.028267329714
H      3.883918763456   -4.678341063140    0.016777812310
H      5.185392819973   -2.564661211429   -0.020729867822
H      5.201279833374    0.007927689825   -0.090267595500
H      3.885054845432    2.092768847488   -0.051775022662
