56

C      2.959581326829    3.559272040636    1.425122388835
H      1.460215347935    5.364312752912    0.397459410634
Pd     1.598653832420    2.773828946324    0.221069496633
C     -0.118633805526    2.963017105956   -2.117853604050
O     -0.146875832287    2.308095687265   -0.969833552146
O      0.638656756676    2.711709835670   -3.033786513903
C     -1.205150649620    4.071920122873   -2.167326153514
H     -2.151869365664    3.501737458897   -2.205430695221
N     -1.314638013281    4.874867754050   -0.957315464961
C     -0.460462908788    5.202904130920   -0.109968561074
O      0.905343091132    4.784259143868   -0.150862995910
O      0.485943065828   -0.060885652859   -0.676838442520
H      0.208001750882    0.931274711390   -0.864863874505
C      2.867669846992    3.410156161766    2.818660004115
C      3.749486693953    4.064591426994    3.694425408681
C      4.761154617509    4.900095273396    3.161444955223
C      4.846173293710    5.046007510050    1.771259133047
C      3.962442403240    4.389319296325    0.902940863282
H      2.096229867343    2.762377379153    3.246785678963
H      5.628641040781    5.685080709143    1.350251624718
H      4.077206873962    4.520778104207   -0.177365232707
C      3.617794675990    3.873198627579    5.185569084107
H      4.537124626439    3.447075993886    5.622296694925
H      3.440984775809    4.830456332042    5.705218874668
H      2.785559316928    3.198178377533    5.432120920719
C      5.731277877441    5.615310498976    4.069412545094
H      5.212927212401    6.289444708130    4.772756762444
H      6.310713789217    4.907260592413    4.686322637926
H      6.447283835998    6.219308344724    3.493397925098
C     -0.745775521273    6.075728202438    1.081031972116
H     -0.099775596352    6.970990898798    1.084682768358
H     -1.793606039861    6.395128225737    1.052878123070
H     -0.558151995590    5.523188826699    2.016738178270
C     -1.214289533643    4.993730002362   -3.437313882790
C     -1.455056909447    4.127073948836   -4.690148472104
H     -1.521358639280    4.771738665225   -5.581715126869
H     -0.644919425299    3.403357653665   -4.841124260152
H     -2.407058918821    3.575151118688   -4.611021319721
C     -2.377912850609    5.999696592484   -3.319897529576
H     -3.340844356686    5.483258395342   -3.172721632905
H     -2.241409505502    6.692959828395   -2.477974255832
H     -2.453098944151    6.592833754789   -4.245725831788
C      0.112672226834    5.761762318547   -3.578016639894
H      0.304848515178    6.399232314678   -2.699288472234
H      0.957759037087    5.071057044276   -3.702489049038
H      0.074360243883    6.424134643344   -4.458293246735
N      2.367733806348    0.828392008194    0.368521401103
C      1.646080023320   -0.214293631768   -0.125079315543
C      2.180395173135   -1.539265953785   -0.022904386800
C      3.421195461878   -1.761730813865    0.537616761339
C      4.146424787485   -0.654564665961    1.005582141716
C      3.595006998736    0.608353678940    0.906473822942
H      3.825784459256   -2.771994972871    0.605998349068
H      4.137986641699    1.477051865495    1.269694358882
Cl     1.234623301269   -2.858506254539   -0.629894678507
Cl     5.727082156244   -0.863590716329    1.709069038530
