47

C      2.514822397792    3.843679467537    1.148071857873
H      0.542966190325    5.502785716994    0.792134617058
Pd     1.025021456011    3.007281374191    0.141836906865
C     -1.362166796544    2.565182403724   -1.828212392737
O     -0.775318531760    2.207798694181   -0.708147338360
O     -1.773703653656    1.803471174246   -2.673722660262
C     -1.489930560988    4.099135644342   -2.013379858110
H     -2.173568062071    4.260109541107   -2.856426971275
N     -2.016727500429    4.767715578536   -0.843080196633
C     -1.305849889319    5.145756368533    0.116024735759
O      0.099085053097    4.951739119492    0.126425230474
O      0.005790294133   -0.008271288584    0.034988164811
H     -0.430037044853    0.876433342950   -0.312795132752
C      2.855480705085    3.408132813717    2.439690891762
C      3.828769034067    4.059481948988    3.213898130848
C      4.497598008574    5.187746156047    2.680184411967
C      4.159616048620    5.617014372357    1.391046555885
C      3.183048916783    4.962667684226    0.626781041080
H      2.357089335833    2.531420876706    2.864074908931
H      4.675585471432    6.484248722303    0.966796187963
H      2.961902386234    5.330038923522   -0.380297144730
C      4.157711075828    3.555877876794    4.598214797106
H      5.220797933795    3.273332337308    4.686147391321
H      3.976293198422    4.327089724489    5.366421995764
H      3.553845848921    2.674578931436    4.858366491821
C      5.554277482696    5.910943904058    3.478850807780
H      5.153162169454    6.302135738033    4.429688245648
H      6.392617959972    5.244727001225    3.745830439389
H      5.969268653156    6.760286189567    2.916734499899
C     -1.822902811041    5.823262113224    1.349415171905
H     -1.327892294453    6.797002643313    1.509899189949
H     -2.901408042840    5.986333669493    1.241794490558
H     -1.637752990721    5.199099458738    2.239734987171
H     -0.489258477697    4.478171203968   -2.299155483024
N      2.006076949914    1.177981161163    0.018339771982
C      1.310402089080    0.009468627374    0.018689343744
C      1.983747988255   -1.252157161567    0.015040762195
C      3.366258253045   -1.253502374151   -0.046533705912
C      4.075431048342   -0.040882907749   -0.104523868664
C      3.363784532709    1.139667450507   -0.065563122741
H      3.902881645677   -2.206349754467   -0.064492310432
H      5.163763738564   -0.016269372082   -0.172381898701
H      3.868770434085    2.103246251880   -0.089885091910
C      1.151601341802   -2.502640882458    0.049854612094
H      0.521677389668   -2.535059270219    0.953706866959
H      0.458656270839   -2.535189891434   -0.806305834254
H      1.786049000012   -3.400371073903    0.029377051450
