56

C      2.494718819864    3.855630412736    1.181768356170
H      0.394801603819    5.459180529074    0.924660135032
Pd     0.999883156323    2.994961672964    0.213169924547
C     -1.322683332013    2.486175726284   -1.806336577584
O     -0.820784591333    2.194640310130   -0.627986620994
O     -1.619968868724    1.670776349324   -2.651517396515
C     -1.524695915191    4.003408007141   -2.098042317444
H     -2.346750591077    4.006513348905   -2.831439010623
N     -2.015964812162    4.728010151951   -0.940078770244
C     -1.377899996110    5.103471303442    0.068668421394
O      0.012309678300    4.890626479059    0.236528483373
O     -0.001659071598   -0.018519095888   -0.000706609361
H     -0.451378272660    0.905964502731   -0.303518230512
C      2.856489287979    3.452153293122    2.476783549341
C      3.854932600577    4.117366222881    3.207003592653
C      4.519245696665    5.222100526177    2.621951846015
C      4.152120395273    5.618048501209    1.329679059089
C      3.152595658430    4.952383488721    0.607070261558
H      2.358755531052    2.594683599602    2.939918534710
H      4.665449930297    6.467096501702    0.867759522611
H      2.904829876802    5.291599049649   -0.403139012846
C      4.216799066220    3.650370261650    4.595596990566
H      5.277590716224    3.353582899986    4.659118530414
H      4.070481605070    4.447243675168    5.344693984540
H      3.608102718788    2.786918674043    4.900726112911
C      5.606177864177    5.954533398101    3.369378844428
H      5.238327987711    6.372345764863    4.322235787540
H      6.445618641844    5.285576233987    3.625000597020
H      6.011474547727    6.785171644634    2.773564936595
C     -1.994998109827    5.827943785402    1.230813373115
H     -1.493775488025    6.795054401915    1.410630042593
H     -3.054655328455    6.010110122904    1.019629257583
H     -1.906417044308    5.225781990626    2.150513754251
C     -0.308463315863    4.619830487607   -2.810682762584
C     -0.060862222549    5.999623543797   -2.741427162829
C      1.004760881327    6.574462106106   -3.439473070899
C      1.841790590690    5.779453221336   -4.227565744876
C      1.592321166927    4.407740029781   -4.319708854756
C      0.523913754948    3.833410209900   -3.624153686148
H     -0.714233262295    6.637814585331   -2.142762891296
H      1.176918383727    7.652070302565   -3.370992803895
H      2.676449390271    6.227286091621   -4.772784053886
H      2.230270532579    3.775079173527   -4.942401071975
H      0.325124350403    2.765022793706   -3.728498099395
N      1.994839521790    1.166202816886    0.101300428886
C      1.286330967576   -0.008510394568    0.053565363053
C      1.973197422559   -1.257939976965    0.073665437219
C      3.346294814874   -1.300668046371    0.077089574997
C      4.039361228547   -0.077394466366    0.064831719692
C      3.343377939283    1.118501172079    0.083304158981
H      1.359823975562   -2.159083547547    0.060822215973
H      3.903848414749   -2.237564820355    0.076559585274
H      3.887510884460    2.060286790746    0.096923227930
N      5.502463946536   -0.054253439453    0.045569345806
O      6.055547043485    1.034282769492    0.011184608555
O      6.076067785133   -1.132940527395    0.065988549677
