68

C      1.358210528384    2.904072382629   -2.143327152915
H      0.078496536775    1.875702728778    2.162034613141
C      0.480156291138    5.266589565523   -0.418967386748
H      0.552143606037    5.677829401984    0.594102215847
H      1.182318088407    5.617779124191   -1.179213781488
C     -0.625237087139    4.529496322174   -0.798153990761
H     -0.793993263975    4.272838550797   -1.847158409288
C     -1.837761246441    4.293976710781    0.065624776652
O     -2.563002619573    3.331912652661   -0.062085292069
O     -2.024385953240    5.286831120530    0.928453094038
Pd     0.991767303238    3.126588378877   -0.189327441875
C      0.310386625418    4.019604251089    2.851404606640
O      0.738594975667    3.147565067463    1.967016641514
O      0.496597202723    5.222675216213    2.792977225345
C     -0.473430029118    3.381605547708    4.030024335452
H     -0.810835003103    4.241012653850    4.627838218836
N     -1.680434835670    2.649130333119    3.637196090771
C     -1.706629752194    1.646592061547    2.849482465182
O     -0.639848744663    1.129762189402    2.181428105247
O      0.032619027002    0.027555948294   -0.141087772833
H     -0.359284013583    0.550718674866    0.614285812760
C      2.459396142257    3.546001265645   -2.723741596809
C      2.779477275137    3.380130828945   -4.082783497739
C      1.966693877920    2.548502119899   -4.886397763819
C      0.867670154160    1.912222183756   -4.293902744847
C      0.555397278053    2.080146384317   -2.939430287863
H      3.107407292361    4.187099366076   -2.118110641610
H      0.233602423897    1.264619825530   -4.907481695808
H     -0.307059136290    1.558661066225   -2.516790031429
C      3.978222317671    4.085193442527   -4.669538333878
H      4.706555462906    3.369599190187   -5.088245106766
H      3.691379874764    4.757309599229   -5.496485883320
H      4.499984441217    4.688987944096   -3.912760396286
C      2.273243080861    2.347942389737   -6.350547791855
H      2.256296765456    3.300982758416   -6.906876556847
H      3.277202413292    1.915723646115   -6.503492161010
H      1.544089016555    1.673414546824   -6.822645034350
C     -3.142056997853    5.209833745101    1.844785667348
H     -4.062460888702    5.056973368177    1.258475759832
H     -2.996734684110    4.333065163319    2.495293175527
C     -3.159669229880    6.499652944772    2.637288401633
H     -3.320437910206    7.370756564894    1.982857210748
H     -3.971226505382    6.469441178659    3.380918624938
H     -2.202753821642    6.631610049232    3.164474046853
C     -2.987922316884    0.924731225210    2.542344390419
H     -3.765678722471    1.210016632889    3.260567538351
H     -3.316464701483    1.195988246642    1.525082286010
H     -2.829311460690   -0.164733300514    2.568681399150
C      0.454449354433    2.532618232047    4.916701761094
H      0.866486072694    1.671879423887    4.369516123427
H      1.293574204025    3.141346420071    5.288647596003
H     -0.109345625735    2.151976943348    5.782237448217
N      2.005090342671    1.216679234718    0.069858174553
C      1.357347170076    0.076363449170   -0.152118154837
C      2.050572664361   -1.137811777104   -0.444911315856
C      3.418363809043   -1.149666462468   -0.433673400737
C      4.138820142792    0.036189348475   -0.110719384288
C      3.382837377716    1.220669598390    0.147263540982
C      5.554663458460    0.083321874258   -0.037253506389
C      6.204678559717    1.257333933681    0.288281003396
C      5.453206493994    2.425014728219    0.555162964993
C      4.072308470391    2.411304521337    0.485570486566
H      1.451432324732   -2.025671927694   -0.648240040161
H      3.969029679538   -2.069161012453   -0.650012514589
H      6.120969128403   -0.829636629690   -0.239575261207
H      7.295043537953    1.286037462662    0.346740472164
H      5.968274214405    3.349522657823    0.827301899745
H      3.491695340661    3.308662689716    0.711206513252
