62

C      2.438567913343    3.803963197890    1.429658866956
H      0.348183176987    1.909899722911   -2.562606755668
C      0.229033397252    5.323311537525    0.049138005694
H      1.050307197803    6.016552370084    0.240181927755
H     -0.224571541119    5.305707622665   -0.944503325550
C     -0.445736560837    4.729459844550    1.096702477810
H     -1.389818445669    4.219741308853    0.884535134289
C     -0.195037513808    4.996324490469    2.550885538351
O     -0.659386631036    4.316784072081    3.436023001436
O      0.555419419520    6.087346915923    2.753896621811
Pd     0.961504053257    3.236256019486    0.215737904525
C     -1.615199379770    2.891379471021   -1.694732183617
O     -0.482460215625    2.394978523720   -1.210423392393
O     -2.194677924288    3.844565360758   -1.208927826071
C     -2.167791048738    2.176280585772   -2.951741396508
H     -3.162225570483    2.629134775840   -3.081371982919
N     -1.441087451174    2.428811340779   -4.193314176121
C     -0.196069995527    2.222661115196   -4.377351131898
O      0.731184939628    1.836857621649   -3.473113361432
O      0.024353837581    0.178879951112    0.010661474882
H     -0.339194481692    1.025326323615   -0.386689829579
C      2.547448155414    3.248172457425    2.710012435269
C      3.635616192402    3.540536716183    3.550116911537
C      4.646630634153    4.419297765504    3.093271456147
C      4.523988687040    4.972212425297    1.811815602863
C      3.434631357819    4.677763158283    0.981043827321
H      1.773423350417    2.570093165349    3.080287377209
H      5.299597078167    5.654197366904    1.449465812032
H      3.384225312020    5.134101796338   -0.011653515004
C      3.721732770401    2.913988423332    4.920717158934
H      4.631726653762    2.299295783609    5.029808312481
H      3.765780752477    3.677701292296    5.716006994208
H      2.854169178057    2.269637734793    5.122556682417
C      5.834192575580    4.752091345497    3.963233659834
H      5.527475287230    5.218387505371    4.915179857125
H      6.410078105158    3.849564515857    4.230988007519
H      6.519385447796    5.447243692097    3.456508692679
C      0.862947043353    6.419558153973    4.119955920111
H     -0.081537058740    6.548930846989    4.672790883289
H      1.394731595942    5.569265832847    4.575524809323
C      1.702413001243    7.679513476575    4.118068698655
H      1.159161762182    8.515923752349    3.651730840730
H      1.951210499003    7.964901935531    5.152148095831
H      2.641683427193    7.523297994389    3.565976799103
C      0.409224127932    2.396598731615   -5.744798326794
H     -0.366040654901    2.678946892714   -6.466088516993
H      1.196625984900    3.167608145392   -5.717640139592
H      0.891464826062    1.456894046031   -6.060545023275
C     -2.358186712941    0.669485678470   -2.711832064469
H     -1.398720563898    0.160111616078   -2.537959409212
H     -3.009351911254    0.485798398245   -1.842005180071
H     -2.828985363679    0.218038930326   -3.598158028312
N      2.021381160329    1.354525753160   -0.078431640299
C      1.343984063577    0.184434606003   -0.040976162246
C      2.023529801454   -1.053126194136   -0.042266319458
C      3.403235348228   -1.068171157073   -0.139901106644
C      4.098343021539    0.148228615254   -0.235524451642
C      3.370441692635    1.324376929296   -0.190921937512
H      1.425603597173   -1.963436956335    0.010804135121
H      3.941702933949   -2.019150553771   -0.154824273849
H      5.184259739787    0.184151269025   -0.329557114866
H      3.868747501763    2.293122158018   -0.225477251635
