50

H     -0.447549342764    0.957051975672    1.020061829359
C      1.983185429487    3.271368142951   -2.371134682693
H      2.835112292704    2.591406986484   -2.450512862610
H      2.171035631674    4.346645860569   -2.346845129328
C      0.713145398872    2.790030670519   -2.593669268147
H     -0.132561128951    3.471452076033   -2.715826573230
C      0.479050081541    1.348831624341   -2.953533636453
O      1.361231492307    0.532528621447   -3.085534665665
O     -0.820698571095    1.108670237039   -3.112543934889
Pd     0.993700552647    2.996284279129   -0.373713229058
C      0.149115504310    5.542363354370    0.494668529504
O      0.192406668769    4.809731586811   -0.600098501954
O     -0.080914145925    6.730454101068    0.499203746747
C      0.447064594746    4.790845834443    1.815749906865
H     -0.340453792486    5.110469609314    2.512723486081
N      0.353922718987    3.341624766247    1.565841452464
C     -0.444553967108    2.574905321779    2.265014041764
O     -0.748264571657    1.357995832545    1.950503346704
O     -0.051457612309    0.166803401041   -0.092970885413
C     -1.208727535167   -0.264891530354   -3.339136466306
H     -0.673729207723   -0.637867608203   -4.227025871965
H     -0.878332752230   -0.854114447495   -2.470088442819
C     -2.710997406437   -0.301059782608   -3.515861758967
H     -3.026816024889    0.311923108340   -4.374280751007
H     -3.038477379246   -1.337351487727   -3.692464800248
H     -3.221056103169    0.071796062633   -2.614749617544
C     -1.141208267219    3.034878409852    3.526327239579
H     -1.517075167234    2.148569655465    4.051267798102
H     -0.483923390034    3.608582952087    4.189071605937
H     -2.003953395215    3.668984708617    3.263365869067
C      1.797277981028    5.281814816988    2.410264437433
H      1.667897512327    6.376598525636    2.457130014064
C      2.030060153950    4.765898144120    3.834378548321
H      2.973767742269    5.163833856505    4.239729521827
H      1.224595892112    5.076547075305    4.519001028184
H      2.100713146714    3.665607656743    3.859375019333
C      3.011792856728    4.996782534779    1.519080743949
H      3.218202564201    3.916046543895    1.453399756622
H      2.878946229752    5.389569179355    0.499026315992
H      3.910825761175    5.474257655913    1.939679818300
N      1.980757363896    1.192392522586   -0.091426278809
C      1.208444033041    0.062230902625   -0.101197429941
C      1.907977032720   -1.198683495362   -0.123556890660
C      3.283089415643   -1.258347337003   -0.080283350006
C      4.014179210918   -0.053602079218   -0.021935255598
C      3.331230825255    1.145876605612   -0.039589485081
H      3.797427192579   -2.220178488969   -0.087882037636
H      3.867671043960    2.096302448184   -0.019284963445
Cl     0.951282817822   -2.644032288770   -0.198280344264
Cl     5.756626853148   -0.075096529790    0.054590363140
