41

C     -0.761867204923    2.861245106167   -1.580599431243
H     -1.662485217782    3.328558118374   -1.985983853813
H     -0.217115710015    2.157409735815   -2.214021521684
C     -0.202598830809    3.342452405088   -0.418358996172
H      0.772109639391    2.996805265138   -0.064781145245
C     -0.765143197704    4.499018168319    0.365180951832
O     -0.388686729147    4.766929773604    1.480913404699
O     -1.685017923321    5.177281559715   -0.322543886167
Pd    -1.450802072744    1.517710583622    0.064661620898
C     -3.796899904374    2.298950460205    1.452107152676
O     -2.911169568970    2.741674810417    0.584232107915
O     -4.659365778353    2.995238748717    1.934415564339
C     -3.677155427301    0.813910935341    1.827930250113
H     -4.658673207781    0.349876079871    1.635879901790
N     -2.602843824381    0.150773058657    1.092530678453
C     -2.482205005520   -1.144719741683    1.090276020513
O     -1.550927509327   -1.760192209197    0.417860535124
O     -0.080156764625    0.101691238552   -0.527554919038
H     -0.932680396550   -1.105511350488   -0.058231121842
C     -2.479340771398    6.135427658883    0.407564941102
H     -3.119685325636    5.570919768845    1.104307520553
H     -1.807951573125    6.777563040994    0.997812704665
C     -3.298169572708    6.923492641431   -0.592119929224
H     -3.957987915937    6.258348625816   -1.169919427207
H     -3.928585519663    7.654487395058   -0.062286794030
H     -2.651049089420    7.471059306264   -1.295245318823
C     -3.408471150666   -2.052614610843    1.851364442885
H     -3.436770874342   -1.777800158424    2.916658088201
H     -4.435894278354   -1.968669873845    1.462989835404
H     -3.067265075445   -3.089169903580    1.747222062842
H     -3.505509735529    0.764774931652    2.917835320274
N      1.670992503852    0.954867505725    0.708021642907
C      1.183161048543    0.047757353015   -0.138231938162
C      2.021853600708   -0.998592608196   -0.621257379933
C      3.342280816556   -1.072219698050   -0.201277627175
C      3.814207483150   -0.102754301646    0.693845892972
C      2.941343330542    0.897415274567    1.117176806635
H      3.993626410692   -1.868699715848   -0.563092251071
H      3.282014189666    1.672999260587    1.810295492290
Cl     1.385362438321   -2.173103696941   -1.741193032137
Cl     5.463798535776   -0.144782198578    1.260054957907
