60

C      2.756225324796    3.980252877776    0.803132733378
H      1.446679804578    5.163820809632    1.776066024699
Pd     1.116574953432    3.131604308751    0.019140500267
C     -1.649450408327    3.181554725618   -0.928663116099
O     -0.678096664109    2.323501016125   -0.751699700330
O     -2.820865904365    2.911517681798   -1.086850426461
C     -1.151893382885    4.652449388984   -0.969043192289
H     -2.022941301772    5.285902382672   -0.750405912602
N     -0.111931737513    4.804466652359    0.064429171572
C     -0.199554750372    5.698482019570    0.994007129908
O      0.716082912677    5.805463410528    1.941342409968
O      0.075989103337    0.131309064906    0.231181300136
H     -0.375293569550    0.968739536845   -0.126535221679
C      3.248846877964    3.593496461028    2.065178448154
C      4.412913601841    4.146188972727    2.627066393669
C      5.130720516914    5.124348163849    1.901080870648
C      4.644766692716    5.513189796991    0.644682480827
C      3.477818516140    4.963920713947    0.102530854671
H      2.716447853117    2.827468116454    2.638197099557
H      5.191727233356    6.272730014978    0.076905937969
H      3.133561401900    5.309688495882   -0.876330181813
C      4.888579919360    3.693198545112    3.985866345506
H      5.903463286508    3.262109392040    3.939133495036
H      4.939450212862    4.532400561486    4.700735785703
H      4.219775634238    2.930777083514    4.410900221572
C      6.387535566154    5.740980278567    2.464083587428
H      6.197328459697    6.254260694203    3.422458879892
H      7.161241431623    4.980466866445    2.666802994661
H      6.817263920817    6.478102647021    1.770077946615
C     -1.309559881970    6.706220900006    1.143219888376
H     -1.383835244432    7.346268717138    0.252560471986
H     -2.278520383744    6.202224795711    1.277556514463
H     -1.106294829627    7.332273126715    2.020054654779
C     -0.618609179589    5.019392266151   -2.385488904885
H      0.228432121453    4.337646182203   -2.587039107435
C     -1.698670986238    4.780363332156   -3.449585696580
H     -1.302464144568    4.967619139757   -4.458521860491
H     -2.083070556689    3.751722675449   -3.424624094931
H     -2.559053284407    5.453890594851   -3.295589601526
C     -0.077584749369    6.461964738034   -2.429637195617
H     -0.918554965414    7.164856781693   -2.277890916979
H      0.611238257759    6.612228217221   -1.582307591467
C      0.662885607608    6.828664542205   -3.718725003775
H      0.005820013321    6.800695735444   -4.601648369801
H      1.081723960800    7.845723101870   -3.655304904629
H      1.500685326276    6.136235838695   -3.906782402399
N      2.085570641940    1.260144829625   -0.117596075037
C      1.373195896797    0.129001397487    0.051618426919
C      2.029507671247   -1.150008139056    0.059374648788
C      3.394608700366   -1.208433753417   -0.170779970580
C      4.102182989159   -0.011960567754   -0.396961482501
C      3.424972331593    1.186266195981   -0.357409133141
H      3.917780574065   -2.164825931200   -0.190261587221
H      5.175021538078   -0.024833720341   -0.594146662269
H      3.936743694200    2.135281164776   -0.504993730560
O      1.216460488378   -2.201431409290    0.281625149503
C      1.769982518605   -3.497564430087    0.293853652138
H      2.530448749841   -3.611459492044    1.088045646665
H      0.940523325378   -4.188883836442    0.491857277164
H      2.228939129121   -3.756262157059   -0.677941268578
