65

C      1.524637498727    3.255515856817    1.857081994193
H      2.359869760826    2.971197817506   -2.002906879914
C     -0.331618232216    4.897181033124   -0.003165094037
H     -1.011032057768    4.857290209893   -0.855263880250
H     -0.782427522880    4.844989163379    0.990416861619
C      0.979826735352    5.289269612138   -0.147919176173
H      1.580900667083    5.546642942976    0.725281983428
C      1.631548802877    5.724036231527   -1.423712347707
O      2.814563140070    5.967566430281   -1.501386009241
O      0.776030906828    5.842914725932   -2.449796279501
Pd     0.927741934220    3.026561055321   -0.043578218065
C     -2.142700506944    2.492687603266   -1.058063873472
O     -1.819693280079    1.913513447600    0.085322959699
O     -3.041458264707    3.298906989314   -1.146926164607
C     -1.313723381531    2.109709856755   -2.303050745892
H     -1.751969771057    2.727069286973   -3.102914818267
N      0.100816011788    2.494745112764   -2.114049980107
C      0.884159451555    2.588313848890   -3.126269856460
O      2.173359873304    2.906164126746   -2.960717170125
O     -0.040835903759    0.120546169180    0.108120520008
H     -1.069310213873    1.211221026958    0.045875735271
C      0.611320641593    2.849418092919    2.836740892187
C      0.922344915297    2.934751420702    4.204832352533
C      2.183773110978    3.439836794543    4.597948898902
C      3.085429737586    3.840354042102    3.603931078596
C      2.770437916898    3.754336402240    2.241588927977
H     -0.362960600012    2.445454839345    2.546046329154
H      4.063434915630    4.233544828503    3.898487066055
H      3.505196804539    4.084792186809    1.502036362705
C     -0.083510170993    2.484064786006    5.235677417762
H      0.316185138666    1.668588103137    5.862535550421
H     -0.355315289143    3.302803600225    5.923927950437
H     -1.007087413732    2.121337322536    4.762386474760
C      2.553965990190    3.544415768239    6.057331712398
H      1.854627356250    4.193736952058    6.611646964407
H      2.528111114354    2.560661504478    6.556804291506
H      3.565452771425    3.957136338455    6.184897104243
C      1.330306998432    6.298711407690   -3.700407195148
H      1.885851531907    7.232174429174   -3.519075458480
H      2.060026756518    5.550661152959   -4.050039766904
C      0.190418235155    6.496926315810   -4.676909230854
H     -0.526811823406    7.241945344485   -4.300220264835
H      0.583497552960    6.853263328343   -5.641734044417
H     -0.354857946041    5.556979086210   -4.853651608775
C      0.556995289917    2.383019122696   -4.578423991576
H      0.876222244364    1.375497684293   -4.889486301673
H     -0.513748660713    2.490790276765   -4.785389683765
H      1.126408092372    3.104759431646   -5.180104465323
C     -1.503906376837    0.623735070661   -2.646408517279
H     -1.018385165607    0.369753185780   -3.600128110688
H     -1.087017688766   -0.015590177510   -1.856696495984
H     -2.578750791601    0.407638467117   -2.750513314911
N      1.981904026944    1.205032495526    0.008593691996
C      1.219866205296    0.058341981861    0.067462415952
C      1.915937841429   -1.199981354968    0.077120151703
C      3.293209964290   -1.276755198855    0.057953603647
C      4.027566317341   -0.060009562470    0.024321790788
C      3.334600728155    1.129833636440    0.012506167256
H      1.292531694158   -2.095321934343    0.119425492083
H      5.118975438010   -0.054362089295    0.018116004438
H      3.870681021233    2.082537232747    0.009794380277
C      4.016654348248   -2.597936419280    0.081898545960
H      4.671049387300   -2.669953528320    0.966831755974
H      3.317107766763   -3.445652922636    0.102831146037
H      4.665285439627   -2.707118681045   -0.803506778868
