44

C      2.598499859834    3.636482966468    1.836845053707
H      3.337817060294    2.834046317562    1.867940890102
H      1.931972421089    3.801375614811    2.686804972700
C      2.668104741156    4.626360614880    0.882750059945
H      2.063006559278    5.521200675951    1.019565757304
C      3.755679468183    4.735484278102   -0.139362734531
O      4.679274385535    3.961920463215   -0.280570951426
O      3.593138882533    5.835889771457   -0.880245799323
Pd     1.086206774006    3.125383973813    0.256962505375
C     -1.403027000350    3.170985388817   -1.191669353510
O     -0.418400275669    2.345462878494   -0.833407313160
O     -2.350663399219    2.814160676559   -1.845513449145
C     -1.180221877509    4.619897384857   -0.736056343559
H     -2.168415640356    4.976093833276   -0.411626014521
N     -0.238676124671    4.645158015971    0.382514726417
C     -0.439628546528    5.375626711907    1.510872346618
O      0.303750372603    5.325019154787    2.492989023992
O      0.060351913060    0.086614624285    0.193747351384
H     -0.316413283659    0.923641770725   -0.218691789037
C      4.579452382009    6.094763122299   -1.900064348364
H      5.572120721387    6.140697694701   -1.424171004295
H      4.593980342864    5.242124646129   -2.598102587096
C      4.213560901136    7.392040764472   -2.588347043047
H      4.199579321302    8.228170710007   -1.872665957424
H      4.953575660399    7.619495524180   -3.371107861498
H      3.221776214866    7.323816543571   -3.060740821153
C     -1.644604568806    6.320653149106    1.550547619260
H     -1.544535463424    6.932009464872    2.455498470260
H     -1.703199839306    6.977413371806    0.669738204892
H     -2.588140059464    5.754463609987    1.612001324059
C     -0.730121609123    5.475941264178   -1.931843352915
H      0.250992340959    5.140396415645   -2.304020690195
H     -1.461760490274    5.398549795803   -2.750352497219
H     -0.638202197575    6.532334663654   -1.635927351183
N      2.097161523440    1.207860734230    0.011609357924
C      1.372550220576    0.062172645991    0.106281063141
C      2.009212325023   -1.200532692433    0.131530212948
C      3.382349174962   -1.280442383089    0.000997919544
C      4.119567083722   -0.096789592902   -0.160548156801
C      3.440992103046    1.109762904606   -0.146004794686
H      1.373025441299   -2.080499547236    0.231803452059
H      3.880463031446   -2.253319888509    0.008637537725
H      5.202749736102   -0.103596244577   -0.287786234079
H      3.988448725589    2.047470804575   -0.249681224424
