57

C     -0.697423749351    2.814970578595   -1.471038302079
H     -1.557573883547    3.243620567937   -1.990805514825
H     -0.071733120121    2.100266088498   -2.010138322397
C     -0.278251974402    3.347030226017   -0.273193110478
H      0.657359340790    3.023553120904    0.193963290040
C     -0.959600871266    4.505121148524    0.404128181333
O     -0.731017205135    4.815812899635    1.549831278912
O     -1.812961917522    5.136526378777   -0.404866501468
Pd    -1.520099320822    1.505604409604    0.145240570986
C     -3.975625008834    2.234941112292    1.348099501994
O     -3.077321515002    2.678726724632    0.494270306231
O     -4.962649753389    2.873961234184    1.645365760249
C     -3.678061711484    0.855475418666    1.983565841872
H     -4.639126012614    0.321735489668    2.024588405496
N     -2.726954609237    0.145490014411    1.116419807267
C     -2.791700702090   -1.116731947574    0.805404586732
O     -1.885712171044   -1.693121868792    0.059715009480
O     -0.104362627158    0.097650693495   -0.293444041655
H     -1.097562880759   -1.077271781044   -0.152721642655
C     -2.707189459639    6.093478696128    0.197977327074
H     -3.409704381714    5.534318261370    0.836716806410
H     -2.123229555625    6.771886031362    0.838677602501
C     -3.425623505879    6.828182861884   -0.913557858664
H     -4.000185405488    6.128215930676   -1.539287700625
H     -4.128479038644    7.558544661414   -0.483269400161
H     -2.715309989782    7.370358106557   -1.557431154528
C     -3.874126874734   -2.073275581070    1.227659126515
H     -3.472297879675   -2.754283333722    1.993838016123
H     -4.768461454650   -1.582688453169    1.624032259001
H     -4.141202063372   -2.685383974235    0.354362578950
C     -3.168258051450    1.004995684013    3.472742378648
C     -4.320007973279    1.562927927524    4.331988155472
H     -3.989354428213    1.654894977851    5.378969081699
H     -4.652983622187    2.547558459138    3.979973471341
H     -5.193891870488    0.890385359840    4.314547868196
C     -2.774766853004   -0.377081513628    4.027258600097
H     -3.620289424126   -1.083396299905    4.002893412589
H     -1.929063433950   -0.821084438326    3.480065852096
H     -2.464674655512   -0.277305218029    5.079480244384
C     -1.952903952288    1.946712774455    3.563616267738
H     -1.093377956623    1.572157250958    2.984900500320
H     -2.180172901782    2.962064052896    3.206238630906
H     -1.626823340870    2.031715696155    4.612558732517
N      1.613632078160    1.031063990285    0.935448786511
C      1.094871560335    0.009136326280    0.270271832087
C      1.809692497169   -1.225425798392    0.120010585867
C      3.073836657659   -1.328961680978    0.686892835402
C      3.604464565467   -0.227781218922    1.385837551623
C      2.837863013304    0.922780644795    1.482044223552
H      3.652432112430   -2.249521044915    0.597892218364
H      4.594290024739   -0.281750005375    1.843158911412
H      3.207118005005    1.802200103959    2.020263573225
O      1.163206138938   -2.196558738764   -0.571961013326
C      1.786665104777   -3.450393220674   -0.729121691012
H      1.993141487276   -3.931242143639    0.244719729890
H      1.088144996506   -4.079291756502   -1.296814187669
H      2.734771084352   -3.368976501370   -1.291449998332
