60

C      1.021275716381    2.790569262574    2.930731733893
H      0.116443866816    3.400122980533    2.892676670554
Pd     1.124708241894    3.090872076219    0.498473480362
C      0.226863082670    5.706221352265   -0.089127078030
O      0.594284891624    4.949983671511    0.919259371635
O      0.109157645823    6.910929099464   -0.008325780827
C     -0.136461935618    4.955569675893   -1.382792112887
H      0.422016254750    5.452604905626   -2.197322691434
N      0.237242921322    3.540473368537   -1.274861171359
C     -0.056753648197    2.643632038113   -2.220829186202
O     -0.107943653521    1.408221167053   -2.020462011886
O      0.051046264336    0.086559763503    0.066232879089
H     -0.182393036482    0.746404231870   -0.709974741805
C      2.283271888190    3.394652739699    2.745055331409
C      3.481004502294    2.680049626135    2.986295457501
C      3.402832445307    1.340049784732    3.403856440198
C      2.132646053687    0.740737069557    3.561760440296
C      0.957336092317    1.442840716301    3.338358155765
H      2.329177172150    4.464790464091    2.533405581473
H      2.082308169939   -0.302460959025    3.886008764724
H     -0.012070069147    0.963798856237    3.489609795854
C      4.811746191530    3.371569194062    2.830388995336
H      5.369509010881    3.394267197279    3.782098656692
H      5.459983144414    2.851868342514    2.104190031880
H      4.686077466525    4.408914978926    2.489320652954
C      4.652187536280    0.551961752561    3.706161552411
H      5.319474967060    0.496846643091    2.830139319065
H      5.236894321015    1.019511521310    4.516590649421
H      4.414370167156   -0.476287595099    4.013666734611
C     -0.313634856905    3.086373773502   -3.656057168741
H     -1.374074359742    2.936443627796   -3.910695283264
H     -0.033260310421    4.124598753566   -3.872331767339
H      0.265578323136    2.408949899265   -4.300359422270
C     -1.653143421319    5.214263044174   -1.635040962391
H     -1.750111833282    6.308158583463   -1.710924313653
H     -1.938091283832    4.799246718997   -2.611623363660
C     -2.588933697153    4.689429297391   -0.565492952392
C     -3.156068847744    3.407875232006   -0.661653007529
C     -2.906394951858    5.474183030110    0.556978940350
C     -4.010507018452    2.920982292540    0.331815816074
H     -2.929380498082    2.777144126139   -1.525485138345
C     -3.761863817781    4.990801182924    1.550732481529
H     -2.470634011197    6.471796460654    0.651038186235
C     -4.316885118528    3.712018825758    1.442839010597
H     -4.440243962560    1.920443868659    0.234381098750
H     -3.998093455857    5.619919830921    2.413206482934
H     -4.988874909890    3.335250352835    2.218589793706
N      2.028727833654    1.247041918457    0.061339293121
C      1.361958387943    0.071306934976    0.088682136502
C      2.081390329536   -1.144870201316    0.107535363509
C      3.459234174800   -1.125653926634   -0.005043921324
C      4.148979654527    0.098976567808   -0.134393249277
C      3.374356301523    1.251042587963   -0.075248824146
H      1.511336896504   -2.073114572797    0.161926643234
H      4.015942707593   -2.067548515339   -0.021855543830
H      3.840931487475    2.237452676173   -0.136825509674
C      5.642421924825    0.156683380273   -0.331399991136
H      6.011501979588    1.193047246651   -0.321206486000
H      6.177495876073   -0.400516325107    0.455260061395
H      5.935760568972   -0.289346623640   -1.296753553314
