65

C      2.547482161204    3.974251376658   -1.067541199293
H     -1.590758156410   -0.883067441443    0.281567523770
C     -0.409561191632    4.674208669006   -1.250128974633
H      0.062265501522    5.124465559038   -2.126161245252
H     -1.284447126559    4.039015428693   -1.409032167515
C     -0.106289488499    5.133969172867    0.017606239825
H     -0.700470566891    4.822523092248    0.887150818485
C      0.812599678534    6.287864757868    0.286172871356
O      1.222617216187    6.568902287422    1.387803109374
O      1.094139589240    6.991428214733   -0.820646865659
Pd     0.895043110233    3.162327101658   -0.311419219275
C     -1.611677123296    2.278997114842    1.459080396535
O     -0.941297525390    2.150166295387    0.323076059029
O     -1.651009598114    3.307786548972    2.101470966907
C     -2.345075026678    1.003730757238    1.907024966476
H     -2.738103782240    1.217184917253    2.911939751682
N     -3.456308720058    0.676336365413    1.041177435660
C     -3.464148511588   -0.343624151734    0.279639347798
O     -2.469921341190   -1.245601415776    0.073673697153
O     -0.002533618714    0.048254227596   -0.349188870508
H     -0.500221705300    0.994182563310   -0.084559836407
C      3.460514984030    4.657329132315   -0.253799214367
C      4.670859646061    5.158882600481   -0.765112251594
C      4.970781623537    4.977437636113   -2.135630602679
C      4.044104354488    4.300152198776   -2.939529790342
C      2.842477357729    3.799629966181   -2.422953378770
H      3.239661349105    4.819600057792    0.805179036623
H      4.267979113020    4.152818026765   -4.000675834851
H      2.155457056946    3.268279905797   -3.087095574607
C      5.633836595019    5.881486668791    0.146003321261
H      6.611340510716    5.371138232090    0.191330955268
H      5.836980278494    6.907403944475   -0.206229086724
H      5.242130607742    5.950189852996    1.171050836915
C      6.260809351797    5.497496706038   -2.721606223170
H      6.353829813059    6.590794293871   -2.603433390799
H      7.142361926928    5.055211909168   -2.226459543585
H      6.332499641374    5.270657847549   -3.795324874092
C      1.976289932430    8.117392639779   -0.669763108882
H      1.535875893835    8.815546293931    0.060462895494
H      2.929880197510    7.763121142919   -0.247532423148
C      2.160341722131    8.753818866983   -2.031203389596
H      1.197313749886    9.094507445171   -2.441901292438
H      2.827442207573    9.626178414096   -1.949861644060
H      2.607718933747    8.040477920929   -2.740188520056
C     -4.689893796156   -0.705544259135   -0.511149138828
H     -5.498562815021    0.001112091914   -0.292617303688
H     -4.462145042979   -0.699141611514   -1.589467343539
H     -5.008397588514   -1.729654749207   -0.256379431283
H     -1.584060235522    0.199973727228    2.009572135872
N      1.938862143121    1.253177869601   -0.047642786568
C      1.292245577285    0.084194483465   -0.176221255229
C      1.999022334440   -1.178290860564   -0.139238894054
C      3.400272951655   -1.172326781203    0.111304598939
C      4.032514707596    0.092130668911    0.298848732845
C      3.292287659030    1.235997532592    0.201090852308
C      1.321445179664   -2.405901920776   -0.343911577703
C      2.019788173884   -3.598355765744   -0.294758941645
C      3.410706194318   -3.598278426194   -0.037700408502
C      4.090099714600   -2.410792356009    0.160884652027
H      0.250423234780   -2.395136502063   -0.549898931839
H      1.497225498474   -4.544133978733   -0.455334181266
H      3.951740443787   -4.547287289853    0.001688844525
H      5.165419918588   -2.411127695625    0.356030180121
H      5.102361445866    0.153198072219    0.505472345190
H      3.759333093506    2.212570658426    0.311726278858
