44

H     -0.328387086362    0.673613930976    0.757461255844
C      2.051704318044    3.119318926656   -2.376612196964
H      2.854856050255    2.378710826143   -2.396689923418
H      2.315756576976    4.178790538278   -2.383751924885
C      0.758522526559    2.723762245494   -2.619931974412
H     -0.029697958530    3.460432753940   -2.792408740471
C      0.420117190449    1.293194943015   -2.920590208085
O      1.228159097206    0.395666486656   -2.991848297380
O     -0.894914537433    1.153331527099   -3.103551299284
Pd     0.967120366477    2.992339374086   -0.388775635522
C      0.075573030491    5.570604727198    0.345089810397
O      0.240009181512    4.812182294492   -0.726076615261
O     -0.199149408515    6.746127700204    0.292746917479
C      0.289957109107    4.843341910737    1.684983929622
H     -0.508146845000    5.172278759132    2.365462192179
N      0.312210704821    3.399388361783    1.486555312343
C     -0.355854368150    2.549002035185    2.266114743243
O     -0.580951712268    1.350415303499    1.968280656034
O     -0.005211267499   -0.000269857167    0.000637732974
C     -1.392874152665   -0.184361969342   -3.307444008712
H     -0.821151463600   -0.654302046828   -4.123331284029
H     -1.200231224453   -0.757065017505   -2.386406472348
C     -2.870765628701   -0.090681034441   -3.621089678129
H     -3.045781234675    0.496689111444   -4.535679061770
H     -3.283674269314   -1.099853111207   -3.774466992204
H     -3.419858378146    0.384301015958   -2.793886885993
C     -0.898180746501    3.030114503712    3.604658492174
H     -1.157523946503    2.145883512871    4.199405075913
H     -0.177646295238    3.652653117246    4.154403764375
H     -1.814425606788    3.624990116501    3.455198498648
H      1.242629421333    5.215319959285    2.108387416539
N      1.950879034779    1.189933830183    0.030411760346
C      1.306827726147    0.003321049885    0.010628729095
C      2.027577089936   -1.224788823221    0.005690378975
C      3.410062116338   -1.160168663717    0.095958630985
C      4.065106034391    0.080461173521    0.190485084242
C      3.299444521128    1.228572589147    0.146051994987
H      3.991172001872   -2.086499880355    0.109313299522
H      5.149749827949    0.148266145121    0.283791519494
H      3.753387448576    2.221269351316    0.189040869130
C      1.260607232083   -2.512552992479   -0.082730029283
H      0.488065613441   -2.564130388930    0.700296033044
H      0.734473560054   -2.583707626878   -1.049117384919
H      1.928260270330   -3.380682396812    0.013288295126
