57

C      2.658561340800    3.612523502057    1.693398363000
H      3.410837211143    2.822534729762    1.652227679414
H      2.024710147495    3.719765817307    2.576868017778
C      2.672485062380    4.645862475114    0.784836096380
H      2.062572045570    5.524785242308    0.986970505982
C      3.730184467303    4.819896086835   -0.258969182201
O      4.588031244475    4.012695577683   -0.546737522185
O      3.633523525936    6.028387817154   -0.824184136194
Pd     1.069145462086    3.138009412159    0.183338494691
C     -1.573593637738    3.141842919462   -0.949813991252
O     -0.530599268525    2.331377525254   -0.746152152402
O     -2.658961813049    2.733994925913   -1.282983960418
C     -1.208848213211    4.619712439429   -0.746114775649
H     -2.136252023710    5.137886370031   -0.465959153207
N     -0.231876492776    4.681630404864    0.342835547729
C     -0.462530878029    5.287053584087    1.540131019538
O      0.297825513553    5.173449311228    2.504037104272
O      0.049174393791    0.115357962899    0.337161182604
H     -0.372642852535    0.937708673835   -0.063350189876
C      4.625910086387    6.373576385644   -1.812623481533
H      5.622561978585    6.140972432834   -1.406234375297
H      4.476996808645    5.729421328022   -2.694906170576
C      4.470302381055    7.841894814283   -2.145472312710
H      4.624344217732    8.466200203735   -1.252074140137
H      5.215520779286    8.132078701727   -2.902228253612
H      3.468590516538    8.053554038740   -2.547968607675
C     -1.703443552549    6.171743318944    1.682777273720
H     -1.634860382107    6.667208728798    2.658774211566
H     -1.774814096792    6.931587135148    0.890822193267
H     -2.625312491785    5.568880411899    1.655912855510
C     -0.694470686347    5.256185610561   -2.075001431442
H      0.208897196162    4.688305169026   -2.370797455341
C     -1.736644378410    5.124123617913   -3.193944505038
H     -1.343082192584    5.506887296830   -4.147420923389
H     -2.045723026409    4.082054505317   -3.353373133896
H     -2.646000917265    5.700754420829   -2.951813604491
C     -0.269548325601    6.718584107271   -1.849184321578
H     -1.162668866032    7.312225039160   -1.578329182828
H      0.404528126270    6.754513733882   -0.979350047836
C      0.430956664982    7.373180353333   -3.041963902397
H     -0.228129392493    7.465971224240   -3.919250460742
H      0.776035896458    8.387822847158   -2.785558016446
H      1.313992725608    6.789380087270   -3.352550341966
N      2.053292342321    1.219792000581   -0.098376945569
C      1.340764891600    0.094018398883    0.099300416821
C      1.977889950701   -1.192150704453    0.071799341584
C      3.330450957981   -1.264394108412   -0.224152017674
C      4.036255831823   -0.074911020817   -0.482296396444
C      3.376794228714    1.133322395456   -0.408894753740
H      3.841724240079   -2.226199064509   -0.272316612932
H      5.097952639817   -0.096194424510   -0.731984631291
H      3.901376546827    2.073080652342   -0.580177612358
O      1.163539062608   -2.232796729474    0.327674930441
C      1.699714917833   -3.537544512110    0.310808728159
H      2.493922493460   -3.663263294687    1.068965765342
H      0.870522821161   -4.217377832564    0.545343025289
H      2.108821314685   -3.798338867660   -0.682158582820
