56

H     -0.320441662164    0.743789751761    0.749322496627
C      2.005179271462    3.195071186739   -2.354164348768
H      2.825184789771    2.475854870917   -2.412595084857
H      2.247579353451    4.259632147320   -2.336628023760
C      0.715035686377    2.777912427691   -2.570322909158
H     -0.095768133177    3.499478297058   -2.694872464030
C      0.402986316575    1.348776947738   -2.904894576038
O      1.231466602847    0.475818620247   -3.026807931954
O     -0.912224671258    1.179951134682   -3.056302214452
Pd     0.982063245214    2.998572443735   -0.332484364139
C     -0.098664403307    5.489947798709    0.478805752952
O      0.128859329160    4.777680582350   -0.612086994269
O     -0.601114479406    6.591601975693    0.451849280145
C      0.372639108489    4.817216899013    1.789746208188
H     -0.341666316594    5.110077995817    2.572786309048
N      0.346502396721    3.367617176097    1.565772766146
C     -0.441202008755    2.537148989078    2.242644334715
O     -0.688455392848    1.354127780108    1.882775604442
O      0.030517607982    0.059935511701   -0.032981939710
C     -1.380063823693   -0.165353361562   -3.282789372366
H     -0.828324957196   -0.592605497806   -4.135166670687
H     -1.134214290921   -0.760049431298   -2.389052487540
C     -2.871304740702   -0.105461823048   -3.535025133804
H     -3.099732437421    0.506286790966   -4.421437688465
H     -3.260911055917   -1.120972538044   -3.706480232706
H     -3.399911063354    0.325136301658   -2.671030547810
C     -1.115706283829    2.987860201258    3.529455450046
H     -1.501587804069    2.094264372610    4.034541860922
H     -0.433767665435    3.528369494654    4.199400960997
H     -1.965707277893    3.651521068272    3.301609338331
C      1.778950177905    5.342996710792    2.205517829457
H      2.445786774050    5.186092026648    1.335925016480
C      1.751084055767    6.845165226213    2.516159582326
H      2.766961148329    7.208183696251    2.740604432317
H      1.343089587218    7.433035554384    1.683246892114
H      1.123497894888    7.047887688605    3.400943415795
C      2.353817273840    4.552197195328    3.385863195714
H      1.743974932218    4.697840430158    4.293976010656
H      2.401304959584    3.474127588707    3.173776987710
H      3.373437019321    4.897658216799    3.620578626758
N      2.012880911280    1.196111575422    0.019502003386
C      1.330592133656    0.044171978587   -0.048689283387
C      2.013468317266   -1.213350404151   -0.144761001592
C      3.375608411920   -1.251109890390   -0.098816970300
C      4.119669736709   -0.042694631690    0.056682552075
C      3.392325390233    1.185690208143    0.117263495294
C      5.533246437190   -0.022880808834    0.148191179888
C      6.219155561895    1.167657944633    0.298799998270
C      5.499425685142    2.379988246709    0.364111385059
C      4.117735517786    2.392099514133    0.274908447075
H      1.397793904246   -2.108249116957   -0.235749761387
H      3.911119132865   -2.202171921508   -0.164089734647
H      6.072499756258   -0.972631408286    0.098484937184
H      7.309012818925    1.173273817212    0.369839638081
H      6.036428793043    3.323268547575    0.491338776182
H      3.569712315098    3.333502858112    0.336718486915
