75

C      1.587259240330    3.315260163268    1.886905394840
H      2.254198217696    3.042872549291   -1.982859470159
C     -0.303115795913    4.974277668511    0.085998349096
H     -1.020764657284    4.942029129524   -0.734701809173
H     -0.708677183552    4.940388091999    1.099749911191
C      1.008503373347    5.333834392863   -0.121628606172
H      1.656393313490    5.582068565815    0.720337346004
C      1.608335987572    5.744921564263   -1.431375974742
O      2.792442812491    5.954056767358   -1.566991113319
O      0.706562139319    5.882044085602   -2.413125548988
Pd     0.902879351050    3.067545614302    0.017996854937
C     -2.224347941273    2.626413813480   -0.954063811362
O     -1.943618270764    2.083699950904    0.223384857643
O     -3.055921629164    3.494126207206   -1.078678721934
C     -1.417196391967    2.131854527324   -2.173929771883
H     -1.866281700093    2.679205040628   -3.016465512205
N     -0.001713079151    2.526119467821   -2.024369540942
C      0.755295741589    2.607183886322   -3.059206178264
O      2.045981122495    2.933572639063   -2.932013858999
O     -0.186069447161    0.239646632892    0.407609391439
H     -1.218055195632    1.371151532826    0.230581370009
C      0.705406937722    2.973942156592    2.917947559537
C      1.088587086116    3.074178122516    4.266796639302
C      2.390743072198    3.526205239650    4.584677433781
C      3.259735145965    3.860549974774    3.538344137022
C      2.873431854278    3.760818138494    2.195402960722
H     -0.299178102124    2.608408823632    2.685717121527
H      4.269219527876    4.210690231966    3.774480833773
H      3.585357850292    4.038400647665    1.413022705013
C      0.116143125848    2.694716987846    5.356475695850
H      0.509038663324    1.875470333355    5.982577359789
H     -0.082014435987    3.540598033575    6.036873861669
H     -0.846176737278    2.365944465020    4.938804002622
C      2.838604533680    3.644026430162    6.020941725413
H      2.199551135817    4.338453446551    6.592931260712
H      2.791034716369    2.673496123696    6.543904604992
H      3.873678612630    4.009318045406    6.088561963275
C      1.207954967258    6.322732631586   -3.692359712120
H      1.781775392780    7.250728838840   -3.542717089180
H      1.912733766973    5.564038200281   -4.068933241041
C      0.026473220091    6.527559912319   -4.616318210320
H     -0.663853993824    7.283729736209   -4.212745129445
H      0.378927011180    6.872400641321   -5.600784522914
H     -0.537550919732    5.593108664486   -4.760430760357
C      0.396458108766    2.375584675069   -4.499587233248
H      0.756587831010    1.382499668578   -4.812633654249
H     -0.682656081790    2.432172722191   -4.679284108681
H      0.915433406659    3.118235083058   -5.121484865877
C     -1.589723214882    0.608955285489   -2.421849633665
H     -0.974197035408    0.337303440481   -3.293145986131
H     -1.182555569122    0.063343325076   -1.559791785725
C     -3.025852948882    0.202587291150   -2.677176359714
C     -3.866977984114   -0.172729336196   -1.616946820324
C     -3.553526437018    0.205815642785   -3.978671625339
C     -5.197045823884   -0.531294930131   -1.852285464214
H     -3.474198505570   -0.182758912084   -0.597181461634
C     -4.882623848996   -0.152695950261   -4.217572319791
H     -2.911657507018    0.483185365407   -4.820960135622
C     -5.709643868903   -0.521784776622   -3.152571435306
H     -5.835448023798   -0.820957613349   -1.013716016651
H     -5.272482677641   -0.147907165798   -5.238888248177
H     -6.749474474271   -0.803973395459   -3.336293087715
N      1.876389454587    1.194409087887    0.097007585141
C      1.057703057571    0.098492119403    0.293391275516
C      1.690825711866   -1.195639907554    0.355575067614
C      3.051056928555   -1.323791940796    0.244797416194
C      3.852391355163   -0.167113553383    0.066723662412
C      3.214459327882    1.057591729017    0.012853680651
H      1.037113955653   -2.055556477064    0.507108732651
H      3.520229413522   -2.309761106771    0.298768654360
H      3.797955120070    1.973519016482   -0.097671708109
C      5.340795187941   -0.282139008681   -0.049980054857
F      5.887856901013   -0.857594341698    1.039914395602
F      5.701987169220   -1.049113214457   -1.100596205225
F      5.933087869899    0.915716500776   -0.209769910753
