77

C      1.616537584685    3.042227658454    2.174630726322
H      0.721401739774    4.508244837528   -2.733765101578
C      0.357881231045    5.224161646323    0.336364689430
H      0.223412141353    5.519427385794   -0.707031836108
H      1.132206600359    5.735791081037    0.913638723360
C     -0.594472104013    4.471199224348    0.991676990321
H     -0.559193545100    4.362520074747    2.077304015804
C     -1.913335374247    4.018405801065    0.430938590548
O     -2.679417295018    3.342819184262    1.077650026562
O     -2.146569876698    4.468772976023   -0.806117945521
Pd     1.037607818397    3.114478435156    0.259642463178
C     -0.371162803431    2.442525339499   -2.339157068725
O      0.561616857998    3.187725678722   -1.868810886142
O     -0.898317552816    1.514261651327   -1.695582096988
C     -0.875321886117    2.689625794922   -3.778373915255
H     -1.815500175889    2.116696026534   -3.800691044575
N     -1.235273522281    4.045998917410   -4.158713173162
C     -0.620921582995    5.142460311827   -3.936241838073
O      0.504408611054    5.349370090468   -3.226406430920
O      0.155196052301    0.124991822092    0.121658471385
H     -0.276072994401    0.807944206857   -0.531019546922
C      1.022310754491    2.119528477480    3.045606617333
C      1.410925967446    2.022489424570    4.391761044867
C      2.428576190418    2.875099096116    4.881949379897
C      3.015476827317    3.791337187877    4.001300393006
C      2.620264411137    3.885233642271    2.659982910125
H      0.234842302597    1.453373116709    2.680746056193
H      3.805634171943    4.453201150976    4.369487742123
H      3.116658185556    4.612672786692    2.011959877848
C      0.744845547638    1.017359246189    5.299445721326
H      1.473952869879    0.304343640287    5.721323611880
H      0.255175619251    1.507466897669    6.158384004046
H     -0.020738027596    0.438647623061    4.763058825211
C      2.873070141249    2.800716960358    6.322265849358
H      2.040696383263    3.002353089789    7.018270530557
H      3.258922750537    1.799408366682    6.580126215120
H      3.669036523117    3.529769234384    6.533522098273
C     -3.392091648356    4.077718318553   -1.436697604477
H     -3.178165014498    4.147138463388   -2.511883802985
H     -3.598212935217    3.031388867031   -1.170950158500
C     -4.534457742049    4.991481377008   -1.028986355676
H     -4.302280034824    6.042840183558   -1.260708683449
H     -5.443632514832    4.712760593538   -1.585606593954
H     -4.751919795392    4.901886304671    0.045581146302
C     -1.154730927928    6.433837784794   -4.501911750649
H     -0.365866081523    6.943696042594   -5.078092058870
H     -2.022434282713    6.241527161768   -5.143174031365
H     -1.440634998970    7.112690667737   -3.681453391363
C      0.039644705959    1.982311119647   -4.856751759629
C      0.206923133214    0.494671245246   -4.492032327781
H      0.748124210255   -0.029302653927   -5.296594133935
H      0.779316296526    0.354372085521   -3.562421519191
H     -0.767308358269   -0.001306129741   -4.358628882322
C     -0.676004679858    2.078546158174   -6.218057238297
H     -1.664432783682    1.592208421443   -6.181288557925
H     -0.830041959084    3.124669950969   -6.516049936936
H     -0.080168108112    1.575440870062   -6.997308872216
C      1.428870329856    2.636180405778   -4.963164195918
H      1.362462406267    3.698010525883   -5.242500293985
H      1.985517962524    2.567375568893   -4.016378472912
H      2.023124186428    2.126365963944   -5.739358362725
N      2.134547144206    1.293828201177   -0.019665069181
C      1.465083823128    0.146418997689    0.113604406707
C      2.155314077886   -1.098510260410    0.281345156290
C      3.520561895129   -1.124301248206    0.241144034192
C      4.253507870469    0.079262689525    0.018640437506
C      3.510434162002    1.291917424993   -0.112533320099
C      5.667402174636    0.114610737036   -0.076798732335
C      6.331066473560    1.305358695833   -0.301761575015
C      5.592950016725    2.502352742574   -0.439767235974
C      4.212981829174    2.498976994877   -0.345386238006
H      1.548386203093   -1.994090719073    0.416962372021
H      4.063312928876   -2.066087746103    0.360142321983
H      6.223046868237   -0.821205248678    0.027197252110
H      7.420535456251    1.324416794016   -0.377358556511
H      6.117007067029    3.442792535743   -0.627031217288
H      3.642651953753    3.423172494915   -0.461243243383
