77

C      1.376266211075    2.910895192226   -2.195526137870
H      0.077667529759    1.761774779672    2.049379697707
C      0.533650706497    5.216386918348   -0.380033256902
H      0.624676343013    5.590012708118    0.645894130138
H      1.231889859663    5.587188269987   -1.134560388193
C     -0.584021978560    4.506706173745   -0.775569960926
H     -0.764749237940    4.291898457172   -1.831923480750
C     -1.793900168127    4.250163918045    0.085353103023
O     -2.545697499786    3.317736940479   -0.094390262194
O     -1.949599651081    5.192171380174    1.011373458185
Pd     1.018978032719    3.063178182254   -0.233545137183
C      0.389750538731    3.875365179198    2.836189643129
O      0.764051626411    3.007418323162    1.925683970213
O      0.685998257982    5.059102988286    2.819562533580
C     -0.486299454702    3.308386350856    3.989405820897
H     -0.928512881656    4.218540740594    4.423724579091
N     -1.623206246092    2.472801201878    3.610678645573
C     -1.676950146050    1.503750434213    2.785673825305
O     -0.654699969021    1.026913752116    2.028644459235
O     -0.009161941044   -0.010532289050   -0.324936539817
H     -0.395096411356    0.493451194824    0.446668144731
C      2.486917480460    3.557719497242   -2.751811382505
C      2.802676128023    3.439927699668   -4.116890675514
C      1.975797178662    2.653147165054   -4.950802401019
C      0.867499264980    2.011647454100   -4.381719709775
C      0.559377335855    2.131385855479   -3.021184567474
H      3.145476215303    4.164283892635   -2.122462945495
H      0.222744742214    1.398331682383   -5.018916545014
H     -0.309753257520    1.606584355656   -2.616953507416
C      4.011772371478    4.148213284351   -4.677924516538
H      4.728253026457    3.437904583211   -5.125110329870
H      3.734656070170    4.856147286468   -5.477853371583
H      4.543791428455    4.714085366576   -3.899307733898
C      2.277624440493    2.504747960460   -6.422123608539
H      2.274852819719    3.478774579597   -6.941082920825
H      3.274601501665    2.063329412238   -6.593295553750
H      1.537616963543    1.860348839660   -6.918762171118
C     -3.080639008066    5.097838231937    1.909094783216
H     -3.993027835683    4.963769431389    1.306346904429
H     -2.950800991947    4.202754242252    2.537804401952
C     -3.106513144213    6.367967941312    2.732906189708
H     -3.262486590901    7.254150614738    2.097942054332
H     -3.924654808378    6.319407678402    3.468246328228
H     -2.155309770186    6.491647776784    3.272462462520
C     -2.965169108112    0.769485078593    2.531848699080
H     -3.707935208230    1.026466916494    3.296163511591
H     -3.350362513774    1.058801483762    1.539529983266
H     -2.791989151868   -0.318076365562    2.520985841100
C      0.368633337422    2.695661178992    5.165467416267
C      1.363531363441    3.759923630003    5.667992902061
H      1.911215726327    3.377063785110    6.544699767527
H      2.102705816074    4.033384488941    4.900460268728
H      0.845906279916    4.684562568416    5.968828082112
C     -0.589081027203    2.332247375618    6.316832856763
H     -1.153346599631    3.215740666860    6.657362803860
H     -1.318454479109    1.569826933284    6.009294552846
H     -0.019717129862    1.942813903077    7.176979854212
C      1.150130784971    1.439867898942    4.738218545276
H      0.483074745703    0.638657802640    4.387629003848
H      1.866164625540    1.663236244846    3.932892547433
H      1.720589920263    1.045488686231    5.595419569261
N      1.987850219110    1.123527770250   -0.050672364709
C      1.316183027542    0.008240799638   -0.323769946019
C      1.984818838795   -1.208372348380   -0.660403271128
C      3.351882841278   -1.251535904169   -0.639325544096
C      4.096016720644   -0.096446666111   -0.262876700964
C      3.364529124791    1.093334515172    0.037684537472
C      5.511851845302   -0.084233713095   -0.176805400175
C      6.184985114588    1.060568296462    0.201636762311
C      5.457460808441    2.233008963840    0.510688085815
C      4.077189646751    2.253360604641    0.430113440416
H      1.367901451175   -2.073599903695   -0.904101835560
H      3.883689203174   -2.173762483880   -0.888682123446
H      6.059504169189   -1.000717405304   -0.411985480047
H      7.275178668369    1.062207616464    0.269593341312
H      5.990536888222    3.133676023064    0.824770387553
H      3.514830901604    3.153310119329    0.689422272557
