71

C      2.473162220986    3.959569335621   -1.076073873301
H     -1.692828046486   -0.636977600434    0.079574466528
C     -0.460174885531    4.675290069852   -1.266779953882
H      0.032562284092    5.090084553352   -2.148684160033
H     -1.339881416392    4.045797576823   -1.424508794073
C     -0.175749944975    5.172217820952   -0.009571676564
H     -0.800153655962    4.904170844197    0.851726599794
C      0.758488802489    6.316968948216    0.250188794784
O      1.161416522573    6.602496126221    1.353217276892
O      1.062151332398    6.996380615038   -0.863084440477
Pd     0.835698912180    3.192207863177   -0.262159556647
C     -1.840773836703    2.376815542484    1.563339153833
O     -1.050361666722    2.195178615824    0.490039962052
O     -1.973086548624    3.470659648271    2.053935118271
C     -2.598379783463    1.135932686863    2.088687489647
H     -3.132477332936    1.553988983726    2.958415410641
N     -3.636364901922    0.762325913300    1.146357869619
C     -3.587368264222   -0.062226049259    0.173654692087
O     -2.579876282093   -0.829677315441   -0.282746693432
O     -0.040011132094    0.112853938574   -0.169374856892
H     -0.710136139582    1.211843449232    0.213398988223
C      3.407159969295    4.637062808815   -0.285211627538
C      4.628638146392    5.082199379891   -0.821689187743
C      4.906544414081    4.854126163199   -2.190074460535
C      3.949769358382    4.188950382972   -2.968218325013
C      2.738767881700    3.736766302783   -2.428454171385
H      3.202437377112    4.831277264035    0.771406483659
H      4.158239320134    4.005823677876   -4.026677941103
H      2.029431319087    3.206033792502   -3.068564477614
C      5.632106615704    5.778029090899    0.064529915843
H      6.567379389414    5.197595707696    0.139644485333
H      5.908407393171    6.770260616864   -0.330439897186
H      5.241931847675    5.915460228305    1.083059566090
C      6.211778459727    5.304353994004   -2.798477926530
H      6.353405213091    6.394556781001   -2.704424291735
H      7.075033477953    4.832622706328   -2.299072773125
H      6.263887097147    5.050855278941   -3.867189979308
C      1.965297330916    8.109611778945   -0.722871757892
H      1.534574457951    8.822695069629   -0.001663063962
H      2.910613659553    7.741552736570   -0.294120803591
C      2.163993336557    8.726648663487   -2.090794901397
H      1.208583271886    9.080582393420   -2.507917543181
H      2.846663192075    9.587395565089   -2.016624241029
H      2.600883422693    7.997941591189   -2.790584964696
C     -4.827816432680   -0.303583773066   -0.649139113849
H     -5.660144540227    0.294246483633   -0.262133912369
H     -4.633809826530   -0.045727220869   -1.702848443751
H     -5.088419396368   -1.374091640330   -0.625888943789
C     -1.671765185729    0.052953901998    2.659379502942
C     -2.104858620256   -1.277253458418    2.764849810027
C     -1.305937643774   -2.243109276748    3.384135039772
C     -0.063775867725   -1.894355278150    3.920412243331
C      0.369494371094   -0.567653956144    3.840178839568
C     -0.429932144221    0.395894854574    3.219779960210
H     -3.080757848664   -1.561142876753    2.367542455211
H     -1.662377925920   -3.274265738487    3.452402329501
H      0.560049480326   -2.649546679505    4.405124761508
H      1.332925511070   -0.277694943909    4.267448650726
H     -0.080482412616    1.431787747456    3.187251789573
N      1.905549885235    1.319951271180    0.070693016006
C      1.220636739721    0.120788323180    0.012778892171
C      1.944740722564   -1.108526199273    0.149874948740
C      3.297405422844   -1.106937724282    0.378763164869
C      3.949060837680    0.138693689740    0.469579729916
C      3.230221846876    1.309693534566    0.303270490845
H      1.368856842889   -2.031667325340    0.081261492594
H      3.872899346892   -2.025554978815    0.496960400856
H      3.750788287327    2.264940829799    0.347406859337
N      5.384702678337    0.209005491806    0.722904485472
O      5.899275021537    1.315510450407    0.809710072150
O      5.985248718822   -0.850193468588    0.834314574834
