56

C      2.760932707392    4.010475989249    0.903016358134
H      1.382155187883    5.168888921688    1.775203784725
Pd     1.246198855419    3.211048765117   -0.148183380715
C     -1.411709757406    3.225364980857   -1.389631793809
O     -0.432517682525    2.392457120860   -1.145754999934
O     -2.509829427838    2.938991671933   -1.810356451730
C     -1.032010962899    4.703872346856   -1.135432940410
H     -1.957960533776    5.261325899409   -0.945768121532
N     -0.050675611248    4.832955553377   -0.053642974812
C     -0.202816969521    5.712285113381    0.881591359632
O      0.636779267088    5.804058240374    1.896406199942
O      0.210684067177    0.339624391655    0.175246223426
H     -0.197818448792    1.116299525858   -0.346039757487
C      3.201771279814    3.408881888700    2.097350794139
C      4.270507005702    3.918088967726    2.853836252669
C      4.940198277312    5.080420290272    2.406224668724
C      4.501430072446    5.688232617077    1.222172914247
C      3.430882341162    5.173994600433    0.483128113472
H      2.705939487332    2.502589875428    2.458859321083
H      5.009148035971    6.591687084361    0.869536001051
H      3.121007922194    5.691646624975   -0.429677346333
C      4.697762546166    3.226120510116    4.125237868452
H      5.748250233022    2.892130348202    4.072596843737
H      4.627067404242    3.896799884987    4.998815677370
H      4.075482363874    2.342726556162    4.329241031825
C      6.096765404507    5.657400651620    3.184538685045
H      5.801655578872    5.935419279485    4.211046379160
H      6.923703301900    4.933259244320    3.283689278860
H      6.497863610118    6.557890444565    2.696762603339
C     -1.319048820491    6.721612220375    0.954677891983
H     -1.360179801909    7.334032990203    0.041840800730
H     -2.292981085439    6.220484327303    1.066557809250
H     -1.153596488722    7.374046338529    1.820053343414
H     -0.593206750239    5.091551060933   -2.072722994388
N      2.227066330235    1.331946965626   -0.325657256233
C      1.512832882248    0.275356343520    0.033381172892
C      2.127691467540   -1.009397009978    0.333180468185
C      3.524600067987   -1.163487992670    0.152600396197
C      4.267716210835   -0.047923847308   -0.416073249660
C      3.576050683610    1.172026582829   -0.659384699279
C      1.340335399938   -2.076919863389    0.818438197039
C      1.934428982433   -3.283672108155    1.149336472572
C      3.324760075513   -3.441909676625    0.992634878343
C      4.104349547481   -2.405153139064    0.501694248228
C      5.633336578957   -0.133922009098   -0.771238536096
C      6.294592469073    0.929408650304   -1.364583241793
C      5.595541280754    2.118897164175   -1.633488039550
C      4.259547044357    2.235825580740   -1.285874800573
H      0.266556858602   -1.925588385637    0.930101530531
H      1.328040123045   -4.108819256261    1.529826616452
H      3.796263251652   -4.392088874964    1.256502249135
H      5.177987831044   -2.557003301765    0.386656991502
H      6.176707860377   -1.062547281309   -0.591713491963
H      7.348950358027    0.835976455946   -1.634875202649
H      6.101474976340    2.955400226320   -2.121471983863
H      3.708690445134    3.150558336470   -1.498178271781
