62

H     -0.412905464966    0.945396726707    1.102723848972
C      1.981464904842    3.248914111173   -2.330167482934
H      2.825875547146    2.559131923290   -2.394409558185
H      2.186185236023    4.321446278703   -2.307681505068
C      0.705932322750    2.787427904532   -2.558919013680
H     -0.128464268472    3.481857808984   -2.683385296711
C      0.447913359617    1.353820225781   -2.925903198141
O      1.308632869279    0.517404758167   -3.065798378502
O     -0.859266750209    1.144576975931   -3.094584453128
Pd     0.966969635682    2.992262721158   -0.339125395183
C     -0.165554304669    5.456431438569    0.500851704616
O      0.051006837546    4.758306470983   -0.594513664626
O     -0.684900534197    6.551116897016    0.508314856072
C      0.341272283860    4.785241017782    1.803418898235
H     -0.341988484274    5.094601491786    2.606758582395
N      0.282228767250    3.330661435130    1.585557656210
C     -0.451742936232    2.546978110133    2.326867119334
O     -0.716011390642    1.311458602465    2.034933481713
O      0.028526291230    0.176070317267   -0.046093725157
C     -1.273909931043   -0.211239923999   -3.354880212520
H     -0.725900953480   -0.585852456606   -4.234212859085
H     -0.979280296630   -0.824144380027   -2.489072730288
C     -2.772080559771   -0.208817856674   -3.570050780765
H     -3.049141063564    0.423779971839   -4.427567103142
H     -3.121444206489   -1.233699542178   -3.770320336234
H     -3.296859640328    0.166574540583   -2.678385048060
C     -1.101558744004    2.994844066972    3.616349507837
H     -1.448057543576    2.104347557357    4.154234030414
H     -0.413704306810    3.567293215826    4.251337426532
H     -1.975402763279    3.630084943440    3.398649233066
C      1.770651384534    5.283370442449    2.165584617466
H      2.401986271947    5.116599420871    1.272616120745
C      1.772785266078    6.786407421746    2.474004047671
H      2.801712288968    7.136335698318    2.653793986792
H      1.337563651819    7.377599571547    1.657355366847
H      1.185895068601    6.998747011412    3.383962600426
C      2.379366938290    4.485892579334    3.324610649773
H      1.802161977860    4.632022226458    4.253818636799
H      2.421947010509    3.408161562682    3.108925272049
H      3.407378171144    4.827030190938    3.524769347226
N      2.025882019249    1.235404475598   -0.015229724081
C      1.293308317924    0.107104677904   -0.033259598417
C      1.973104578426   -1.195220812265   -0.030275406501
C      3.385770145477   -1.263563725846    0.014595556503
C      4.137092423456   -0.014553627719    0.095805366903
C      3.412893985419    1.212918653301    0.086050634731
C      1.197670447903   -2.370486884062   -0.070281608532
C      1.810787857722   -3.614161165020   -0.084911299327
C      3.214809877796   -3.694325628863   -0.055502783526
C      3.987769368015   -2.542557171232   -0.004138505793
C      5.544210329206    0.034491485524    0.195040367959
C      6.231169157850    1.236980848516    0.285073830503
C      5.512540797562    2.442726620287    0.283470264586
C      4.128320846739    2.427734070420    0.187181905894
H      0.111947568875   -2.266736539409   -0.087364064432
H      1.209688448253   -4.525962831026   -0.118507864684
H      3.704789451988   -4.671393737420   -0.070096795176
H      5.073999875671   -2.636431251829    0.021463716620
H      6.110835715058   -0.897602492346    0.204658775726
H      7.320751702990    1.242222029470    0.360762449159
H      6.038334817545    3.397570080247    0.362260845001
H      3.570557893833    3.365762254102    0.196290337305
