74

C      2.520034973620    3.949627324598   -0.973174241448
H     -1.966562678170   -0.505870501849    0.167481072796
C     -0.512910088404    4.461182980790   -1.174660859746
H     -0.101424817730    4.841478933816   -2.112182055172
H     -1.359068935651    3.772268802590   -1.226390247087
C     -0.174002996007    5.062755051744    0.022768120664
H     -0.696953055279    4.823324827925    0.955226391678
C      0.691673200281    6.283381786317    0.121757055840
O      1.096091191095    6.727806874924    1.170072304729
O      0.928403094008    6.846808020814   -1.072520761288
Pd     0.904839729664    3.111526974744   -0.155903837048
C     -1.436680247890    2.281873115847    1.704828315176
O     -0.871749439554    2.056166372591    0.541288513753
O     -1.112795073821    3.190274629915    2.452923852083
C     -2.565043922426    1.301666513217    2.104226925262
H     -3.044097231157    1.799253241221    2.958075141890
N     -3.596637552957    1.218060107562    1.084764274718
C     -3.655894514306    0.453795611734    0.074164692185
O     -2.778899516482   -0.494598062546   -0.356818153373
O      0.190085726836   -0.032659688285   -0.274735266582
H     -0.326448002479    0.814946974871   -0.001475418511
C      3.407934228565    4.709998291706   -0.200132418026
C      4.596812251178    5.233308977052   -0.739530136270
C      4.902870271842    4.993049524982   -2.099478734227
C      4.003377605254    4.237822684721   -2.864304386611
C      2.823416586492    3.717169667828   -2.318501003015
H      3.179653487909    4.921976495515    0.848854107677
H      4.232623721607    4.044609244676   -3.917026756021
H      2.157642807005    3.125149963115   -2.952504732236
C      5.529161098816    6.042581249038    0.129729662416
H      6.527530211390    5.577163986126    0.199409922855
H      5.688636533297    7.056378105186   -0.276073744564
H      5.134797585978    6.149249271790    1.150504967709
C      6.170291797186    5.533822897080   -2.715563386981
H      6.218966275007    6.634711977067   -2.655199417475
H      7.069796372006    5.154622759325   -2.200638138656
H      6.250392366742    5.254191094365   -3.776215573488
C      1.761725565588    8.018712697327   -1.085072276011
H      1.295169611054    8.790726142135   -0.451729436386
H      2.731693298560    7.765282101891   -0.629023076425
C      1.911646636750    8.471363446641   -2.522155007113
H      0.932939282812    8.712569749019   -2.965132500635
H      2.541098455565    9.373847669288   -2.566963148495
H      2.385933456827    7.687333559772   -3.132022409190
C     -4.835303743791    0.510382288220   -0.861521043361
H     -5.560790756882    1.248946944967   -0.502944568451
H     -4.498696999013    0.775522665737   -1.877210348272
H     -5.310254285518   -0.481818422825   -0.930569583678
C     -1.980620717732   -0.031352510228    2.637593963501
H     -2.831569830997   -0.708187898412    2.834197289934
H     -1.360191575735   -0.525410407211    1.870437174807
C     -1.115461324019    0.077756890647    3.911639152865
H     -0.237410763069    0.704798531218    3.670870133601
C     -0.597465392698   -1.312873582986    4.304311999610
H     -0.044950648757   -1.788832569117    3.477102593986
H      0.080160021284   -1.256123928839    5.171560974697
H     -1.430631431896   -1.983901038057    4.576539622319
C     -1.844329435245    0.745757656578    5.085093063201
H     -1.224393463798    0.710733363999    5.995702726592
H     -2.061574009843    1.803668331364    4.878789001245
H     -2.795188464663    0.231506073308    5.310197038513
N      2.042855897029    1.284465668045    0.184639799504
C      1.470414212081    0.068704100352    0.021737785065
C      2.225043860934   -1.118748654379    0.146509365593
C      3.570811043127   -1.070590013643    0.481070189009
C      4.138497784786    0.205984959876    0.687422686909
C      3.354544259817    1.330692875114    0.523328177063
H      1.703190760872   -2.062925267829   -0.017002966064
H      5.188754501885    0.319792877806    0.962489673316
H      3.778863801076    2.326459577602    0.648105112174
C      4.398566201815   -2.318240926011    0.628343407747
H      4.834407072574   -2.380500398960    1.639026925319
H      3.805126507531   -3.226141788108    0.451806816700
H      5.240554391502   -2.312288764136   -0.083483070275
