68

C      1.626623247714    3.057246671680    2.141285155398
H      0.657831588859    4.403370126911   -2.848528167020
C      0.363361283368    5.211269023254    0.260847335121
H      0.204987128282    5.465739054529   -0.789576580604
H      1.159175361291    5.735361260446    0.796276428152
C     -0.579398863217    4.497196505142    0.971410592636
H     -0.514127295572    4.431656249409    2.059079560507
C     -1.915898299396    4.030316853838    0.466287266635
O     -2.663950812900    3.382905051986    1.161555690983
O     -2.182792096898    4.430553293350   -0.780312757105
Pd     1.007436028211    3.090930202093    0.237835310363
C     -0.438164875218    2.370953910901   -2.333029708446
O      0.495884214532    3.125002323744   -1.878000919094
O     -0.985671795368    1.465929305831   -1.677682313792
C     -0.875243378748    2.595112451894   -3.795714731051
H     -1.704836986890    1.886588531057   -3.935653231203
N     -1.399832176330    3.918012240128   -4.121155569168
C     -0.769026443361    5.018520011120   -3.967681888134
O      0.429488776188    5.214294312608   -3.382602545863
O      0.031641562998    0.129441265068    0.201186476212
H     -0.387738188896    0.796018439248   -0.474049002289
C      1.038795679350    2.167028640775    3.049578895160
C      1.456409347098    2.099287403580    4.388776031354
C      2.497457167995    2.948648274609    4.833358736835
C      3.077470691648    3.832645733942    3.915919605941
C      2.653042303354    3.897603320705    2.581819300789
H      0.232859688265    1.504493797409    2.720271634020
H      3.885274026628    4.491912569135    4.248818889360
H      3.144311481378    4.600976761691    1.903909343604
C      0.795933224718    1.128814753298    5.337377312763
H      1.523359932694    0.415388080316    5.761462194653
H      0.333517749628    1.648812899685    6.193830234844
H      0.009505012185    0.548765452790    4.833614815917
C      2.973414935481    2.905165857612    6.264869071003
H      2.159855390907    3.136470725538    6.973766150760
H      3.351401388890    1.905486797773    6.540172298151
H      3.783820469305    3.628045209234    6.439230056408
C     -3.443140633201    4.009274560404   -1.362466515756
H     -3.252593217728    4.022166056530   -2.444204226636
H     -3.642954124993    2.978337894281   -1.038747985505
C     -4.574517834138    4.944684363484   -0.974244577895
H     -4.347861966250    5.982535298056   -1.264996954067
H     -5.497029721486    4.639512650004   -1.493875122002
H     -4.766365554078    4.910853900161    0.108495159797
C     -1.359639980177    6.309349603330   -4.468938266422
H     -0.625740439925    6.832278188056   -5.103015087276
H     -2.275195129334    6.114053021795   -5.038972371100
H     -1.583735812184    6.976599586754   -3.620216731504
C      0.259590298638    2.180522978697   -4.751228448093
H      1.142292066073    2.826487566423   -4.632870979763
H      0.563184936834    1.137727496244   -4.567175430715
H     -0.092523251055    2.262821433252   -5.790501045232
N      2.043215119376    1.229831792646   -0.013083949007
C      1.341568996168    0.108076225748    0.164396268316
C      1.995741804321   -1.153210578671    0.350920606559
C      3.358471848238   -1.223414426724    0.283844933314
C      4.123643819402   -0.049830649452    0.015215522966
C      3.416087866535    1.182022381248   -0.133080104343
C      5.535820967552   -0.061640894469   -0.108470110603
C      6.231494206902    1.101486854958   -0.376684920124
C      5.528316473391    2.317439268906   -0.531098017142
C      4.151117426698    2.360055482272   -0.410353126386
H      1.364138392473   -2.025229354886    0.522528443965
H      3.874008667203   -2.178537951086    0.416699748518
H      6.064058683321   -1.011609974918    0.009088102810
H      7.319320682363    1.084267556101   -0.473515974756
H      6.077638155413    3.235910941455   -0.752007492411
H      3.607845518046    3.298810306612   -0.538506360282
