53

C     -0.773964314619    2.904236425234   -1.665379669377
H     -1.656847372339    3.372011990604   -2.107243184985
H     -0.214019239667    2.184466847119   -2.266321849058
C     -0.249072340386    3.399357151433   -0.493179865922
H      0.712363012151    3.057395860816   -0.102207657847
C     -0.836831221837    4.566892830762    0.254367486719
O     -0.502561924212    4.852862817292    1.379661035175
O     -1.734755259977    5.233155536919   -0.473854072362
Pd    -1.523234773873    1.597774419339   -0.016633648281
C     -3.891466505097    2.380845398664    1.331448600177
O     -3.015800928888    2.813675128633    0.450318551351
O     -4.808335723991    3.066596008416    1.731814709423
C     -3.666257513448    0.949319648337    1.867231004509
H     -4.644868132648    0.445849818088    1.820496369372
N     -2.697571821675    0.257336413470    1.003403496450
C     -2.717346276591   -1.028182715382    0.808449825892
O     -1.834958951807   -1.627206229285    0.053627640936
O     -0.149315060216    0.173870994545   -0.569843490658
H     -1.122510073710   -0.972972877262   -0.282123938060
C     -2.556996458548    6.198478732351    0.213301783289
H     -3.230570758210    5.640741339729    0.883670730067
H     -1.910580355628    6.842483525570    0.828842935290
C     -3.327512914440    6.982782656751   -0.827124912874
H     -3.963175882130    6.316118280735   -1.429711812940
H     -3.978357866620    7.719429904921   -0.330838951453
H     -2.647399323354    7.523460201653   -1.504025697069
C     -3.756136828614   -1.950467993796    1.391263706101
H     -3.810181981999   -1.855426777638    2.484636721575
H     -4.751488782215   -1.708817512998    0.985889213955
H     -3.503459883266   -2.983984058762    1.126854878265
C     -3.205848772017    0.968977624854    3.360027704848
H     -2.918979590936   -0.075109269993    3.589175645037
C     -1.965026627875    1.845154526136    3.578285229164
H     -1.597951851189    1.749404120913    4.610700711756
H     -1.136487149671    1.555672426349    2.913597057678
H     -2.183277151265    2.910338267987    3.399441715774
C     -4.380704935630    1.332045157978    4.290188053522
H     -4.707650255312    2.360280458064    4.071052232882
H     -5.240830995793    0.687970890015    4.031742155963
C     -4.078826437815    1.175207985233    5.782027947554
H     -3.308023564884    1.881606922038    6.127303002664
H     -4.982937728921    1.363477619453    6.382429003756
H     -3.727778962071    0.156644800282    6.022634317375
N      1.367045474029    0.938340935638    0.983869419620
C      1.034659063750    0.059835593917    0.034173667390
C      1.902143697269   -0.992623640998   -0.349377634819
C      3.126863971357   -1.108161773398    0.293997202200
C      3.473457615384   -0.186163023195    1.293322884265
C      2.554768792058    0.816778898330    1.591928590415
H      1.595463063488   -1.683297161644   -1.136915677419
H      3.814355639972   -1.912662568594    0.018206549554
H      4.427489365409   -0.244136146050    1.820353278498
H      2.778120393928    1.565202063327    2.361144338911
