63

C      1.636638102357    3.021617494634    2.096058645397
H      0.692396358612    4.360362175275   -2.919458619706
C      0.368370490287    5.164170204171    0.217680475232
H      0.214989953601    5.406684187709   -0.835928361379
H      1.174134300805    5.681025013233    0.745264349342
C     -0.581890521084    4.471239917990    0.938983068007
H     -0.513307957992    4.416720470360    2.027188999882
C     -1.923429462190    4.008907288347    0.442875167117
O     -2.672313853302    3.371819944701    1.146933350369
O     -2.191085527183    4.397078832271   -0.806845577385
Pd     0.973619005133    3.033216841805    0.210298821042
C     -0.449420158364    2.342828504440   -2.416277016266
O      0.469362970532    3.082746855471   -1.905736337974
O     -1.020804513276    1.416145638659   -1.819498940143
C     -0.820046864759    2.654080911976   -3.874409693305
H     -1.521992190041    1.875056996507   -4.200621833478
N     -1.419846947060    3.956832943928   -4.123978208732
C     -0.767035909035    5.042835444464   -3.956907089636
O      0.474090715352    5.175952816733   -3.448481504926
O     -0.006761911012    0.046448591794    0.044732602054
H     -0.430400994012    0.708550285831   -0.625966591310
C      1.047756781287    2.187232457963    3.054868352002
C      1.521927357020    2.136497125783    4.375825034294
C      2.622825267959    2.944540104549    4.748534062096
C      3.204254875092    3.771983486777    3.780575118807
C      2.722778170688    3.820830784480    2.464968525234
H      0.197826588004    1.555376773799    2.780092241695
H      4.056734027710    4.399756541690    4.058570463773
H      3.213478257280    4.482056169225    1.744297723562
C      0.858996304158    1.227050477695    5.381447472829
H      1.569518131128    0.490357391397    5.794276414744
H      0.461977964764    1.793222185278    6.241452066384
H      0.023447180164    0.672916934689    4.930394557306
C      3.159746990977    2.917597846893    6.158783441231
H      2.391506123454    3.211002037609    6.894738331001
H      3.498820775157    1.908096745055    6.448534107600
H      4.012458779217    3.602442023409    6.275455518189
C     -3.450310024325    3.967313301042   -1.386054874261
H     -3.258381763073    3.973654735847   -2.467517873452
H     -3.646171199437    2.937785743201   -1.055381227233
C     -4.585212994822    4.901003329295   -1.004231864470
H     -4.362774637585    5.937671265270   -1.302546232284
H     -5.506378062779    4.588541514789   -1.521931196714
H     -4.777187571905    4.874213896838    0.078683726841
C     -1.364455783208    6.365881022568   -4.348534176829
H     -0.656551783794    6.918767376211   -4.986599740546
H     -2.309668278141    6.214182200175   -4.882584660182
H     -1.539043703223    6.982666966885   -3.451426786808
H      0.113035964625    2.533475578425   -4.462147418038
N      2.006064425910    1.183699523961   -0.029663303343
C      1.303716337328    0.040729702260    0.011281300307
C      1.989103025623   -1.219882545735    0.058126798831
C      3.376919812457   -1.230717340510    0.010695962717
C      4.075546788369   -0.011091931182   -0.072070680134
C      3.362266763729    1.168290176750   -0.081843240367
H      3.927940070242   -2.171434218457    0.027339228174
H      5.165429069750    0.007020535650   -0.115090182681
H      3.858376739178    2.139175498907   -0.112936920117
O      1.191537188898   -2.301163103597    0.130316544308
C      1.780398579227   -3.582176454865    0.174443829195
H      2.429372437324   -3.703983832636    1.060674363571
H      0.954171319976   -4.302308316940    0.234558028983
H      2.373817944647   -3.791029493441   -0.734288655089
