47

C      2.086593832821    3.871083918709    1.973875067997
H      2.725376561316    3.028656843399    2.253569129464
H      1.264763711963    4.177923739941    2.624225046850
C      2.488772039697    4.737549845826    0.979737884116
H      1.960866705491    5.686751163627    0.876819029160
C      3.854118790586    4.645801996537    0.380715407250
O      4.668328144990    3.779132702445    0.607655716649
O      4.085833617550    5.696383737588   -0.423738632852
Pd     0.913145052655    3.272946676352    0.187498464057
C     -1.683804880776    2.691858674888   -0.859215836529
O     -0.535960304987    2.087869696144   -0.551661828818
O     -2.647665883986    2.092702434664   -1.268193400569
C     -1.646762273419    4.220334433309   -0.710720126018
H     -2.637595449551    4.496657476510   -0.322702621814
N     -0.596397556920    4.616930157062    0.234526923652
C     -0.765517134338    5.639509960919    1.113129657834
O      0.068250783700    5.950498772040    1.966828013392
O      0.628244705992    0.477804407816    1.270515707665
H     -0.016786759972    0.991273397319    0.715782567365
C      5.403189108581    5.818267016491   -0.988886923722
H      6.145474847998    5.733941618792   -0.179164923560
H      5.576717501757    4.971755111077   -1.673729104194
C      5.485109443805    7.149280333497   -1.706246585519
H      5.313401454439    7.983023061023   -1.008536782841
H      6.483327670703    7.272661426375   -2.154185886954
H      4.735448550350    7.212661506255   -2.509857177158
C     -2.067010428039    6.446203981404    1.043521596933
H     -1.946305042271    7.307664701185    1.711319530701
H     -2.303454774588    6.800201044696    0.029391061646
H     -2.921155799104    5.845813342176    1.396915144695
C     -1.479546878306    4.852926174225   -2.104198713605
H     -1.507718126615    5.951318086648   -2.039566189633
H     -0.513331449616    4.564325516374   -2.548476251900
H     -2.286733369149    4.516371351776   -2.772520592885
N      2.160275412104    1.547708697317   -0.089409673791
C      1.813715983255    0.483931520351    0.672045295727
C      2.681129373810   -0.606551895485    0.843418720322
C      3.868791043422   -0.620540191596    0.127029799128
C      4.144860531666    0.412681372971   -0.774997609149
C      3.258350615018    1.483281699882   -0.884269505218
H      2.374495966655   -1.419203722246    1.502202215747
H      4.563680205673   -1.457123670107    0.234784723983
H      5.036858025106    0.388500331562   -1.402246784994
C      3.429586731354    2.517694333883   -1.960592934676
H      2.937161179765    3.467015283920   -1.715544301119
H      4.491709824525    2.702176915991   -2.168523967556
H      2.959374498816    2.144792108248   -2.887213780618
