62

C      1.511710999893    3.265245890413    1.869537397628
H      2.361491906131    3.024831775085   -1.980199547673
C     -0.336147049781    4.901041338909    0.008691520332
H     -1.016023325858    4.861716360164   -0.843299128003
H     -0.786010034654    4.852968601803    1.002993975143
C      0.975666492617    5.292881902689   -0.138165821797
H      1.577695661220    5.552071933338    0.733987856481
C      1.625513566230    5.725155935972   -1.416768077209
O      2.810501590244    5.957164291750   -1.497796662971
O      0.766617460248    5.851895463544   -2.437585099975
Pd     0.916342137518    3.032032617690   -0.030569882403
C     -2.164473990715    2.530630183266   -1.126262124743
O     -1.898506250190    1.979001075918    0.048170049619
O     -3.040492764728    3.352393902351   -1.268052129247
C     -1.298316954321    2.095264509501   -2.327117837555
H     -1.713752832321    2.680665412699   -3.161860255981
N      0.110122702049    2.493150661896   -2.113195473599
C      0.908347053609    2.581659544868   -3.115255936349
O      2.190049059357    2.920755910066   -2.936834181651
O     -0.089707875635    0.180934655470    0.190344788307
H     -1.162540743860    1.279249093905    0.051646140378
C      0.597978221874    2.868118097155    2.851610093656
C      0.918166733284    2.947740765768    4.218121055742
C      2.187958987184    3.437417366842    4.604172802208
C      3.088889887486    3.829028465213    3.605903210142
C      2.765546023929    3.749443165789    2.245066451561
H     -0.382113926121    2.474639767414    2.566363374541
H      4.073333026016    4.209409769701    3.895160011275
H      3.499757182484    4.072544458002    1.501728790959
C     -0.086419324567    2.506804705405    5.254127814852
H      0.308053301721    1.685530105586    5.876506235318
H     -0.343670644394    3.327423766366    5.945561712518
H     -1.017291180083    2.155765558749    4.786452565049
C      2.568041327957    3.534654576056    6.061369890311
H      1.879233813305    4.190688885003    6.620766637805
H      2.533652550511    2.550007822767    6.558310661290
H      3.584892014099    3.935243678843    6.183789820399
C      1.317620842869    6.306246977338   -3.691353848252
H      1.867429171915    7.243684778208   -3.513098688357
H      2.051752151083    5.561259947516   -4.037929075152
C      0.175899205744    6.493631593287   -4.667527442709
H     -0.546038593742    7.235195633717   -4.293152215949
H      0.566424053410    6.849328985875   -5.633587963268
H     -0.363149801438    5.549461052401   -4.840983447902
C      0.608754316124    2.344355436502   -4.568358929206
H      0.950704842740    1.336630276582   -4.853848745932
H     -0.459707341619    2.428752730156   -4.796118054009
H      1.176339075403    3.063858157491   -5.174345604988
C     -1.475001131708    0.597679174489   -2.624276844606
H     -0.960520246782    0.316094157847   -3.554840838857
H     -1.082449117780   -0.020474063185   -1.805943981730
H     -2.545549078376    0.374657572868   -2.754299083162
N      1.962349263485    1.191819780179    0.035618912028
C      1.157654408277    0.079755149642    0.113891968258
C      1.837866983232   -1.201053706802    0.088902674285
C      3.210030031262   -1.292924297126    0.042912192861
C      3.970214858366   -0.104405989107    0.007673175081
C      3.311819710559    1.108515774295    0.012564109583
H      3.700702136257   -2.267190882976    0.037002235079
H      3.874758285109    2.043608677230    0.002785550330
Cl     0.850267228741   -2.629680953284    0.135717910801
Cl     5.714726727923   -0.166247621144   -0.038053703381
