75

C      1.390536961547    2.922876056765   -2.147387253190
H     -0.005255159999    1.805551701893    2.184530547495
C      0.460109666080    5.247294185071   -0.409303417417
H      0.530443231771    5.644724716445    0.609180310271
H      1.165109441773    5.605870945061   -1.163030074070
C     -0.644071786577    4.514940466302   -0.799496288944
H     -0.810437007440    4.266746139226   -1.851240312430
C     -1.857305677422    4.272196114517    0.062263349631
O     -2.579840165095    3.308578356499   -0.065804120179
O     -2.048006536912    5.264093973441    0.926573567002
Pd     0.963784182297    3.100047147762   -0.203190602939
C      0.261842920184    3.945392288584    2.847916863247
O      0.643111217232    3.065814657354    1.948428846879
O      0.470107713149    5.144277478929    2.782363551341
C     -0.497806108576    3.328891720900    4.052458042692
H     -0.814097380101    4.202760030188    4.643553869406
N     -1.722673462921    2.614024137178    3.682311211906
C     -1.773414786260    1.600025896888    2.909501071830
O     -0.718797930471    1.052570144583    2.248424114942
O     -0.019612749618    0.070858390786   -0.112307823555
H     -0.451103826367    0.460025544172    0.700479620991
C      2.480738125812    3.614093001072   -2.691650667735
C      2.845899862452    3.473784598241   -4.042392197520
C      2.090250804125    2.617325763657   -4.874988734991
C      1.002652246694    1.930489512313   -4.318289266263
C      0.646999041318    2.071249542060   -2.971621963625
H      3.081661467658    4.280378878809   -2.063992661643
H      0.414187347639    1.262160131895   -4.954731185708
H     -0.200450846613    1.507292430076   -2.573966363428
C      4.029290371571    4.234108442778   -4.590281443804
H      4.797748595977    3.554403470499   -4.997083881071
H      3.736322181415    4.902852605353   -5.417841744214
H      4.505328560785    4.851448905108   -3.814376845398
C      2.444379651350    2.443739714323   -6.331909684478
H      2.401535273200    3.400332749302   -6.880779292072
H      3.469620084051    2.056009556107   -6.461429721334
H      1.757505595980    1.743368963473   -6.829151790394
C     -3.163675234322    5.179252567684    1.843552191049
H     -4.083629363732    5.017403644257    1.258891616900
H     -3.011298502155    4.305437547144    2.496500331462
C     -3.192191132144    6.470108573322    2.634158455241
H     -3.357947299965    7.339018468083    1.978025277392
H     -4.004820015303    6.435218395847    3.376428127367
H     -2.237493534172    6.609883695593    3.163353995294
C     -3.070744433160    0.902140894937    2.614443773314
H     -3.845278836019    1.221259939081    3.321833211330
H     -3.387753545930    1.157502786789    1.589325647301
H     -2.938095107387   -0.190006735587    2.664697263298
C      0.441553330199    2.485003186291    4.966581451569
H      0.685335310545    1.553648637304    4.424926625642
C      1.751542401409    3.230657737699    5.254084389116
H      2.385528768503    2.664450456475    5.953550545071
H      2.339704606578    3.394174495243    4.338458896362
H      1.553759765403    4.218698140137    5.702306541776
C     -0.297907899214    2.097845903285    6.263981214146
H     -0.423845225360    3.006782843741    6.881222225246
H     -1.315138857855    1.768241754453    6.001303416453
C      0.384388654027    1.004318136159    7.088972314805
H      1.386247870367    1.302666151742    7.437803570584
H     -0.210003555245    0.755879056185    7.983107850996
H      0.501506232972    0.077012680265    6.502611794868
N      1.984380924085    1.221517005579    0.059906476588
C      1.306322197651    0.069695138162   -0.007044512407
C      1.997863830112   -1.180368580606   -0.018614060567
C      3.387740587868   -1.174386351234    0.076742201844
C      4.063193974806    0.051610474751    0.180071976695
C      3.333732554854    1.225316979924    0.165757748546
H      3.951188917742   -2.107769812304    0.083870261162
H      5.150562495943    0.084501715056    0.263454348853
H      3.815905371276    2.202057732369    0.226240575640
O      1.219952034517   -2.273003981929   -0.108557724569
C      1.827007383035   -3.547764631296   -0.124414342388
H      2.391690045536   -3.742797002942    0.805077164597
H      1.011931126080   -4.278100835337   -0.207086031027
H      2.505295915442   -3.666217018202   -0.988435508539
