71

C      2.530670873674    3.901006652403   -1.007256305471
H     -1.925043342396   -0.538537383409    0.107361167307
C     -0.503384349160    4.407402922178   -1.038118780343
H     -0.137648436499    4.816543808363   -1.982503976956
H     -1.349136339113    3.716786652494   -1.071808377549
C     -0.111082396492    4.973133028623    0.160137297743
H     -0.591256997781    4.696981061395    1.106661241311
C      0.757198573806    6.191706674458    0.257132393245
O      1.222670800295    6.595185593530    1.296850626905
O      0.922344291796    6.803853481817   -0.925227179218
Pd     0.964820675693    3.031296775577   -0.128667576501
C     -1.368846374257    2.154113720805    1.765438186704
O     -0.758813021352    1.926460735870    0.624553914498
O     -1.125770829888    3.104609122199    2.489197589758
C     -2.461272125937    1.124642640632    2.151152804143
H     -2.907459463631    1.554197838596    3.062431196696
N     -3.517540769565    1.130125667223    1.153841120692
C     -3.593653659279    0.456007587154    0.082373203010
O     -2.733592252147   -0.473723804305   -0.419681312052
O      0.281137282697   -0.103741760340   -0.351424278261
H     -0.234354403884    0.715663077653   -0.001877561941
C      3.454933316835    4.651406506083   -0.268082802605
C      4.608763230634    5.195329928207   -0.860655362421
C      4.841234775177    4.986312662972   -2.240128796678
C      3.905990868663    4.240448401345   -2.970457270950
C      2.761268234512    3.699512051695   -2.371996570388
H      3.283012581297    4.840492456901    0.795856597088
H      4.077948315091    4.071454886333   -4.038144597320
H      2.065353791700    3.116300942650   -2.981353364484
C      5.581624869775    5.994385273275   -0.026919757423
H      6.585964567087    5.536613799372   -0.022081956268
H      5.710956813540    7.017692167882   -0.419357916218
H      5.243327491860    6.076697843206    1.016022293098
C      6.068670526241    5.550806725215   -2.913270554612
H      6.111422106806    6.650725363874   -2.833467239793
H      6.998150937701    5.170074011275   -2.455934882671
H      6.092958832794    5.292932580622   -3.982143464867
C      1.749967753963    7.979715359406   -0.939090816842
H      1.318715876598    8.723396689051   -0.249328325972
H      2.745627707199    7.713650023417   -0.550547425189
C      1.814653615213    8.490075631079   -2.363166317586
H      0.811073109926    8.743332782194   -2.738613307935
H      2.437637100483    9.397025616861   -2.408301681809
H      2.255023462383    7.733545838597   -3.030523850803
C     -4.771806806507    0.609101361036   -0.843153200042
H     -5.481460213461    1.332477357910   -0.426589236946
H     -4.430149344732    0.945705930880   -1.835691143493
H     -5.267981430379   -0.364177210478   -0.988969158098
C     -1.839976938028   -0.237896348093    2.588542750773
H     -1.207843614017   -0.635985855596    1.773055166238
C     -0.914186404765   -0.035718282818    3.797249836854
H     -0.461105922324   -0.992225425770    4.103581446482
H     -0.099320634146    0.673300280924    3.585977378452
H     -1.477270020538    0.360687794077    4.658562846652
C     -2.927211696407   -1.271713501687    2.907336977546
H     -3.594855350648   -0.900388374941    3.702656740934
H     -3.547467722337   -1.507324707984    2.030672257511
H     -2.475592768156   -2.212818747210    3.260926080348
N      2.137392727785    1.208239419590    0.114407471554
C      1.568937141695   -0.001294859260   -0.086623739385
C      2.347833170590   -1.178869868006   -0.033984283990
C      3.692610240701   -1.093733384078    0.268585725865
C      4.285253698406    0.160334402450    0.525468492142
C      3.455661505208    1.268925936175    0.423377267787
H      1.848474420397   -2.129632932281   -0.223778150163
H      4.296995843964   -2.004408679621    0.317462072128
H      3.858548673433    2.270141876635    0.576705578506
C      5.743404180230    0.296327389582    0.880853702047
H      6.031323942586    1.351233297714    0.997104000619
H      5.975708969098   -0.221255348334    1.826701915216
H      6.388433919978   -0.144605849016    0.102931934644
