41

C     -0.678960069872    2.923701767662   -1.492249143666
H     -1.558241588033    3.389990645223   -1.943314050665
H     -0.088588851065    2.237687101215   -2.104116547290
C     -0.190409652420    3.385808306478   -0.291212434326
H      0.763203484270    3.020912985564    0.103672708995
C     -0.806796170011    4.519315183817    0.483096401034
O     -0.500163872892    4.764506084991    1.625445270984
O     -1.689198664861    5.210877343977   -0.241633660862
Pd    -1.440555367276    1.536202395624    0.084158734886
C     -3.851337183457    2.285385697885    1.381330429614
O     -2.928870535503    2.746302618515    0.564071234015
O     -4.740810383213    2.968665706471    1.833796161254
C     -3.742208705044    0.794668859453    1.737832471482
H     -4.708006523033    0.328364878996    1.480582999483
N     -2.623033962790    0.150743836506    1.055559242640
C     -2.477952410586   -1.143424079491    1.061858929611
O     -1.501634073928   -1.736253866071    0.438685869328
O     -0.063063016749    0.110985859262   -0.467116231709
H     -0.871828033154   -1.048555984321   -0.006489944309
C     -2.530528690024    6.145026352214    0.464777665044
H     -3.202511758922    5.560250340031    1.113475949561
H     -1.898917638387    6.779919853586    1.104852990178
C     -3.301518611749    6.948725312025   -0.560410879419
H     -3.922420389847    6.291138369335   -1.187922453594
H     -3.966800493677    7.662552935573   -0.050111398083
H     -2.622346514049    7.517042133136   -1.215276924405
C     -3.426351333442   -2.065812232846    1.778156242422
H     -3.505480513661   -1.795132839608    2.842095833273
H     -4.436848764746   -1.993387802186    1.345630452916
H     -3.067340807509   -3.097607890778    1.686888309110
H     -3.636095701779    0.727863565391    2.835175047941
N      1.802994199984    1.074318479156    0.495886623376
C      1.228787441463    0.049763639510   -0.136956728265
C      1.956534154636   -1.118969775769   -0.476498001092
C      3.297436589209   -1.191873283930   -0.126411394551
C      3.896190974055   -0.115022697224    0.544451658902
C      3.099249337850    0.991454257495    0.823985384762
H      1.455694703938   -1.931929224983   -1.005484110736
H      3.878460144669   -2.084220539519   -0.375340197489
H      4.947359931026   -0.134579373549    0.837464986169
H      3.519523223564    1.861477693998    1.342051054878
