50

C      2.763911708635    3.959211023594    0.878250050832
H      1.538173391895    5.302954371808    1.669197258140
Pd     1.124293948409    3.100124731693    0.101223543560
C     -1.595581858409    3.101089154353   -0.997810556935
O     -0.639198704510    2.268229205207   -0.686266702457
O     -2.710389028573    2.805219904079   -1.369514070197
C     -1.176958171148    4.592324017291   -0.925340250459
H     -2.080018243077    5.135964562603   -0.614498612860
N     -0.092803646329    4.783206779880    0.057497366978
C     -0.095735477521    5.809554525522    0.843499415655
O      0.847728081846    6.003505507620    1.746873550227
O      0.083521215066    0.078567515470    0.320298930188
H     -0.356027060937    0.907592396704   -0.064386372618
C      3.202878240409    3.652225064878    2.181516444608
C      4.375014528096    4.195654396080    2.735730783354
C      5.156875883698    5.082251483321    1.959779297917
C      4.723923485191    5.393614925309    0.662936510300
C      3.549147929559    4.854089061397    0.127913995721
H      2.618975936929    2.958819381474    2.795431065471
H      5.319609769734    6.083693287901    0.056830799543
H      3.247742513643    5.138362841504   -0.884545859455
C      4.790476632907    3.830979059532    4.140080800551
H      5.786513646202    3.356229348747    4.160126881030
H      4.856871266356    4.720859201501    4.789346937978
H      4.076805897630    3.132527473947    4.600522029529
C      6.423820886300    5.686500985270    2.513359965371
H      6.229552732303    6.281467551706    3.422383047890
H      7.155859643566    4.911731765441    2.799451933052
H      6.906397897366    6.347436934742    1.778597717692
C     -1.144407353168    6.891960368037    0.859601595885
H     -1.298833926163    7.317152891054   -0.142027996924
H     -2.109352288578    6.489635604304    1.205922150192
H     -0.826464027204    7.686380112796    1.545106822786
C     -0.759877423198    5.076602605772   -2.320835846744
H     -0.528917967798    6.153945157297   -2.318052069009
H      0.132697843934    4.533906626795   -2.668948114405
H     -1.580641612167    4.893646880675   -3.029755497240
N      2.097758588643    1.223082029685    0.031842700538
C      1.390597328635    0.077907966868    0.192684024411
C      2.058831037719   -1.169336092825    0.247036833339
C      3.427077593861   -1.225939373168    0.082053573825
C      4.162653223297   -0.043073832844   -0.144376914078
C      3.441071861363    1.141665143721   -0.151440620800
H      1.448478044140   -2.059820091868    0.401132963473
H      3.939512421007   -2.192170272154    0.113876084758
H      3.952279760431    2.092719241571   -0.298130337933
C      5.654301915492   -0.058953200832   -0.360038080126
H      6.053763403996    0.959246388176   -0.475669791739
H      6.178072212314   -0.530760658113    0.488035682637
H      5.924050915573   -0.630042165237   -1.264475318125
