77

C      2.493346470378    4.001073331735   -1.167625180128
H     -2.147070327360   -1.542985135645    1.704684722843
C     -0.337509118632    4.795102363086   -0.623448763631
H      0.012187164528    5.292154169072   -1.530633040989
H     -1.261263214578    4.214253489592   -0.686310261685
C      0.178198437907    5.136321465452    0.611847404742
H     -0.324544410462    4.772652605766    1.517767429531
C      1.186334453681    6.221036734451    0.833363820149
O      1.855886817110    6.317187990113    1.836604042684
O      1.232483211746    7.093701363160   -0.183571472338
Pd     1.059398418225    3.191801198592   -0.025917644715
C     -1.539514653034    2.273026868910    1.613657882108
O     -0.525015560709    1.996087933294    0.847506589808
O     -1.716703993698    3.339295324026    2.188726850682
C     -2.528935116524    1.100584338389    1.818855725559
H     -3.456588828570    1.577194289292    2.171910887989
N     -2.836287227972    0.534230871128    0.519018431162
C     -2.767948425506   -0.665071917560    0.113955488855
O     -2.394416595139   -1.783471781547    0.802158987868
O      0.153255672951    0.390041050791   -0.992751967290
H     -0.294593198576    0.995352523947   -0.298487772194
C      3.562416113411    4.762396069398   -0.681321227012
C      4.575243077480    5.243929212035   -1.529286757835
C      4.512487435748    4.964799568541   -2.913440130263
C      3.433777506761    4.210509697275   -3.392850121929
C      2.432952436266    3.729822082086   -2.540211107546
H      3.630953268836    4.999307398031    0.383034279899
H      3.372816801638    3.987798575045   -4.462771552457
H      1.614033776724    3.140713547953   -2.963272525880
C      5.721211406498    6.043797140862   -0.957166384685
H      6.691361003678    5.549465265518   -1.137997864309
H      5.793297329532    7.044456382904   -1.417183591129
H      5.613377663894    6.179474323007    0.128900643130
C      5.582524975284    5.461578679420   -3.854840233264
H      5.665492618112    6.562060059274   -3.838967205748
H      6.578738399874    5.070574171879   -3.584787172856
H      5.375264482068    5.158006396312   -4.891469076084
C      2.162309529352    8.185050173505   -0.068801343855
H      1.964818150803    8.720208563880    0.873913978920
H      3.182052167456    7.773776227248   -0.003216627253
C      1.989621927389    9.075686361109   -1.281088588530
H      0.964585711720    9.473581552645   -1.335946628365
H      2.686952860354    9.926050755882   -1.224007685848
H      2.195999488673    8.520356098883   -2.208816016628
C     -3.104739470280   -1.025378677476   -1.307156424369
H     -3.525676037434   -0.155585917083   -1.823727412771
H     -2.187532668121   -1.349761312120   -1.824938741414
H     -3.815656660603   -1.866180319834   -1.331745287745
C     -2.003069084731    0.184112561500    2.959142853994
H     -2.759548236870   -0.601425596484    3.151067519124
H     -1.071640786463   -0.305637065234    2.620911123171
C     -1.706279424717    0.869670960226    4.311380454396
H     -0.909661374903    1.614956219394    4.143140465486
C     -1.173446033085   -0.166209270143    5.310616591601
H     -0.284231921823   -0.688667744432    4.920311294586
H     -0.889805195748    0.310305124298    6.262727647068
H     -1.937027214939   -0.930871670452    5.537675194558
C     -2.920718410559    1.616511920193    4.877701268019
H     -2.697208721724    2.011554228659    5.881993832688
H     -3.195129217826    2.470322042334    4.242128120943
H     -3.794728555127    0.947655687718    4.971921493568
N      2.088814007185    1.276064614375   -0.110175463091
C      1.444923693570    0.303124387624   -0.758749462778
C      2.128951578768   -0.859611161068   -1.237946356370
C      3.455425869731   -1.020820033705   -0.952292119526
C      4.135709545595   -0.059987652813   -0.147274340096
C      3.399912290564    1.088521696993    0.278473082134
C      5.484239804987   -0.216749824479    0.261625399792
C      6.083290045628    0.714441062378    1.087598263834
C      5.341637324331    1.830380768494    1.536567789364
C      4.030060521140    2.018157189655    1.139570901947
H      1.550651705946   -1.590401616383   -1.803988453366
H      3.997982765386   -1.901280836444   -1.307453923192
H      6.036185323026   -1.097092072392   -0.078563390417
H      7.120176927397    0.584255977550    1.405589681870
H      5.806421444400    2.553329103455    2.211472537015
H      3.453223773799    2.869160205652    1.502915605149
