74

C      1.558424525232    3.315819138853    1.872096052599
H      2.319076785056    3.298308659630   -1.984008154496
C     -0.305144193580    4.994751398162    0.094388388563
H     -1.030695055001    4.982332977486   -0.720270709792
H     -0.698320483266    4.920808130493    1.110731686956
C      0.995588884814    5.393538194031   -0.118161774149
H      1.644908480634    5.631354613462    0.724752983799
C      1.557743898759    5.888361794765   -1.413861892110
O      2.727372336212    6.169679645301   -1.550887986695
O      0.640849811904    6.013990512735   -2.383092575094
Pd     0.936414739391    3.123602824931   -0.033936647221
C     -2.235386775747    2.810743886353   -1.279538756158
O     -2.098965643363    2.350270057315   -0.049102122854
O     -3.063106531612    3.647955956949   -1.565434682307
C     -1.300922477624    2.244972314964   -2.369964488236
H     -1.666143471369    2.736193643186   -3.281931206386
N      0.095334158132    2.667430914099   -2.132913151144
C      0.896816039282    2.781199105682   -3.129506984401
O      2.164219908430    3.168844531347   -2.941562074819
O     -0.328203006096    0.621605977704    0.534339071762
H     -1.363167478606    1.664822694004    0.093664780538
C      0.722299305728    2.752662213323    2.843911676324
C      1.033463615230    2.828553185032    4.212151771399
C      2.221928256795    3.478620310871    4.618674805506
C      3.052764436712    4.027694208117    3.634911936989
C      2.734670135163    3.955853627569    2.272221634721
H     -0.181436880792    2.217777509746    2.541593320096
H      3.976719161797    4.530896921991    3.936546437657
H      3.416770003166    4.408851288558    1.548342157620
C      0.106110860650    2.209910400687    5.229518548113
H      0.617670354110    1.435644360889    5.826706723918
H     -0.269480483076    2.960196974408    5.946498550095
H     -0.763012005020    1.741717656807    4.745924614418
C      2.590836050242    3.576226148344    6.078683735423
H      1.818771938328    4.107969449077    6.660964809838
H      2.697841355195    2.579575441702    6.540357224747
H      3.541466959194    4.111996320880    6.216418384216
C      1.104032490834    6.525085607338   -3.649056395825
H      1.616493376501    7.484280016890   -3.474151925749
H      1.855119787756    5.826709679066   -4.052167707937
C     -0.094298562205    6.678609169890   -4.561437559495
H     -0.830492263940    7.374825394220   -4.131945023245
H      0.227926179269    7.074702686012   -5.536997298170
H     -0.596724627980    5.713551162900   -4.729299100703
C      0.629681510224    2.522231280620   -4.585689944367
H      1.097697916998    1.566920368767   -4.872732960933
H     -0.437921297804    2.474065211216   -4.822969008598
H      1.108107788863    3.309940857061   -5.184770163224
C     -1.437403784447    0.716451475853   -2.521185655340
H     -0.813813506428    0.399951930924   -3.376397293626
H     -1.014153395547    0.239693412847   -1.625871857294
C     -2.875042437521    0.199757751164   -2.730298467365
H     -3.457468405837    0.460133567226   -1.827731219723
C     -2.858879081706   -1.330997678432   -2.836153104314
H     -2.380352734742   -1.789965926374   -1.956337846290
H     -3.880982794345   -1.734897467950   -2.913918395532
H     -2.301953014380   -1.661092285042   -3.730544490032
C     -3.578494141402    0.832001459724   -3.939353259633
H     -4.572732951488    0.381619949110   -4.090393847556
H     -3.730441662193    1.914377655618   -3.809176832614
H     -3.000795552117    0.669238019896   -4.867032429198
N      1.833523020349    1.188792741238    0.047766954720
C      0.877222411772    0.259484915694    0.399731632039
C      1.296646556393   -1.095117093299    0.607542576364
C      2.622879861991   -1.435899736578    0.472211311749
C      3.569938049266   -0.454410890652    0.118398622176
C      3.143446238602    0.851293089012   -0.088161997404
H      0.528614671012   -1.816557740469    0.889454441120
H      2.945005462259   -2.467542513268    0.641696899771
H      4.625357293854   -0.703677046136    0.001840202343
C      4.119287417987    1.913154785908   -0.520699284613
H      3.887547458383    2.882921408757   -0.059427619336
H      5.146940560290    1.637618494716   -0.245949716874
H      4.097402348570    2.039290207733   -1.616574902009
