74

C      1.533707437914    3.258631727575    1.862993453726
H      2.306552852051    2.943466454447   -2.010306000727
C     -0.315881842101    4.929784759937    0.020831356164
H     -1.002352407541    4.904089485096   -0.826049224828
H     -0.760003622372    4.885443709026    1.017794060889
C      1.001193306221    5.298812994074   -0.134257162015
H      1.613523108068    5.545151619776    0.734246563516
C      1.650205413320    5.724178295697   -1.414604547742
O      2.836697773123    5.946334069911   -1.501600181597
O      0.788133229609    5.862298319091   -2.432903415023
Pd     0.909548544176    3.037791314909   -0.029968030655
C     -2.181125226124    2.547319020527   -0.985775079489
O     -1.837199118491    1.960673945421    0.147621732419
O     -3.077153843886    3.360588405453   -1.048210225209
C     -1.388489030874    2.162659259796   -2.252555353032
H     -1.824739977265    2.798829388732   -3.037042107961
N      0.037123884558    2.517793337278   -2.088216595630
C      0.802858757077    2.613995304996   -3.113630067751
O      2.101818419825    2.901824771086   -2.965571712373
O     -0.088578747043    0.141916077145    0.139681000010
H     -1.096272461242    1.247184771471    0.089895297491
C      0.623474806308    2.870579727209    2.852763554633
C      0.950773780887    2.951651706087    4.217342802072
C      2.225405068770    3.433862319519    4.596236754919
C      3.123500911690    3.816775193598    3.592080831767
C      2.792432179755    3.735072443582    2.233307099962
H     -0.361279838375    2.484707918272    2.572973710523
H      4.111623842364    4.192364601617    3.875625732201
H      3.524932237500    4.051447414109    1.485449398289
C     -0.052137797488    2.520822006157    5.259494456385
H      0.339058822477    1.698726126452    5.883072416511
H     -0.301299176937    3.345192912294    5.949584542355
H     -0.987309729722    2.174804363280    4.796583235435
C      2.613122220355    3.533239600906    6.051430743315
H      1.931900296447    4.196013306734    6.612347450967
H      2.574468765565    2.550704056018    6.552470405062
H      3.633369976838    3.927332885336    6.167594157909
C      1.340067428453    6.312963556900   -3.686449057835
H      1.921070782066    7.230707469270   -3.504873599379
H      2.046715710166    5.549137564961   -4.049145895926
C      0.195014357514    6.546976435914   -4.648896415511
H     -0.498096509811    7.308289803267   -4.259796580468
H      0.586603776884    6.898883015128   -5.615984306194
H     -0.376644730622    5.622751871475   -4.825116020083
C      0.447590371541    2.448185803988   -4.564262227929
H      0.759964209761    1.449616511977   -4.908816079277
H     -0.626243159646    2.562780426996   -4.749121726589
H      1.007561471558    3.185807128686   -5.155805186790
C     -1.597517542406    0.675138924378   -2.613818467102
H     -1.112773783298    0.480979404486   -3.586124589866
H     -1.069264113708    0.065282244534   -1.866507371116
C     -3.066923802462    0.215146481100   -2.696221880598
H     -3.515298623650    0.342170262446   -1.694046006852
C     -3.115598184100   -1.282040799151   -3.029265451153
H     -2.540495078941   -1.875098546154   -2.300406624333
H     -4.151955387983   -1.656082786013   -3.026707358979
H     -2.693609964809   -1.480120616870   -4.030215125077
C     -3.904159039591    1.033098845095   -3.689375760079
H     -4.923870868161    0.623049076510   -3.769409463820
H     -4.000617654782    2.083859910613   -3.376778334285
H     -3.460236833046    1.007496959249   -4.700923406491
N      1.944303263760    1.204278230665    0.008902369161
C      1.171031444042    0.066260946138    0.082799007780
C      1.853216279203   -1.199535261854    0.088420458629
C      3.229150224723   -1.291595325152    0.050580843780
C      3.976137727161   -0.083103107699    0.001367517204
C      3.296107257363    1.114189095497   -0.005805646170
H      1.220592180896   -2.087677836372    0.143191849909
H      5.067346210048   -0.089437775908   -0.020341650129
H      3.842476070742    2.060923046519   -0.020434902519
C      3.938376656306   -2.620523886234    0.070078889153
H      4.605619561146   -2.695436757441    0.945116302334
H      3.229999152775   -3.460366783218    0.106054128222
H      4.571898165027   -2.741152380287   -0.824730503455
