71

C      1.527656952834    3.204279231400    1.760720635537
H      2.239148683064    3.256919039917   -1.998349741997
C     -0.366785617389    4.937960266999    0.019223755738
H     -1.059952464296    4.961172281489   -0.823315301493
H     -0.799432813977    4.819249871267    1.015243398203
C      0.943227933204    5.330771818327   -0.123704049136
H      1.565790760223    5.518748112453    0.752101452315
C      1.561563648021    5.874586981678   -1.375142121109
O      2.738350905652    6.143600956018   -1.454555281175
O      0.679786568921    6.064258580128   -2.366140490543
Pd     0.850765766978    3.043044578256   -0.121470992725
C     -2.255873289863    2.766185862427   -1.443538319850
O     -2.155534842778    2.306364356888   -0.203003885021
O     -3.015008728080    3.662733167041   -1.730521262570
C     -1.336208903247    2.136036076087   -2.512229693285
H     -1.696050059050    2.580974205790   -3.451850253807
N      0.044304230614    2.586264803275   -2.252790835991
C      0.842355548933    2.865458152211   -3.221095855153
O      2.099703387142    3.251618715486   -2.967684522031
O     -0.438673182449    0.457344259391    0.398343076147
H     -1.472328317281    1.580902770667   -0.052058451535
C      0.654209172409    2.829610111758    2.786491897264
C      1.052202512043    2.876513103021    4.134127255013
C      2.361435244284    3.304767260944    4.455110191145
C      3.223776321611    3.668160944025    3.412751376921
C      2.822731425271    3.622908002754    2.071373367615
H     -0.350880804659    2.469938260956    2.549893171900
H      4.239412388339    3.998517140122    3.651152826649
H      3.528773121337    3.921533974814    1.291436811497
C      0.088260981215    2.462486926372    5.218770343490
H      0.481739984973    1.617444683411    5.809176097753
H     -0.097141391666    3.283283059911    5.932709945944
H     -0.880296374985    2.155680112152    4.798918693135
C      2.824774019333    3.365144840758    5.890057543151
H      2.197985044689    4.043554637143    6.493942363371
H      2.773240801362    2.376376180962    6.377294161250
H      3.863836994760    3.718469968253    5.960520820911
C      1.190758312870    6.644905066367   -3.583512649626
H      1.737645814727    7.566454587860   -3.329746095005
H      1.922430224060    5.945975399824   -4.020180338343
C      0.019801963565    6.913173545666   -4.504771541030
H     -0.692854479799    7.612974510615   -4.042669540826
H      0.379821585852    7.357785101887   -5.445575628776
H     -0.522391041934    5.985903765418   -4.745599030102
C      0.592263003328    2.835388578279   -4.701866731711
H      1.156477945515    2.001552736463   -5.146731443492
H     -0.465110073267    2.722041630451   -4.957362841873
H      0.982218039617    3.763519127117   -5.143771947012
C     -1.545566065898    0.592402858346   -2.598313471619
H     -1.345070732853    0.173376603681   -1.601448468393
C     -3.017473481740    0.318012787714   -2.943920623266
H     -3.227785751566   -0.760958295599   -2.936784616997
H     -3.705019125262    0.783309625318   -2.221410784418
H     -3.273424084021    0.704994073161   -3.945456133043
C     -0.584061524993   -0.103625309239   -3.579201739963
H     -0.784773808601    0.243551055507   -4.609387914177
H      0.449227830608    0.197084760987   -3.340824591227
C     -0.651482133575   -1.634229491457   -3.540702093634
H     -1.623261883024   -2.016560327206   -3.889488270908
H      0.122731748023   -2.074502120400   -4.189067062850
H     -0.490383616185   -2.016314992754   -2.519660864024
N      1.703078026728    1.116436233341   -0.054985182903
C      0.763964674643    0.149942463652    0.216196420583
C      1.255132012014   -1.211950823032    0.260016982564
C      2.589159129335   -1.508254634688    0.091625548878
C      3.496831929708   -0.454179314991   -0.143714077003
C      3.015191342610    0.839083268951   -0.204107782717
H      2.937592719397   -2.540947972316    0.138478606423
H      3.694331331839    1.677664921396   -0.369870081468
Cl     0.091741756763   -2.473828425889    0.541501439552
Cl     5.199985068667   -0.776638063795   -0.354083577267
