72

C      2.648078374326    4.057653609431   -1.150754985417
H     -4.117561124228   -0.779446779129    1.713511977273
C     -0.264896853102    4.667148917953   -0.841627570409
H      0.128038236877    5.218784146427   -1.698112155224
H     -1.128699318262    4.019505108643   -1.011408204088
C      0.104811943325    5.007261596093    0.445509463816
H     -0.443162130153    4.581580021712    1.298112763599
C      0.992293990553    6.165377793168    0.781192695500
O      1.549051703054    6.297256935155    1.846931086663
O      1.064883155996    7.061088324989   -0.215455741493
Pd     1.172154221475    3.140504352555   -0.153374446107
C     -1.432627432140    2.051102687607    1.349823629627
O     -0.409424573688    1.881666436830    0.581059608091
O     -1.698282642432    3.054285304394    1.999941560235
C     -2.379943012792    0.821566044453    1.458330519924
H     -3.384664372793    1.271338612465    1.577432031619
N     -2.305759919136    0.006293355017    0.262905724564
C     -3.184307381199   -0.887115177214    0.040492961339
O     -4.215948371872   -1.222304741421    0.856308933062
O      0.427241206993    0.413267486946   -1.357460828234
H     -0.118320251137    0.884419666797   -0.643781220748
C      3.573552576339    4.929623235237   -0.562356370199
C      4.620240748465    5.510796288352   -1.300441962157
C      4.740473010235    5.221715542752   -2.679045686127
C      3.806150815414    4.355663597569   -3.261773462111
C      2.772616312325    3.775077438074   -2.517043367248
H      3.499726212975    5.171683000630    0.500966221022
H      3.888547394679    4.123012878069   -4.328165781275
H      2.073082471131    3.099506699284   -3.017737941891
C      5.605392338541    6.430745302360   -0.618847309596
H      6.638881968226    6.051215133674   -0.696797227472
H      5.610674652137    7.435441365029   -1.075820469079
H      5.372626710011    6.548289070751    0.449654722592
C      5.849048592112    5.826851502174   -3.505482744385
H      5.812153518861    6.929939693068   -3.497579932021
H      6.845647601300    5.546466826945   -3.122738881976
H      5.790568010308    5.499061519253   -4.553733916356
C      1.877363453248    8.225960417199    0.009354033174
H      1.532018480785    8.726142232477    0.928504759953
H      2.916143344955    7.904454075285    0.184853491936
C      1.760824584148    9.119143507333   -1.207836688983
H      0.716973290647    9.427919055849   -1.372519933621
H      2.370452716113   10.025479228031   -1.067937733989
H      2.114924538139    8.599492525373   -2.111361603189
C     -3.181325137167   -1.707078867215   -1.216063215097
H     -2.330524702907   -1.415145198523   -1.842403513339
H     -3.120491245844   -2.779256075281   -0.969216734476
H     -4.123532503881   -1.555829912618   -1.767642941618
C     -2.049688354442    0.077651402438    2.756143411574
C     -2.540572542629    0.558177107660    3.981567739860
C     -2.214542652342   -0.083895794814    5.178858546506
C     -1.387788570030   -1.211778212618    5.169681863196
C     -0.886689970341   -1.689903107536    3.955293860811
C     -1.212102809979   -1.048701432511    2.756595363062
H     -3.166165085058    1.454147877304    3.992179795559
H     -2.607141332906    0.300476964042    6.123967970713
H     -1.134699044896   -1.715704527632    6.106104627008
H     -0.235649993538   -2.568198589903    3.939811453383
H     -0.817609806120   -1.420014389703    1.808581324142
N      2.266059075685    1.256080127189   -0.224670333056
C      1.684411806870    0.287261946298   -0.973387715146
C      2.403817419830   -0.860264123937   -1.362961907458
C      3.693585713149   -1.031494834658   -0.890411474204
C      4.239939169275   -0.080602847911   -0.019933521177
C      3.503262415786    1.059192756276    0.300849616255
H      1.900549405338   -1.594100891664   -1.992885535741
H      4.266987922190   -1.920499572155   -1.165810530053
H      5.232558187717   -0.217084323134    0.411471781180
C      4.059261474670    2.088504236914    1.243860972636
H      4.586398350463    2.881038685086    0.691403548476
H      3.257598544640    2.566925880149    1.825386380662
H      4.773549245941    1.624867729269    1.939158821701
