77

C      2.643452419335    3.729912624601   -1.129720402861
H     -1.915226287520    1.309778967467   -0.034108515122
C     -0.394623454429    3.854122262681   -1.269493121319
H      0.000522308770    4.232759867214   -2.214272184550
H     -1.162378878429    3.077928884129   -1.307687602334
C     -0.178132329381    4.560785235692   -0.100764136475
H     -0.724247639290    4.323882401533    0.816890133215
C      0.507914599154    5.893618538904   -0.039055952710
O      0.853825045990    6.416432275542    0.994207799932
O      0.652034751276    6.450095197399   -1.249070167977
Pd     1.178190840465    2.806524704281   -0.124751415161
C     -0.657750781872    1.648119584133    1.953512735828
O     -0.448667597790    1.524423397143    0.648447556341
O      0.075705989100    2.301318639041    2.672262705259
C     -1.920832541308    0.948800422528    2.504040467293
H     -1.854793201554    1.121268301699    3.590225035339
N     -3.177628690234    1.556335376318    2.072098888410
C     -3.558220984373    1.712086570736    0.864524934857
O     -2.871147197392    1.444927751407   -0.270141161121
O      1.055890513687   -0.235087847000   -0.642105737114
H      0.398150612978    0.370353951045   -0.191934931536
C      3.418196045192    4.765690447924   -0.596119715522
C      4.482854914674    5.337079727543   -1.314614387583
C      4.776078452116    4.862963174783   -2.613987136497
C      3.987896736377    3.832202301705   -3.142033514483
C      2.932752270972    3.264404172984   -2.417351998152
H      3.204108758567    5.156726462251    0.401390515787
H      4.204768132409    3.456820605901   -4.147025430014
H      2.350865171798    2.456969587198   -2.870942770198
C      5.306306471685    6.439759861870   -0.693387631386
H      6.365721396427    6.146866262073   -0.593046985840
H      5.295425216977    7.356222899215   -1.308143534763
H      4.935892992764    6.701914288286    0.308295948457
C      5.915164297996    5.446696908955   -3.413846731627
H      5.787784049107    6.530224351089   -3.580455147047
H      6.882556280860    5.323078406935   -2.897163820204
H      5.999656527184    4.965515720399   -4.399213786775
C      1.305557806813    7.731015874012   -1.306196633680
H      0.741326652550    8.442260255943   -0.681494433430
H      2.309724599938    7.633585232200   -0.864985987590
C      1.363336904455    8.161529553267   -2.756453132956
H      0.352616394795    8.245566956838   -3.184853057281
H      1.853484454991    9.144403296230   -2.835775503582
H      1.936555005787    7.438588657498   -3.356739500645
C     -4.935311776564    2.240484087072    0.561696277987
H     -5.478482035012    2.434830944216    1.493450971098
H     -4.866921242184    3.165608093321   -0.033786017201
H     -5.488146217108    1.507647035310   -0.048797057446
C     -1.891965609769   -0.592726192477    2.283999191807
H     -2.009224254927   -0.778080336320    1.200424038264
C     -0.551171167634   -1.187725121397    2.734675709881
H     -0.542583625160   -2.282540485384    2.623639117934
H      0.292865066940   -0.798145167924    2.146190196212
H     -0.354088543408   -0.955547493845    3.794815560342
C     -3.082111075204   -1.254987929194    3.007919080942
H     -2.910209021687   -1.189642739464    4.098351542399
H     -3.985401528101   -0.658264292666    2.810180101247
C     -3.343767365911   -2.709743464863    2.611607063662
H     -2.496444934186   -3.372422605363    2.851270877893
H     -4.225827921808   -3.108227602532    3.138384295484
H     -3.537514453393   -2.799863762215    1.529200935585
N      2.551567106410    1.194370726293    0.364522807187
C      2.273245524733    0.015750220827   -0.184874110577
C      3.254641814417   -1.012969785261   -0.313121782608
C      4.498505733626   -0.809896109760    0.219377338204
C      4.783579139901    0.388206337205    0.937244125591
C      3.756412359424    1.378558632461    1.012019396834
C      6.017330453506    0.614247685947    1.599553064277
C      6.217733856759    1.763612528416    2.338493531119
C      5.180846297979    2.718642571822    2.446710886171
C      3.974624910013    2.535609947428    1.795737985205
H      2.966953218226   -1.934660004177   -0.819598715101
H      5.271500825890   -1.578340529147    0.132885426669
H      6.799145982838   -0.146532304593    1.527743557526
H      7.166165964497    1.928347585191    2.854790839626
H      5.328361999864    3.609500866712    3.062011050105
H      3.161081461507    3.252985972934    1.906887975246
