59

C      2.757846891757    4.039775296544    0.882806260465
H      1.461110171973    5.287358895236    1.763568537168
Pd     1.134137563520    3.170905523243    0.092216086117
C     -1.615401028113    3.191282105401   -0.914293642092
O     -0.642163928787    2.341340864291   -0.699539036536
O     -2.780696425940    2.910095762151   -1.090721215206
C     -1.121097504791    4.660449793856   -0.977961815549
H     -1.997239554878    5.295932123066   -0.786709244971
N     -0.093034572430    4.845627449268    0.062527578928
C     -0.183064068175    5.783114567789    0.948751716000
O      0.727410837246    5.934283577268    1.893752746617
O      0.073946038176    0.155289442406    0.255169377718
H     -0.363180271130    1.010480524010   -0.104714692020
C      3.207160970927    3.711467892042    2.176898520198
C      4.367002215566    4.272157965491    2.739871609603
C      5.121657083174    5.197275701129    1.982811081375
C      4.676206601906    5.528389452341    0.695459508272
C      3.514629299665    4.971698166128    0.150362860702
H      2.644170471990    2.988019748553    2.775663929830
H      5.254065265557    6.244284266244    0.102621929230
H      3.205184136464    5.268020076176   -0.855861628396
C      4.800753498256    3.880848220756    4.131204079541
H      5.806218224114    3.426132910221    4.129640539871
H      4.854806792232    4.755014002233    4.802515834649
H      4.105462726811    3.156237201086    4.579360377717
C      6.378712869808    5.814780955004    2.543377591905
H      6.180661773608    6.373098385596    3.474503911386
H      7.132134524068    5.047975725907    2.792618941127
H      6.836394901086    6.511367690944    1.826001919453
C     -1.292578608446    6.798056001013    1.045999710301
H     -1.344933368562    7.413340468126    0.136559426781
H     -2.266534461136    6.302519901373    1.174394851162
H     -1.103889541879    7.448490884760    1.908179427857
C     -0.568164541137    4.996593479150   -2.392845050223
H      0.280501930070    4.311170846645   -2.568551559244
C     -1.624894269700    4.746894191410   -3.476836042863
H     -1.204752883401    4.962068338376   -4.472114652917
H     -1.990096430618    3.710638558992   -3.474898582951
H     -2.500445572295    5.402836068994   -3.334458029550
C     -0.038168253137    6.433352144861   -2.473719199503
H     -0.850241401424    7.167018180749   -2.329648087286
H      0.744505073586    6.631696854050   -1.725790733565
H      0.398966326835    6.624869202211   -3.466532329860
N      2.100343944689    1.288510924702    0.038514788017
C      1.375962765041    0.140711794124    0.176470939917
C      2.028131056619   -1.116923305233    0.254492683370
C      3.397211766282   -1.194556450366    0.127559132886
C      4.134712363358   -0.009004592964   -0.076351133223
C      3.439042703823    1.195019905559   -0.102769343741
H      1.399967930285   -1.997545877434    0.391399608548
H      3.912438793128   -2.155231757815    0.169354320005
H      3.989679704161    2.126150721984   -0.231846004611
C      5.610039249895    0.027196142553   -0.254383537929
O      6.258686051566    1.030601828259   -0.441952761296
O      6.157041766025   -1.203382689535   -0.183841280799
C      7.572715642114   -1.273663601217   -0.348087616833
H      8.086562492382   -0.688523696481    0.429674738213
H      7.838350923427   -2.334673642686   -0.264353543719
H      7.872621791073   -0.881021484317   -1.331544271223
