68

C      2.730040127941    3.978008204052    0.895149511364
H      1.341988016794    5.106271390087    1.795644323308
Pd     1.202658359064    3.149502857279   -0.113516913855
C     -1.492247340803    3.125498922662   -1.257461103478
O     -0.493196905778    2.305122694618   -1.060067124183
O     -2.618040716967    2.808790505028   -1.583215684975
C     -1.115853239554    4.619751621092   -1.087663703148
H     -2.044237269954    5.135217094165   -0.812893664001
N     -0.114815812622    4.752864270515   -0.010598721819
C     -0.262298464167    5.631336590085    0.926150544518
O      0.592857619330    5.734535094771    1.927577040690
O      0.202512234786    0.272921071032    0.273536685847
H     -0.225025859950    1.039677500210   -0.246416702150
C      3.204840744950    3.394263946109    2.085232436240
C      4.283843572792    3.924477459968    2.812273988691
C      4.928738069568    5.090010917977    2.337709392830
C      4.456090625777    5.679878046882    1.157525829106
C      3.375621633199    5.145236917498    0.448187109778
H      2.728530189946    2.485634066992    2.466635780407
H      4.944556986344    6.585726169277    0.784397834088
H      3.038196057226    5.649191779041   -0.462446692957
C      4.747862164960    3.251237838206    4.080858770526
H      5.800981147386    2.929466331071    4.008239556036
H      4.688257739679    3.930152535914    4.948887145964
H      4.141219736240    2.362571373290    4.307759224438
C      6.095079845722    5.689456711732    3.083854450167
H      5.819480936648    5.974814556548    4.113781949341
H      6.933140580054    4.976742368975    3.171990386071
H      6.473792168304    6.589581283622    2.577845688987
C     -1.394049878733    6.621536452698    1.025773003437
H     -1.520111687982    7.183933507031    0.090030583107
H     -2.342564114388    6.103624410401    1.237790585427
H     -1.183865188907    7.320795882596    1.843777754508
C     -0.567921956060    5.221605007315   -2.399440681291
H     -0.348876226243    6.289579995529   -2.210464197942
H      0.402831299448    4.742608367343   -2.613716338099
C     -1.477405848222    5.105245305696   -3.637360572483
H     -1.612071982634    4.031692525363   -3.856384120552
C     -0.784860224981    5.747624589307   -4.846578932432
H      0.207899012390    5.304432955249   -5.028917427730
H     -1.383491436369    5.616512148563   -5.762177397592
H     -0.642881068650    6.832087875662   -4.694915332915
C     -2.872819896235    5.702053133908   -3.410562643820
H     -3.458019033325    5.688251417148   -4.344255793481
H     -3.435423050141    5.122757849291   -2.663887338520
H     -2.810858427639    6.753733071770   -3.076898422987
N      2.198229807732    1.276083504254   -0.285553633536
C      1.502029601819    0.218447824087    0.103839356932
C      2.134837098394   -1.056548597802    0.407915799259
C      3.528893650248   -1.200721010555    0.199034165928
C      4.249423552033   -0.086389407404   -0.400287840249
C      3.541389009951    1.123844094542   -0.645044976238
C      1.368065906491   -2.124269227504    0.924736732487
C      1.980267565997   -3.321026689677    1.258924759824
C      3.368266407914   -3.469085391385    1.074045355721
C      4.127451731957   -2.432294988432    0.552177528006
C      5.608050130878   -0.164718663639   -0.783061984421
C      6.246791488303    0.896669445989   -1.403910718646
C      5.531315513857    2.076307988685   -1.673152350219
C      4.201848193402    2.185692882201   -1.299047643283
H      0.295621986946   -1.981030293743    1.057882047538
H      1.389891340108   -4.146174090330    1.663834779916
H      3.854094318849   -4.411304338211    1.340484970941
H      5.199708164346   -2.576127138837    0.415882625095
H      6.163778181372   -1.085878844834   -0.602867344591
H      7.296116963062    0.809251259628   -1.695030274230
H      6.019308883721    2.911073630341   -2.181922307025
H      3.638195077612    3.092771411778   -1.510672337609
