59

C     -1.198433948249    2.862602860390   -2.083130584693
H     -2.146119933091    3.322534980001   -2.372972894537
H     -0.736253757721    2.151618426338   -2.771763357641
C     -0.493029917760    3.356231139877   -1.009148261143
H      0.519391152734    3.016088824892   -0.780118560713
C     -0.954771872906    4.511675991223   -0.163537807969
O     -0.452067757306    4.778212300468    0.902912195158
O     -1.949666075713    5.191973033506   -0.736024882697
Pd    -1.671020146756    1.548457280095   -0.342157604400
C     -3.925099461854    2.268462819076    1.217392754099
O     -3.136833103816    2.735242621706    0.273599431609
O     -4.855278144815    2.901044061946    1.672036465308
C     -3.564897194442    0.873150591124    1.769088032878
H     -4.511066200249    0.325085413209    1.888172507877
N     -2.689060507950    0.185695875294    0.807779271325
C     -2.683558570498   -1.104071961928    0.647426917501
O     -1.873179164148   -1.692872393155   -0.192077858121
O     -0.319451634222    0.152933473728   -1.014861831821
H     -1.223045306417   -1.025334114565   -0.613027725454
C     -2.647077814030    6.156954039544    0.076920404835
H     -3.215069168492    5.599658422082    0.839027388172
H     -1.907966390754    6.790274297749    0.590960121467
C     -3.562445803360    6.955941944489   -0.825822742909
H     -4.288819749454    6.298515406773   -1.327437351259
H     -4.122504648508    7.693040240752   -0.229557393392
H     -2.990207386237    7.497278204847   -1.595549423443
C     -3.612088488108   -2.043295378241    1.371442030619
H     -3.570368337498   -1.892284712078    2.459002994462
H     -4.652007073322   -1.873406725446    1.050059814676
H     -3.330399743854   -3.076048215683    1.134650787732
C     -2.855162546967    0.994938408734    3.140583348663
H     -2.571755958002   -0.025147522675    3.458880834821
H     -1.906694521137    1.535576707662    2.979975811935
C     -3.641975569593    1.670128405383    4.280010375178
H     -3.841317540051    2.711913402270    3.980327329252
C     -2.777929652305    1.696377587023    5.547933634405
H     -1.811875518964    2.195892641466    5.369637929511
H     -3.288342372207    2.234777322959    6.362385789203
H     -2.563567404662    0.674723258800    5.907966306387
C     -4.998718837815    1.004590722912    4.542873077985
H     -5.486730442006    1.451807141866    5.423752265079
H     -5.682170160496    1.139890290145    3.691467724555
H     -4.887822931729   -0.076577593924    4.743299869088
N      1.317944797259    1.048162791354    0.313590464311
C      0.916697914287    0.109979238557   -0.515306580555
C      1.763087774349   -0.980742302280   -0.916428764161
C      3.034763149179   -1.045788120201   -0.409432040926
C      3.500601489382   -0.042125571694    0.490262781466
C      2.583861477969    1.007874051695    0.820282169124
C      4.802538855424   -0.034113554695    1.053977479755
C      5.189468129279    0.977425439115    1.912036277819
C      4.284483376015    2.018729878304    2.233730272764
C      3.009074024758    2.037630991641    1.702318041932
H      1.377317502150   -1.726481043727   -1.613734423326
H      3.703292134145   -1.864184895140   -0.692711490888
H      5.495404466996   -0.840693869236    0.797030180094
H      6.193692204379    0.978576086817    2.342833606663
H      4.601304205117    2.816586074101    2.910669396847
H      2.299473790120    2.834583090839    1.936020803034
