59

C      1.112332604581    2.688319491011    3.014494386572
H      0.170522432042    3.240251430983    3.040491242625
Pd     1.076439170670    3.036772333209    0.634860433116
C      0.199041588208    5.676529610308    0.144101452127
O      0.445680928410    4.851232045479    1.134971824474
O      0.184923851767    6.882686796638    0.271044491320
C     -0.170171875548    5.010880815223   -1.192731933806
H      0.394358937787    5.540012435448   -1.978630911904
N      0.200339326454    3.578238357542   -1.172763603543
C      0.038860578910    2.833354222333   -2.233293115669
O      0.042440115056    1.536815872554   -2.203345423177
O     -0.040300740793    0.222324223400   -0.094167073119
H     -0.075729768150    1.094835334663   -1.261697312658
C      2.327110248198    3.380834673276    2.803802452334
C      3.578202820343    2.747719086329    2.997292324610
C      3.601081503402    1.404438076647    3.411411598181
C      2.379000634860    0.715413576171    3.597505696527
C      1.153312911849    1.332275181666    3.407178999897
H      2.294031219356    4.454782939026    2.610824576226
H      2.411378435082   -0.331274939266    3.912103160263
H      0.223685016594    0.785571831283    3.578480595255
C      4.856909534763    3.516552716321    2.780752141365
H      5.466679678337    3.552296704827    3.699370772065
H      5.482363696315    3.041134832043    2.005874360594
H      4.653016099784    4.551413734237    2.471054013457
C      4.910582673125    0.707754540470    3.676379840025
H      5.583700858745    0.775484314551    2.807424832012
H      5.442409875650    1.175590585424    4.523012052986
H      4.760772748616   -0.353844641105    3.919253989434
C     -0.137097405613    3.365011951446   -3.635164344966
H     -1.149146948183    3.131447439026   -3.999057506370
H      0.047087531848    4.439977342029   -3.730184565058
H      0.565844176621    2.812429478040   -4.276848024268
C     -1.699317137803    5.218951178422   -1.453678436747
H     -1.954305119173    4.564796265195   -2.303446430884
C     -2.566063370796    4.777647949436   -0.266432942499
H     -3.631694847002    4.806237167739   -0.543744878923
H     -2.327532845315    3.751907461867    0.054034775804
H     -2.429564549528    5.445468338024    0.598874467741
C     -2.008563962858    6.658715804762   -1.881463052784
H     -1.739760777380    7.372149496102   -1.090211433458
H     -1.446216302486    6.939568726919   -2.787673201605
H     -3.081999502902    6.765426487297   -2.106108460806
N      1.983222048001    1.233649217654    0.165037841276
C      1.206078382765    0.092100442990    0.034544013291
C      1.883897520775   -1.173668081645   -0.007521015670
C      3.255442652044   -1.236733346315   -0.041500215887
C      4.017214809312   -0.040614241370    0.011956503854
C      3.321066828772    1.159067183202    0.129567251268
H      1.257300148466   -2.064835909663   -0.065184316910
H      3.770270181779   -2.196492561850   -0.116113372408
H      3.877014700134    2.096535251939    0.190723519784
C      5.492784134706    0.006103558326   -0.013523423786
O      6.162633083384    0.997582152567    0.203355730779
O      6.041402336062   -1.192852143417   -0.296171718616
C      7.466238573482   -1.246936403755   -0.327933026493
H      7.892762502358   -0.973098420531    0.649330268496
H      7.727336387686   -2.282408634546   -0.579203460140
H      7.868094458705   -0.557401825301   -1.085596170971
