62

C      2.439408101390    3.823570913532    1.434075545787
H      0.358688981262    1.918149541070   -2.559556042277
C      0.241187405479    5.346178271613    0.060096436229
H      1.061965780795    6.036186509698    0.264528635220
H     -0.204336830712    5.335960660119   -0.937388864014
C     -0.445061503149    4.746394726387    1.097665850227
H     -1.389333572359    4.241796580999    0.874508869524
C     -0.206296745536    5.001520940152    2.556587618175
O     -0.674587097657    4.311339760714    3.431210178224
O      0.538774234363    6.092618871887    2.773856003408
Pd     0.963462256070    3.258056553592    0.219520608565
C     -1.597849332767    2.916879449309   -1.715595169107
O     -0.478531682832    2.410577420930   -1.204678701426
O     -2.152281001264    3.901400869548   -1.266339017495
C     -2.158820122282    2.174485245643   -2.952532572824
H     -3.148517204965    2.634666910244   -3.092405236982
N     -1.431906783538    2.389110234055   -4.201129540481
C     -0.186727781308    2.182630179873   -4.381281132639
O      0.744093631423    1.829210700237   -3.465856010647
O      0.023772063322    0.197740944177   -0.032566939274
H     -0.337412012072    1.053431952541   -0.428647148188
C      2.541030629026    3.270968211973    2.716084437096
C      3.636055167879    3.550071612616    3.551936696976
C      4.658506037440    4.412453758224    3.088875902951
C      4.540449297784    4.963550034788    1.806311632763
C      3.444892240450    4.682558272102    0.978847764690
H      1.757276421025    2.606664324066    3.091024544493
H      5.324984180559    5.632661764881    1.439637130078
H      3.398182139778    5.136633512720   -0.015037132281
C      3.717635388601    2.926208126218    4.923861876033
H      4.617896313632    2.297011973972    5.030123861585
H      3.778314119588    3.691598053541    5.716338511949
H      2.840585708250    2.296819587114    5.131744756664
C      5.854102744818    4.729049156940    3.953538480300
H      5.557764154206    5.200183718541    4.906302632541
H      6.417637997215    3.818177667126    4.218833831337
H      6.547114557160    5.413649526484    3.443323911926
C      0.835096327931    6.415644765469    4.145271903857
H     -0.114208032185    6.538252168505    4.691230056287
H      1.365347846421    5.563048271194    4.598276898644
C      1.671155149949    7.677650937884    4.159172618564
H      1.129292400095    8.516185118582    3.695107514000
H      1.911057250712    7.955695588188    5.197298833959
H      2.615249882396    7.528338348274    3.613407335596
C      0.416890332857    2.316555038966   -5.753518113821
H     -0.359786932444    2.574869312405   -6.482185354812
H      1.202109929317    3.090192435880   -5.750301871124
H      0.901312792905    1.369027627508   -6.041111373417
C     -2.364809303548    0.675765550779   -2.678242575412
H     -1.411563023802    0.156938156941   -2.498102345054
H     -3.014350625033    0.518257412507   -1.802121613785
H     -2.845043759715    0.211238989134   -3.552529076232
N      2.028787778507    1.358503186464   -0.080989222783
C      1.336553459390    0.200160205520   -0.072543117769
C      2.031914084120   -1.040783100158   -0.094477617330
C      3.413403481955   -1.058732590215   -0.179359286271
C      4.096838908770    0.164470923019   -0.238079199723
C      3.376188911552    1.346204462906   -0.176759510394
H      3.952053092722   -2.006365691137   -0.212644618094
H      3.884594979391    2.309322078752   -0.181894693549
Cl     1.123204251947   -2.513916858157   -0.042422945401
Cl     5.831521449390    0.204573470443   -0.366205962688
