53

C     -0.778609174213    2.862016871276   -1.635636793519
H     -1.666808424992    3.326692335052   -2.070067824913
H     -0.219662464113    2.146342298537   -2.242351844370
C     -0.247469236679    3.356439355929   -0.465976451728
H      0.717441845421    3.015832213270   -0.082008499981
C     -0.835907058215    4.518722791528    0.288978163716
O     -0.494971614987    4.803931392082    1.412514973516
O     -1.743041701375    5.182265091200   -0.430566001758
Pd    -1.507402041070    1.546254280824    0.015221780468
C     -3.865430293491    2.312043376780    1.391458565892
O     -3.000949491652    2.753838546325    0.503832981015
O     -4.786217359319    2.987651055243    1.800213863232
C     -3.618951288028    0.884227103778    1.926714307875
H     -4.594119011986    0.372381671429    1.903121804101
N     -2.661017997991    0.197441688348    1.047790694241
C     -2.674388553128   -1.088402680399    0.854296877101
O     -1.799368740048   -1.681628342441    0.086894011589
O     -0.137084249272    0.128465271143   -0.559158819130
H     -1.095018025164   -1.021769792645   -0.258846528862
C     -2.564659807019    6.141250585761    0.265849672024
H     -3.227908710580    5.578507195832    0.942297245654
H     -1.916478987976    6.788845472831    0.875786981069
C     -3.350588090315    6.921719624927   -0.765924991728
H     -3.987980665360    6.251611700690   -1.362844269573
H     -4.001111824104    7.653709157095   -0.262364597504
H     -2.680743857974    7.467394868340   -1.449043587682
C     -3.698081029684   -2.017147509667    1.453846809803
H     -3.735469004841   -1.922130926873    2.547955538018
H     -4.701302346117   -1.782368214365    1.064162416482
H     -3.442752896671   -3.049113997451    1.185930246542
C     -3.127242358119    0.915063586604    3.409165255393
H     -2.840612622608   -0.127561182366    3.640213611437
C     -1.882707023823    1.789451163264    3.610673430738
H     -1.537521876014    1.717024033363    4.654158008449
H     -1.046736417665    1.481395034757    2.963660476937
H     -2.093219079855    2.851297689183    3.405457054657
C     -4.261164538319    1.308423016949    4.363830602790
H     -4.615972232012    2.327906397993    4.157015222867
H     -5.125715141065    0.630750040118    4.267498821051
H     -3.911034458757    1.261772224857    5.407279498305
N      1.409616527038    0.905095995960    0.958190308632
C      1.059128169934    0.019575627507    0.024049314349
C      1.914492794014   -1.038130170569   -0.370204759359
C      3.161123149186   -1.175620982788    0.234459007939
C      3.515682334291   -0.232835924887    1.222280413440
C      2.612716438422    0.775252740523    1.536276343450
H      1.581182462872   -1.729484383029   -1.147234864873
H      4.480625700474   -0.287427463925    1.731739627613
H      2.862196783513    1.524623018880    2.296439831184
C      4.105213868875   -2.286730038188   -0.147439449253
H      4.334811291716   -2.923860436042    0.722835603931
H      3.685244199417   -2.926146253464   -0.937205165516
H      5.064880364244   -1.881245388124   -0.508568900973
