75

C      1.610558277206    3.020933079493    2.155533784159
H      0.720818660985    4.455674375113   -2.723279944721
C      0.344187519280    5.181659346240    0.318598325851
H      0.217137380998    5.475540810512   -0.726067069435
H      1.126208316916    5.682240654267    0.895137587163
C     -0.619495795501    4.444756724348    0.975195026971
H     -0.587757286222    4.338651543606    2.061322894677
C     -1.943449835717    4.009073443719    0.412602438278
O     -2.721750151505    3.348099020213    1.059700856632
O     -2.165468722356    4.457838959708   -0.827061899185
Pd     0.992141711054    3.060276053933    0.255132146520
C     -0.420533275188    2.409349580520   -2.371027778058
O      0.522342341476    3.127870767907   -1.877686511186
O     -0.967939199563    1.477403506201   -1.752268857968
C     -0.908005717922    2.693156215325   -3.809652378281
H     -1.860453078698    2.141764167516   -3.848095341134
N     -1.234939804329    4.062928967067   -4.170940632334
C     -0.597145082827    5.140864972938   -3.925863584515
O      0.527833598967    5.309237010059   -3.205298263366
O      0.133682156530    0.037011813498    0.000330284421
H     -0.317036509838    0.726311857116   -0.626374323626
C      1.019018725510    2.146310917008    3.076056346968
C      1.459057906556    2.073159014001    4.407757507541
C      2.527718992411    2.899437371206    4.830830255894
C      3.112827625925    3.766321908992    3.900354669044
C      2.665636667482    3.837182804423    2.573708299958
H      0.194943317920    1.498860694902    2.761650041510
H      3.940999525581    4.408028419768    4.217234002464
H      3.158606333661    4.528621998776    1.883703655737
C      0.794450263019    1.120402902924    5.371245711513
H      1.513709128667    0.392894705881    5.785156349120
H      0.358621806754    1.653265160595    6.233735205050
H     -0.012726028355    0.555571530948    4.883309858186
C      3.027379562598    2.849492671299    6.254073872909
H      2.232203880764    3.103477700023    6.975943382938
H      3.385346731620    1.841854998686    6.527095065282
H      3.858132457279    3.552926772940    6.411432785145
C     -3.413174190779    4.081824849713   -1.462065826777
H     -3.195265588594    4.153771335589   -2.536283317742
H     -3.630348671513    3.036450792153   -1.201214067997
C     -4.547847560466    5.005445911185   -1.054875178385
H     -4.304376232190    6.055245361989   -1.282107266929
H     -5.457723529781    4.737770466595   -1.615773081952
H     -4.769916180230    4.914101057306    0.018553904449
C     -1.096936473673    6.453762686815   -4.472819805504
H     -0.291820859241    6.956189790969   -5.032808689853
H     -1.962963310544    6.292286079569   -5.124785641297
H     -1.375419899334    7.124031330832   -3.642790686463
C     -0.001372298673    1.982537531940   -4.893028069043
C      0.120925726905    0.483611748362   -4.557712065566
H      0.661160503841   -0.037259302602   -5.365038909619
H      0.672673004754    0.307423327097   -3.621863205198
H     -0.868109347329    0.011167922283   -4.450638801567
C     -0.698936469106    2.125592343338   -6.259635734911
H     -1.701988155639    1.669087837702   -6.241999666534
H     -0.818027319744    3.181103740822   -6.539992925120
H     -0.110175613693    1.618697610764   -7.041874321580
C      1.406203143378    2.600169231407   -4.971947791365
H      1.371605707876    3.669236898346   -5.228514481656
H      1.950629453350    2.496285537273   -4.021193568170
H      1.994517903217    2.091083175463   -5.753196329375
N      2.098766462057    1.258861582879   -0.006593261207
C      1.442571060711    0.088016150520   -0.008799944921
C      2.178408141000   -1.145171289643    0.016356295452
C      3.565738104378   -1.098965091057   -0.006419794868
C      4.215828241603    0.149740116962   -0.043262252035
C      3.455532108405    1.299035302615   -0.034222149840
H      4.154033315762   -2.016978884071   -0.005227149041
H      5.304603287858    0.212792612076   -0.066208796151
H      3.912277707227    2.289501427203   -0.030916761938
O      1.423919196366   -2.259019948174    0.044943555101
C      2.063421928541   -3.516127847635    0.064900302685
H      2.701771291192   -3.636355421814    0.959027738272
H      1.266220840889   -4.270224992431    0.090600143893
H      2.680115499699   -3.675590589350   -0.838316583552
