44

C     -0.640524022292    2.894751594940   -1.459546441700
H     -1.511450255802    3.353272783150   -1.934164188347
H     -0.036096253194    2.202785491745   -2.050635162769
C     -0.176679641254    3.372464467261   -0.254810476679
H      0.769909505901    3.012267980164    0.161504981428
C     -0.810358199396    4.513773269707    0.493266527501
O     -0.527977741767    4.773125380211    1.638768469061
O     -1.678567367376    5.195811574824   -0.257569219050
Pd    -1.430306948956    1.524932129979    0.118221504984
C     -3.867039182072    2.286682700012    1.359124358832
O     -2.929530331321    2.738880422137    0.554555061272
O     -4.766696015186    2.973741925623    1.785296692587
C     -3.762641735034    0.800790071578    1.736670600596
H     -4.721907370394    0.329291561240    1.464646414728
N     -2.628010884003    0.150510136168    1.086925924439
C     -2.478092835774   -1.142935143488    1.117544712577
O     -1.487341596340   -1.741804811515    0.524464218528
O     -0.043641692373    0.092883652562   -0.387347648340
H     -0.850392480406   -1.057598991894    0.079667126122
C     -2.535255294335    6.136575004832    0.420660579653
H     -3.218948849699    5.558477855422    1.063097485704
H     -1.917660684250    6.780574179648    1.065332062462
C     -3.287303321569    6.926232477286   -0.629274797878
H     -3.894597024002    6.259778792689   -1.260727731329
H     -3.963702134259    7.645039627679   -0.141056919862
H     -2.596304870873    7.487700170522   -1.277655437508
C     -3.437775918998   -2.056738124763    1.830149461487
H     -3.537032240307   -1.770210084873    2.888249316325
H     -4.440343119312   -1.993268622254    1.378270879318
H     -3.074880741312   -3.088903168940    1.761218556543
H     -3.680372273327    0.748187680605    2.836833101438
N      1.819949333004    1.084692307193    0.551114556724
C      1.247926393161    0.041984571559   -0.049649165753
C      1.971467903325   -1.139096244077   -0.351480300912
C      3.316812846697   -1.231383459290   -0.006747749235
C      3.903928492020   -0.119952315518    0.633342186907
C      3.117072841049    0.997648580476    0.879401285284
H      1.460748276024   -1.962322002309   -0.856025996798
H      4.955457500759   -0.130761891068    0.929499738825
H      3.547264536514    1.877882312534    1.371379459716
C      4.124536781230   -2.468870749893   -0.302869122225
H      4.521934271002   -2.910069263730    0.626315064987
H      3.525174167651   -3.235069095450   -0.815306545899
H      4.992241250252   -2.229483036337   -0.939626205835
