63

C      1.668530560389    3.311761574931    1.872866184721
H      2.955000305262    3.918062501124   -2.425560876731
C     -0.057576740924    5.029671926849    0.221163911348
H     -0.915937280080    4.944238484749   -0.449928471516
H     -0.253289272203    5.003893872645    1.293931345078
C      1.171971387095    5.419178434847   -0.258968101879
H      1.984095313072    5.704531126674    0.414717275819
C      1.408499094262    5.766841634881   -1.694116056380
O      2.485377527428    5.610847114230   -2.249637565072
O      0.333980141699    6.257528155715   -2.286288407763
Pd     1.242191140886    3.192711039470   -0.080007949394
C     -1.559217426658    2.850906683397   -1.833758991284
O     -1.759892616592    2.379262982263   -0.619499040713
O     -2.167858047677    3.803593829927   -2.275156851416
C     -0.452405908442    2.166702315630   -2.645800085775
H     -0.695824308324    2.325828278619   -3.707330952213
N      0.848021986664    2.760747052533   -2.307934936978
C      1.849030693880    2.489682631769   -3.077885551141
O      3.033666564422    3.063147855973   -2.915206603866
O     -0.200771214050    0.452690598477   -0.092916005548
H     -1.127925000632    1.608153974552   -0.388256546797
C      0.790559327083    2.742138122713    2.803620306468
C      1.052597209995    2.786026863344    4.182532324501
C      2.234663192883    3.413366098172    4.643899645727
C      3.109456508640    3.967531030404    3.702251305280
C      2.839942317244    3.923287831112    2.327264526984
H     -0.115618937527    2.236140590557    2.458390332860
H      4.030131179562    4.448046125451    4.048025703328
H      3.562022560960    4.359937737424    1.630925899874
C      0.082950488197    2.160444215123    5.155290008507
H      0.562851359765    1.366277158274    5.752604930754
H     -0.306003262661    2.900840640703    5.875392951302
H     -0.776158233859    1.714998780222    4.633539928486
C      2.551124350918    3.478193766970    6.118156202136
H      1.765439501328    4.009133539724    6.682816055260
H      2.629029647673    2.471728188723    6.564229449297
H      3.502887435976    3.998517184089    6.300487255308
C      0.363862616155    6.487495154386   -3.713692942343
H      0.953285713666    7.399864755773   -3.901598080031
H      0.894951255621    5.648686275108   -4.188461852967
C     -1.069615658302    6.606642250394   -4.185808331378
H     -1.566974753555    7.471570495208   -3.720837166549
H     -1.091057794564    6.743301877362   -5.278412262337
H     -1.632315674498    5.698790610855   -3.920592489310
C      1.820611992816    1.507632792905   -4.216293730684
H      1.400240312730    0.544574927490   -3.890671485074
H      1.183182600664    1.885567960720   -5.032315624086
H      2.835971394451    1.360462261781   -4.603105051553
H     -0.450979171817    1.084715468554   -2.432421582726
N      1.963206123928    1.224637040400    0.043914024190
C      1.033674418079    0.222559289537    0.002040557517
C      1.533834007102   -1.147724661562    0.062228151836
C      2.886472349442   -1.394507413556    0.175214806564
C      3.794520036496   -0.307038619177    0.231360061604
C      3.294989401259    0.970731290479    0.170653665628
H      3.266357424980   -2.415997043827    0.226341208590
H      4.867752061993   -0.475571561022    0.327940453516
H      3.950003683671    1.842108891853    0.223854550548
O      0.559466653625   -2.084442339263    0.000658528881
C      0.923480584310   -3.439900293165    0.083774866823
H      1.432928478286   -3.672459816191    1.037688699298
H     -0.006905213739   -4.021003596346    0.026301176710
H      1.586423336946   -3.742415172141   -0.748937301114
