56

H     -0.322935405549    0.721101942065    0.638024612094
C      2.040304410318    3.176356246010   -2.329486614722
H      2.846033393351    2.442019728243   -2.405705626879
H      2.297372580713    4.237378359845   -2.307921782531
C      0.745399368858    2.775275121630   -2.545300735899
H     -0.058345854627    3.505937056817   -2.661225718515
C      0.424550899907    1.353414376155   -2.903062380522
O      1.250009329525    0.479187127168   -3.035634207504
O     -0.889526526051    1.197103011973   -3.070709646663
Pd     1.016164921709    2.997276952083   -0.301302192825
C     -0.096384869460    5.486915965000    0.479815196927
O      0.180564581771    4.777525148184   -0.602067305910
O     -0.625846869748    6.574973154198    0.430082955867
C      0.347065381653    4.828580336356    1.807542119282
H     -0.404183507126    5.107405410021    2.560571200753
N      0.358806472594    3.377264201085    1.587820727327
C     -0.452639450690    2.533371070882    2.231590377673
O     -0.682373147418    1.360089166883    1.849120942461
O      0.026493801259    0.079737445208   -0.129246358909
C     -1.364134011000   -0.140580529849   -3.325699228459
H     -0.809761190588   -0.554877893422   -4.182808375755
H     -1.126966068175   -0.753155079288   -2.441932783614
C     -2.853349810165   -0.066432227903   -3.586015709248
H     -3.072564735035    0.563540019051   -4.461947387554
H     -3.248232075301   -1.075995272867   -3.779190217691
H     -3.384620900089    0.351034590129   -2.717215813385
C     -1.163198365188    2.974829718652    3.503957901791
H     -1.549868855228    2.074974063454    3.997442256599
H     -0.507602391395    3.524727256774    4.192250981642
H     -2.017173669903    3.625892147608    3.255130011423
C      1.723331151478    5.390319545652    2.281096948089
H      2.444021171521    5.194483477501    1.463219300245
C      1.659452508774    6.906741256505    2.510298908098
H      2.655030381072    7.310919029214    2.747584648214
H      1.272887719051    7.439552533569    1.632042101336
H      0.991908893665    7.144156417155    3.356557888708
C      2.223473128636    4.644009707112    3.532991574276
H      1.541535566411    4.867493552726    4.374405151599
H      2.142068835641    3.559648898255    3.353787839284
C      3.659219036510    4.973326869846    3.950084499910
H      3.778268410672    6.027318668194    4.245013530116
H      3.969941818654    4.356686960842    4.808664920484
H      4.371319077152    4.779565380289    3.129649910449
N      2.028135193804    1.183307138744    0.073849267019
C      1.334665120184    0.025477564440   -0.058968702209
C      2.006291094592   -1.213528385681   -0.124364330696
C      3.380311402717   -1.240318650642    0.013570872318
C      4.075579526626   -0.041673174844    0.234717355916
C      3.377150508678    1.161037562754    0.263282841860
H      1.406487801747   -2.113184737777   -0.261118367194
H      3.920758531707   -2.189467477870   -0.026368245502
H      5.156252635329   -0.037796319703    0.381958738075
C      4.084896057167    2.462162387108    0.521555074624
H      3.971440547306    3.165610362374   -0.317900555376
H      3.667984984268    2.955481610747    1.412637946331
H      5.157879688204    2.294458258097    0.685519377526
