53

C     -0.841799955916    2.848802963604   -1.606510857380
H     -1.733797049989    3.298202793617   -2.049180521436
H     -0.269291056536    2.137682480208   -2.206021756359
C     -0.327945670701    3.355838003404   -0.434488970265
H      0.642052587178    3.037374148137   -0.044710453704
C     -0.939381948412    4.513867095549    0.309484212338
O     -0.620895898605    4.800665045764    1.439388776369
O     -1.839207889587    5.167233876641   -0.426063738473
Pd    -1.569617534542    1.532744556066    0.045486978610
C     -3.962344410606    2.258773718086    1.367974236864
O     -3.096112582308    2.710004168079    0.482796399202
O     -4.924885911908    2.905440877205    1.720094963670
C     -3.654295462827    0.863765684562    1.961711719747
H     -4.617679931226    0.337381699956    2.031175375205
N     -2.749002695645    0.164497669098    1.037838185805
C     -2.840060694145   -1.087829062768    0.701350534398
O     -1.975966526962   -1.648851657172   -0.108860107890
O     -0.158046331359    0.142986001128   -0.494439522363
H     -1.211332356559   -1.030196327108   -0.347686945546
C     -2.673818815313    6.130519966616    0.250408212089
H     -3.347344737814    5.571557223917    0.919692166970
H     -2.035889173158    6.782056822566    0.866770790625
C     -3.443200040455    6.903139832080   -0.799319073006
H     -4.070285375167    6.228804228396   -1.402263207130
H     -4.102280607993    7.637731879720   -0.311035452214
H     -2.762509189471    7.445148575222   -1.474436284584
C     -3.900842595007   -2.052169367354    1.153992124244
H     -3.458020246142   -2.760475296730    1.871324450978
H     -4.765789566658   -1.569758108336    1.619291321165
H     -4.223980071338   -2.633733237017    0.278671337851
C     -3.079483404696    0.977095257684    3.430164250647
C     -4.194024519766    1.512904645027    4.350305786797
H     -3.817759347200    1.585109804173    5.383226829076
H     -4.544818456770    2.503401355276    4.033615067592
H     -5.065667922199    0.837268125798    4.358030544088
C     -2.662010829982   -0.417473645436    3.933259297192
H     -3.506595965025   -1.125191754989    3.926526223086
H     -1.838244458436   -0.845687943268    3.341861403356
H     -2.309474184666   -0.342738905730    4.974013392947
C     -1.861418772121    1.917861488698    3.489514088392
H     -1.029824639858    1.563080313149    2.859870590000
H     -2.108348451286    2.942870230511    3.174982441275
H     -1.486587951644    1.973213086146    4.524032153708
N      1.349291785880    0.885520334016    1.077988881863
C      1.006176230872    0.025417344274    0.117112766241
C      1.898157884741   -1.022722595420   -0.252775382000
C      3.121342869072   -1.144615549815    0.390545957542
C      3.443821910613   -0.221656367915    1.394923413303
C      2.525587944511    0.780130433273    1.702559810112
H      3.812833356020   -1.942316191666    0.116464468167
H      2.749548010368    1.517337133802    2.479884306582
Cl     1.446689189568   -2.138192147725   -1.513884759606
Cl     4.966934421174   -0.325140914928    2.240155327682
