75

C      1.619565064962    3.002267123232    2.134418973983
H      0.703136926606    4.350858901434   -2.837195973256
C      0.359148091074    5.145762620056    0.271710715399
H      0.220841120520    5.410705667740   -0.778978291784
H      1.158332317739    5.649920409757    0.821263544015
C     -0.603598666443    4.440440436008    0.963725780319
H     -0.553602890964    4.364560102681    2.051708042815
C     -1.938807311523    3.994670139217    0.435903503910
O     -2.700050919094    3.341643612135    1.111311094692
O     -2.186204779866    4.418653018362   -0.806452461252
Pd     0.968600079811    3.014035360164    0.245169406821
C     -0.456727843010    2.330862800447   -2.377023102505
O      0.468721518467    3.066944117552   -1.880306987245
O     -1.003408869867    1.394890195097   -1.765597293503
C     -0.921793387136    2.618457884221   -3.820011553445
H     -1.813939511616    1.984377682720   -3.922686508462
N     -1.364494488102    3.979905088285   -4.129408311154
C     -0.678265194290    5.045268913257   -3.961132287975
O      0.516926245698    5.177459513081   -3.360001014819
O      0.048678218762   -0.024253432836    0.003014781394
H     -0.382961438528    0.680861191713   -0.633057830300
C      0.989239380600    2.214153028385    3.105408395865
C      1.464704887212    2.157708962541    4.425930152402
C      2.607454886850    2.912862183759    4.783359202470
C      3.228093779818    3.694984045271    3.802119096747
C      2.746710672733    3.749551003903    2.486699978312
H      0.105073131497    1.625321174612    2.843088642470
H      4.113677101747    4.280440382353    4.067804434695
H      3.270391248907    4.371889998465    1.754876925687
C      0.759179733919    1.298659622596    5.446563244656
H      1.431934078446    0.531283908116    5.866459143692
H      0.397223313176    1.896951422920    6.300169803513
H     -0.106756371900    0.783107169253    5.007199487808
C      3.147497485653    2.877884121560    6.192128850306
H      2.398347487517    3.221895774010    6.925777658796
H      3.433861722283    1.856066174065    6.494979632776
H      4.035520178492    3.518262827052    6.296085550400
C     -3.446730455583    4.028845993015   -1.409919498827
H     -3.245578419570    4.069627880013   -2.489108456159
H     -3.662537243798    2.992273554202   -1.115000441606
C     -4.570118400656    4.967916807181   -1.007727173292
H     -4.327567495436    6.009865344917   -1.269316430960
H     -5.491104443248    4.687967773114   -1.543904805903
H     -4.773014483373    4.908156767884    0.071813954268
C     -1.196063848052    6.364369568443   -4.468413325014
H     -0.436078655269    6.834009691645   -5.113501661410
H     -2.124861146864    6.219073760081   -5.031653106693
H     -1.372231702896    7.052352860722   -3.625213734902
C      0.077376884392    2.121317678117   -4.872722773312
C     -0.432984276853    1.759672594454   -6.131281883723
C      0.415138736995    1.339260940214   -7.156419555101
C      1.795720245477    1.268975811839   -6.940175674936
C      2.313938449954    1.623422982799   -5.693220525811
C      1.462852687891    2.049492426608   -4.666862808223
H     -1.510852887796    1.816661141156   -6.304469583712
H     -0.002979741946    1.061226671261   -8.127591469799
H      2.462470086804    0.936763686060   -7.740172860568
H      3.390889878064    1.570445084864   -5.512265441685
H      1.885946479694    2.322196027714   -3.699190820572
N      2.028321862899    1.172477201650    0.012729025982
C      1.352567590137   -0.006101859445    0.037981930517
C      2.063192013360   -1.228689425857    0.136409023083
C      3.442553034645   -1.223484074808    0.153480490783
C      4.131061559412    0.006117506687    0.075955932092
C      3.373058180880    1.170561208504    0.020723364391
H      1.480354856977   -2.149440150625    0.173332508197
H      4.006259001655   -2.155608412150    0.214676373886
H      3.879448626771    2.137220887473    0.001183159546
C      5.613134932076    0.133067145880    0.070662606387
O      6.210305851976    1.182396778452   -0.003464428633
O      6.223630676188   -1.063314048994    0.157698976514
C      7.651558066117   -1.045220071170    0.157970135857
H      8.034180565638   -0.467594132130    1.012906416046
H      7.970334365225   -2.092088987505    0.231423175074
H      8.036291240677   -0.591887174089   -0.768000177380
