68

C      0.986161197914    2.539961936132    3.036138446044
H      0.055784181185    3.111096582590    3.038302584865
Pd     1.151701919654    3.058549722791    0.664369756271
C      0.277624747383    5.699407644922    0.228220048682
O      0.503833717782    4.861184936083    1.211721747996
O      0.292787299217    6.905608556099    0.360459134574
C     -0.111210370602    5.053112426866   -1.117067723242
H      0.462928701874    5.573167334464   -1.902479159045
N      0.231585537291    3.613199193296   -1.103668124558
C      0.002810637227    2.848791985143   -2.136012355979
O     -0.020667098861    1.551840268722   -2.073599005338
O      0.083669554264    0.259977884834    0.078112949607
H     -0.060864965255    1.136291843565   -1.121727299618
C      2.223486857013    3.215444671655    2.928219391479
C      3.449897861151    2.537666610856    3.137661343779
C      3.425815377750    1.162421437533    3.423158655543
C      2.181020858846    0.496429733453    3.505080221562
C      0.977283397639    1.161509078521    3.328276638864
H      2.223442810380    4.302533619542    2.826068565815
H      2.175050681348   -0.573744458866    3.729469987234
H      0.029531401734    0.627655241540    3.418656125832
C      4.747416678236    3.302341275444    3.097492696620
H      5.269563851805    3.254244179067    4.068474674964
H      5.436521057543    2.889906888704    2.343258212289
H      4.579234033010    4.361818165125    2.857477946868
C      4.706043023789    0.401753924802    3.656649994120
H      5.362842205799    0.445230198537    2.771991247152
H      5.279350825330    0.824959183021    4.498794428764
H      4.509557940929   -0.656659562598    3.878838421508
C     -0.223596645154    3.350877586383   -3.540672679831
H     -1.250907183593    3.122038868289   -3.861994342250
H     -0.029839974972    4.421468494022   -3.663367121376
H      0.449715979914    2.777854640887   -4.196347151795
C     -1.636735611252    5.301180549785   -1.366193265083
H     -1.922893145280    4.647480907672   -2.207031436238
C     -2.493069333816    4.886366534909   -0.160821435648
H     -3.561601369335    4.882423349972   -0.422449437699
H     -2.232581009507    3.874469627995    0.184774918786
H     -2.356318540966    5.579035150298    0.684792478827
C     -1.892890325528    6.749780348311   -1.826830491289
H     -1.583652115411    7.439955530889   -1.027209865863
H     -1.223222625478    6.965196992801   -2.679528622002
C     -3.336084146788    7.032586246341   -2.249380555376
H     -4.039530820558    6.950457293263   -1.406086429720
H     -3.430136688447    8.054003411325   -2.651013476257
H     -3.676735622587    6.335747126759   -3.035006339725
N      2.091546313299    1.296089946259    0.100621264939
C      1.342282238364    0.174604787271    0.101488385629
C      2.013749082646   -1.135103281318    0.102206223898
C      3.419683339694   -1.216092732132   -0.044008992917
C      4.166989967539    0.024588257069   -0.232187941128
C      3.457675779855    1.258927535202   -0.147570598890
C      1.235915166735   -2.301068044781    0.241174075311
C      1.842511153727   -3.548515613349    0.262779831772
C      3.240248754669   -3.641412078115    0.133194557450
C      4.014233233093   -2.498848628169   -0.020688485474
C      5.550868830836    0.058714769841   -0.509968605396
C      6.228932978992    1.254433127547   -0.704914342433
C      5.523750123894    2.467060526253   -0.626870793755
C      4.164036175687    2.467352947843   -0.350442356143
H      0.154685555356   -2.185124871076    0.331249147120
H      1.240735305973   -4.453430141620    0.376699253786
H      3.724369928752   -4.621446628484    0.149873857935
H      5.095414670764   -2.602363659399   -0.122175060653
H      6.102565953290   -0.879446353083   -0.588850813062
H      7.298422195916    1.249217174670   -0.926985655339
H      6.041366787591    3.415829434286   -0.789808599267
H      3.613831834903    3.409274738815   -0.294985033118
