47

C      2.594422180524    3.738320443959    1.839902800643
H      3.361061946087    2.961868639716    1.862167979054
H      1.937789048321    3.884357600082    2.700743465535
C      2.619858165596    4.729168143019    0.883933251935
H      1.995393346890    5.608563676156    1.032014944489
C      3.673929565934    4.852401760019   -0.171720408640
O      4.567992676959    4.061363477750   -0.373792331666
O      3.508069317141    5.981855086449   -0.868017609021
Pd     1.104679311574    3.172588395264    0.259941084163
C     -1.366143834628    3.168211692780   -1.235669060220
O     -0.350464039695    2.371563608033   -0.891939844963
O     -2.303058382979    2.792944904237   -1.891825409064
C     -1.177253028722    4.602916325132   -0.743736780119
H     -2.170968955698    5.000831580623   -0.499640496102
N     -0.262834342495    4.650021863178    0.386374703701
C     -0.491841703605    5.380683199053    1.509804579678
O      0.236155628219    5.343265964882    2.502703359180
O      0.126730005050    0.123679500820    0.098271417843
H     -0.237440723716    0.971640845999   -0.320041946237
C      4.461395010039    6.249107599975   -1.917321133200
H      5.472003353571    6.258049847485   -1.478726443275
H      4.429921838153    5.417125369029   -2.639167542096
C      4.100156850587    7.574138868392   -2.553077404404
H      4.132789710722    8.388937962155   -1.813731010337
H      4.815168458986    7.808238960595   -3.356826148381
H      3.089928731894    7.542245437886   -2.989029901655
C     -1.707001852603    6.312659878075    1.517767554823
H     -1.655841825058    6.900706362976    2.441900707205
H     -1.721847281523    6.991657489901    0.651389796680
H     -2.649630396366    5.741851293435    1.514131930093
H     -0.804200496628    5.192367959213   -1.605882302345
N      2.164214762742    1.257327631015    0.041013444233
C      1.435328128109    0.106195320041    0.105506155972
C      2.071089691596   -1.155482689657    0.197434620033
C      3.444915518305   -1.237505013548    0.155041000387
C      4.195437221000   -0.051983270882    0.017272801284
C      3.510294484938    1.159228164460   -0.031683495066
H      1.429981823066   -2.034100321764    0.273530672495
H      3.953993363239   -2.200598487690    0.210360765243
H      4.078744408147    2.088411683421   -0.127082465226
C      5.682615644736   -0.033168931261   -0.064888394017
O      6.356662572676    0.963773829943   -0.165830797451
O      6.201550875501   -1.276636676059   -0.010705827067
C      7.624514338280   -1.368174102984   -0.080692712887
H      8.092637231302   -0.824529939145    0.753854673732
H      7.865500363195   -2.436691428864   -0.022918725209
H      7.997292697387   -0.942291606814   -1.024475854614
