59

C      1.116108348439    2.781788046899    2.945956224362
H      0.232247594378    3.422315420803    2.941145220887
Pd     1.176496259714    3.126965386626    0.517151088798
C      0.537738508238    5.794365754242   -0.046171188276
O      0.696409224102    4.991125464281    0.987096243000
O      0.698868737220    6.994870034151    0.017568003735
C      0.031764257754    5.105394660818   -1.322071878325
H      0.549209474359    5.576262838702   -2.174068591320
N      0.340188425962    3.664403025980   -1.255651598975
C     -0.031606185543    2.804463373885   -2.205588525858
O     -0.135237557807    1.566226220351   -2.029501568233
O      0.006389353951    0.191412438588   -0.000119983355
H     -0.197219035861    0.887678728297   -0.769832007729
C      2.393007949341    3.349693164524    2.750642300381
C      3.571065151120    2.592760308527    2.954487822804
C      3.457583422023    1.247584152580    3.347673366788
C      2.171993498196    0.685763328985    3.518144275851
C      1.016076175789    1.428892739364    3.329316476274
H      2.468452579145    4.421170386740    2.554700798075
H      2.094568700994   -0.361067991635    3.824892067935
H      0.034845327249    0.978077117298    3.491607159431
C      4.920388074453    3.242873159772    2.782371104175
H      5.499082138460    3.228332595193    3.721610094768
H      5.534416070821    2.715627099589    2.032207868437
H      4.822346136120    4.290230465801    2.463646965754
C      4.686315781084    0.413306896446    3.605371666347
H      5.314901629790    0.332412980499    2.702851052489
H      5.318586926391    0.858346075692    4.392088166506
H      4.421481606438   -0.605532720029    3.921974905261
C     -0.308701893148    3.283585982465   -3.624129549715
H     -1.366641160157    3.107581524625   -3.870854811862
H     -0.059164742684    4.333941749011   -3.814440395250
H      0.284173281202    2.641196949649   -4.292349994990
C     -1.497386641504    5.355644051401   -1.426393153924
H     -1.875033538759    4.823028752483   -2.314268113713
H     -1.966140751690    4.865770087650   -0.555383669896
C     -1.977729980322    6.818368811109   -1.508018909173
H     -1.685009327213    7.327309464843   -0.575542747981
C     -3.509381759812    6.846091936891   -1.603425227118
H     -3.978104194545    6.312469382472   -0.760212869135
H     -3.888183823439    7.880909694788   -1.596631253529
H     -3.861941022086    6.369607969881   -2.535245350829
C     -1.336079956086    7.591604693654   -2.667309944801
H     -1.773791494929    8.599598949600   -2.752461942321
H     -0.255002779227    7.718852459904   -2.509981488736
H     -1.496657973392    7.080297920954   -3.633581090808
N      2.023744195715    1.270378559812    0.030937554541
C      1.314971472662    0.119301746833    0.029322706463
C      1.963026389411   -1.148679506644    0.023191210421
C      3.347553367568   -1.162435652181   -0.080216467237
C      4.069194077863    0.040123224183   -0.170705403802
C      3.369284175494    1.230705884032   -0.097342428839
H      3.873627395680   -2.120694589415   -0.119269704744
H      5.153659143148    0.047880257782   -0.288708601538
H      3.877698276513    2.196117704332   -0.137386822739
C      1.119395769211   -2.391364021205    0.067308668790
H      0.507637488194   -2.425411566052    0.983488234152
H      0.410104361293   -2.408763759828   -0.775645237469
H      1.741818792523   -3.296918143244    0.027669659021
