72

C      2.431260355172    3.768503027405    1.422144321472
H      0.424529607386    1.912905304567   -2.620031047566
C      0.246779279031    5.282789837767   -0.013690698657
H      1.066249748756    5.978723187244    0.175756929997
H     -0.192942720735    5.255524044985   -1.013431928646
C     -0.439968905986    4.704723058328    1.035143344304
H     -1.381372132277    4.190596944441    0.819738480323
C     -0.203154797088    4.993930351619    2.487449710198
O     -0.677210283130    4.328741248247    3.378207879893
O      0.546300690930    6.087409386565    2.680803241644
Pd     0.974810148714    3.198833586930    0.185394721263
C     -1.585785608709    2.850856759342   -1.748467367897
O     -0.439671218066    2.369061569635   -1.282080936840
O     -2.226104930976    3.725700587513   -1.196632364764
C     -2.073948394754    2.218390330723   -3.073128929119
H     -3.076413967245    2.650812754347   -3.211611001603
N     -1.303512105321    2.576296814481   -4.255722139088
C     -0.055886237390    2.368358986189   -4.418586444621
O      0.831266518167    1.878701124788   -3.523478533947
O      0.017509181352    0.151356658018   -0.031695095799
H     -0.326115204032    1.002124406636   -0.434326257007
C      2.514692097626    3.223788519273    2.708972846271
C      3.589824885438    3.518527812702    3.564915855842
C      4.613019227038    4.388036840502    3.117471005375
C      4.515276235111    4.929930409084    1.829168789289
C      3.438886363614    4.633362159585    0.982375783618
H      1.730661709445    2.553439376721    3.072015713766
H      5.300395982739    5.604800604639    1.474105959052
H      3.407736870521    5.080697888080   -0.015172139452
C      3.649029594094    2.904379053616    4.942500691981
H      4.553594658322    2.285827325168    5.072799032979
H      3.683765231817    3.675316643989    5.731222916802
H      2.774522730489    2.266767982587    5.135475445336
C      5.786984365481    4.723090173630    4.004797728979
H      5.466074878972    5.200031150929    4.946727403811
H      6.353275198126    3.820234585342    4.291170859615
H      6.484566147957    5.409841595048    3.503578221217
C      0.839889049462    6.441181339439    4.044643174639
H     -0.110181593823    6.576422336849    4.586323452151
H      1.369359404812    5.599187383220    4.518008624275
C      1.676229991584    7.703119072943    4.031682792884
H      1.135350026528    8.531035640719    3.547782804494
H      1.914538681384    8.004617971497    5.063647789652
H      2.621120197411    7.541177929920    3.490950035115
C      0.598449638198    2.662487028756   -5.741776596097
H     -0.148222928109    3.022774583385   -6.458325922429
H      1.394224447781    3.414687294705   -5.614828675062
H      1.079405888385    1.749670998361   -6.129752706239
C     -2.247199403523    0.681771659443   -2.911657768775
H     -1.263603770591    0.219549103904   -2.740801253362
H     -2.845062790976    0.506547374686   -2.000970903013
C     -2.923632868200    0.019716745466   -4.090825222940
C     -4.317281141601    0.089757272177   -4.250226938269
C     -2.178544142977   -0.669536590517   -5.059677316964
C     -4.946945894784   -0.504914811344   -5.346209183968
H     -4.918434446263    0.616381422099   -3.502654731077
C     -2.803953385788   -1.267478716707   -6.157640084159
H     -1.092732947441   -0.739469103941   -4.949144110027
C     -4.191236004418   -1.186168099897   -6.305798892643
H     -6.033441768165   -0.439585956685   -5.449762222723
H     -2.204019168945   -1.800161446579   -6.900555383596
H     -4.682413148940   -1.654137169301   -7.162969721531
N      2.027109498748    1.307635515625   -0.072870263723
C      1.338293148791    0.143999710193   -0.050212014822
C      2.005346487856   -1.100049649054   -0.032636446849
C      3.386954524322   -1.128177407419   -0.094850111728
C      4.095798740061    0.081475114719   -0.174305295997
C      3.378387157457    1.264647544154   -0.150502196906
H      1.397556784487   -2.004512107732    0.006722706059
H      3.916582256215   -2.084209886246   -0.094504359381
H      5.184072255735    0.106870345176   -0.240356647159
H      3.886443642285    2.228643806885   -0.174236753748
