75

C      2.443073961431    3.782922374624    1.429794028716
H      0.527003019255    1.997607976032   -2.704533024005
C      0.278446813376    5.338393728035    0.026533672224
H      1.078362252523    6.029989976018    0.297460628145
H     -0.121086524266    5.364164955685   -0.989928632358
C     -0.441408726623    4.681601398253    1.004201084334
H     -1.366088786067    4.172610824909    0.719164173452
C     -0.273064699276    4.874631625958    2.481938532087
O     -0.778346657064    4.145723592035    3.303219760785
O      0.454143573964    5.958301523239    2.781508524332
Pd     1.032466851207    3.255226591476    0.124409567456
C     -1.458994534574    2.924544777083   -1.903138214133
O     -0.346290529150    2.434690382836   -1.379590603950
O     -2.028945725241    3.913227844544   -1.480606137248
C     -2.030261433839    2.142870609283   -3.122488518110
H     -2.990423087853    2.651628617629   -3.304755435130
N     -1.292762926711    2.229629649111   -4.370048482545
C     -0.032605036660    2.115705126056   -4.536561592223
O      0.925884613839    1.929136369818   -3.608554383877
O      0.208779903970    0.172288782056   -0.264435646248
H     -0.186570719304    1.015184138574   -0.641512707312
C      2.491621139640    3.169499665284    2.687040851999
C      3.535377643254    3.430119689445    3.591594696121
C      4.560325811824    4.334122372171    3.224088773514
C      4.496587512668    4.943231686602    1.964285631380
C      3.451706290824    4.681204805099    1.068627439407
H      1.705296076198    2.471515886108    2.988308797592
H      5.286507632182    5.640285548654    1.668615040135
H      3.449075432728    5.178071447130    0.094436457507
C      3.560659377582    2.741612424104    4.934685609506
H      4.468534182320    2.126520359873    5.058184885924
H      3.562615039818    3.467997170242    5.765383092193
H      2.688754448795    2.084824749979    5.065709738603
C      5.703917783025    4.630567780055    4.163108387301
H      5.350583086823    5.046719896220    5.122132943637
H      6.274443699430    3.718897929946    4.410335246999
H      6.405792573148    5.353517509763    3.722700937051
C      0.688204503217    6.219566954190    4.177527107292
H     -0.284735275126    6.323961563476    4.684458916112
H      1.194170450911    5.345382526045    4.616744188405
C      1.527623999752    7.474901806294    4.284371619531
H      1.011042461033    8.335873768250    3.832669567311
H      1.720846083700    7.706618881101    5.343429974237
H      2.494878011120    7.342830648410    3.776089920923
C      0.552309753467    2.175506555181   -5.923155278308
H     -0.244100551108    2.312120519510   -6.663273711806
H      1.275362218318    3.004495864879   -5.991473543666
H      1.108697118656    1.247749105522   -6.134614715606
C     -2.367828895889    0.706980613356   -2.701813287697
C     -1.899923852335   -0.412110050980   -3.399756982482
C     -2.241278643601   -1.704783976573   -2.984934397988
C     -3.057872906847   -1.896522577752   -1.868994680817
C     -3.539187494181   -0.783468224533   -1.170517345913
C     -3.200929689674    0.504543266450   -1.587340255307
H     -1.276593155365   -0.270750727656   -4.283513013426
H     -1.867803333783   -2.566852813639   -3.544545457149
H     -3.323375387134   -2.906447735518   -1.545763567394
H     -4.184833030596   -0.919347362688   -0.298811172900
H     -3.590034535703    1.369237477719   -1.040945493565
N      2.160462647421    1.422672085640   -0.241448645161
C      1.520982384776    0.226324912364   -0.274304707188
C      2.245433182960   -0.987415747523   -0.303458173711
C      3.623024564228   -0.955093877695   -0.368583923773
C      4.281846960476    0.291474247852   -0.399360293079
C      3.505249209895    1.442488543553   -0.319846044882
H      1.676688563451   -1.917565182845   -0.304960498589
H      4.204786139621   -1.876977390944   -0.411204710055
H      3.994279088442    2.416530154818   -0.299406286907
C      5.759075993778    0.445929428119   -0.497239544942
O      6.336822672229    1.507193213903   -0.536902484780
O      6.388409230745   -0.743647921705   -0.538639294484
C      7.812145750663   -0.701437612797   -0.640968210952
H      8.250035028485   -0.177311331285    0.221894615908
H      8.147957397865   -1.745299879568   -0.664050375410
H      8.121905535515   -0.179260428504   -1.558734414724
