74

C      2.436686080749    3.761688838788    1.407365181031
H      0.400918604902    1.875298213481   -2.585281140678
C      0.222991796074    5.263538642544    0.013221166882
H      1.036702398212    5.964483017719    0.208398933578
H     -0.224687511434    5.243981622343   -0.983085534163
C     -0.451440793022    4.662678285702    1.057142217186
H     -1.389632399369    4.144459554888    0.839412219138
C     -0.211269601590    4.930416892709    2.512735517091
O     -0.674776898896    4.245843085698    3.394554767121
O      0.528141009657    6.027912109746    2.721514806587
Pd     0.973493553750    3.183708503881    0.182252608860
C     -1.600485395365    2.819240025702   -1.740517958047
O     -0.462571248200    2.331955303333   -1.255901195099
O     -2.201730728716    3.747544325535   -1.233753305745
C     -2.128055209257    2.134333638479   -3.024303858270
H     -3.114013588288    2.604280828268   -3.172367041249
N     -1.362939902443    2.410890067665   -4.235285538399
C     -0.111511661400    2.225173130141   -4.398813829685
O      0.803990135726    1.827877578996   -3.489314407063
O      0.068466148394    0.127508779335   -0.052140050288
H     -0.298895272334    0.976887546687   -0.449675199145
C      2.542643022691    3.199891024763    2.685133726429
C      3.620168828159    3.501987677158    3.535364199291
C      4.622436152620    4.397186615427    3.091646744347
C      4.502318628104    4.955907687647    1.812433359610
C      3.423864462273    4.651498124611    0.971322557796
H      1.775432048732    2.508718480935    3.045016723359
H      5.271712020539    5.649979380051    1.459900595068
H      3.375779910023    5.111421214351   -0.019741804535
C      3.704598430194    2.867818809893    4.902558050052
H      4.621559209123    2.263993381838    5.013975764186
H      3.733135915613    3.626730685054    5.703155302292
H      2.844065566121    2.210953223671    5.093888575724
C      5.798783039192    4.740582797429    3.972673049615
H      5.478710749104    5.196431256858    4.925309068378
H      6.385007605689    3.844262562005    4.238868713868
H      6.478132808353    5.448303615923    3.475532776813
C      0.826031985223    6.360117755035    4.089629069861
H     -0.122255765322    6.481626189857    4.637774947708
H      1.361840181100    5.513119009390    4.546593980171
C      1.656117220748    7.626287100834    4.094070000130
H      1.109176068141    8.459365638428    3.626046542702
H      1.897353249971    7.911960846391    5.129870603021
H      2.599384650270    7.477675626461    3.546715642954
C      0.517284680039    2.442224043457   -5.750078482762
H     -0.245041259538    2.744814356051   -6.476923294343
H      1.302186478030    3.213412204811   -5.684866647374
H      1.008183068170    1.513753093375   -6.085212513661
C     -2.376183514864    0.613086730209   -2.811364930932
H     -1.395695570705    0.137832210597   -2.629220309597
C     -3.269447663676    0.359483691862   -1.589602813668
H     -3.441946817407   -0.719988465707   -1.452407703356
H     -2.832578140056    0.742370700893   -0.654038117062
H     -4.253515896961    0.841660581421   -1.715849356252
C     -2.988618132120   -0.022721064548   -4.065487491020
H     -3.980264353792    0.411830914784   -4.278527763832
H     -2.359118137658    0.138565484377   -4.951238097135
H     -3.121370356303   -1.107918232820   -3.924840122325
N      2.046550566509    1.310089942783   -0.104073740204
C      1.386812495294    0.150886008887   -0.070054020641
C      2.072408811786   -1.115705880903   -0.041654361586
C      3.495502593159   -1.116577844118   -0.107114555924
C      4.156468915826    0.143610723384   -0.202397240678
C      3.418758342364    1.293701719109   -0.190129836468
C      1.361932045656   -2.339321671745    0.035312776940
C      2.052220666459   -3.536344525615    0.059055270132
C      3.466141988053   -3.544294524475   -0.000793624195
C      4.175937582895   -2.361166951431   -0.084513720129
H      0.272517150250   -2.313828274669    0.075788333778
H      1.507102536449   -4.481055997645    0.120444728247
H      4.000238524261   -4.497847660653    0.016228116763
H      5.267543176013   -2.369861901320   -0.135008500183
H      5.244099785559    0.195247973020   -0.275257551187
H      3.897693273466    2.270496071671   -0.234874480289
