73

C      1.583782349927    3.220009906451    1.820313423211
H      2.291734959521    3.030672623623   -1.887047865335
C     -0.442211512922    4.714798144227   -0.015269919349
H     -1.100445043758    4.674067579839   -0.884558228187
H     -0.908635494666    4.583047725293    0.963843656845
C      0.838513581613    5.205443185978   -0.113673894264
H      1.406991014353    5.453696360221    0.783515787193
C      1.466039073699    5.791745893314   -1.341475345313
O      2.621749247519    6.143250450648   -1.374949614741
O      0.605998721367    5.940394752030   -2.361214413419
Pd     0.906410288287    2.911700125579   -0.044743464696
C     -2.214515008191    2.373449836199   -1.348348590440
O     -2.023585417012    1.909810694141   -0.119871608033
O     -3.113216468115    3.148245310171   -1.583964965237
C     -1.277872949690    1.931675577713   -2.496908718307
H     -1.663878651228    2.530072350059   -3.334747787629
N      0.107052029103    2.347423795234   -2.204352115134
C      0.886059346659    2.773589359524   -3.136769769703
O      2.143119879360    3.134816770806   -2.849536650076
O     -0.163019034280    0.387411147863    0.863593968964
H     -1.244644959134    1.306150494862    0.069971877141
C      0.711721629115    2.945674986162    2.877036602946
C      1.119658062392    3.111133970626    4.212898194865
C      2.433286761763    3.557580282560    4.486174828651
C      3.291811459225    3.820414443662    3.410459087595
C      2.883146735662    3.656946493955    2.080975708547
H     -0.295672433999    2.570769912860    2.678870932296
H      4.310911283544    4.163941144902    3.611848615529
H      3.584544210347    3.880224214754    1.272645520974
C      0.159966409561    2.803240441884    5.335961739647
H      0.551964517949    2.012198937025    5.997816215156
H     -0.015168932207    3.686278971872    5.974105719667
H     -0.813375789646    2.466742698611    4.951382440960
C      2.906214455031    3.743674877920    5.907040381246
H      2.287197777187    4.477619563840    6.450925453170
H      2.851940732252    2.802937894231    6.481214469198
H      3.947712755946    4.095024788304    5.939327253927
C      1.107141376492    6.625110302411   -3.528349104107
H      1.616881586190    7.544679001528   -3.201939456836
H      1.871471229003    5.989469797335   -4.004724577984
C     -0.061823977671    6.918118932623   -4.444623521932
H     -0.803605544133    7.557755377373   -3.942878803673
H      0.293470137691    7.442706647967   -5.345098722442
H     -0.567916846779    5.993598110916   -4.761988079971
C      0.612327581887    2.986510530659   -4.599024396020
H      1.124394182535    2.214792063985   -5.192388935995
H     -0.453804191173    2.969484168406   -4.841078848820
H      1.042647082949    3.954145215570   -4.889720552341
C     -1.504085553481    0.422465539301   -2.924818955618
C     -3.026191442270    0.165090590121   -2.940038313274
H     -3.229681395002   -0.835443420962   -3.352751217925
H     -3.457829565607    0.198634475100   -1.928503022807
H     -3.561378044107    0.903086692806   -3.558073410909
C     -0.967482248924    0.193607210997   -4.351352485652
H     -1.429497916408    0.872696976095   -5.084859273973
H      0.125422592983    0.304415390297   -4.405312005776
H     -1.198429856390   -0.835895617657   -4.666872905406
C     -0.824344253904   -0.598715776174   -2.002664402825
H      0.263092297536   -0.437578498678   -1.958349622818
H     -1.213441979737   -0.575603714834   -0.977968036444
H     -0.992568256801   -1.612729661953   -2.399581059373
N      1.894977953516    1.055646233092    0.153027396182
C      1.039899589455    0.095418370163    0.682863309276
C      1.603050280381   -1.195631782369    0.995139563698
C      2.929435012072   -1.460780007725    0.770905457406
C      3.744069881852   -0.439759668960    0.229975460275
C      3.191052028072    0.801168979396   -0.049029073352
H      0.927832158996   -1.940679398105    1.417572000358
H      3.376506454322   -2.429497370188    0.997268214372
H      3.830981518217    1.595791635090   -0.437215850159
N      5.155626331802   -0.667140751193   -0.026942135231
O      5.808122162513    0.254153708956   -0.504474128119
O      5.609182674225   -1.770055428048    0.248056937318
