59

C      0.966143911451    2.528475048188    3.045913018703
H      0.020355062834    3.073752820767    3.052311130464
Pd     1.095001990282    3.008774524755    0.666012809742
C      0.116083016521    5.617499041883    0.207878226857
O      0.379593315048    4.791319069915    1.189540432636
O     -0.030479784738    6.811621984502    0.352321641505
C     -0.068692782550    4.977007952105   -1.191854540375
H      0.667967310123    5.465596819656   -1.856357300013
N      0.199321695073    3.523590086275   -1.123810416008
C     -0.063175651131    2.717217481064   -2.114685809274
O     -0.138929518753    1.427254804446   -1.986765456258
O      0.070746267551    0.192637788600    0.186403272681
H     -0.144824921422    1.047307708039   -1.019158686450
C      2.182318809892    3.236836795558    2.912636126780
C      3.430315370618    2.597559390469    3.114797844247
C      3.449034587464    1.226698401619    3.421012006005
C      2.224791882013    0.527207153517    3.530437783528
C      1.000444599696    1.154999034520    3.359730245755
H      2.149944865056    4.321931037194    2.795449945184
H      2.252294363382   -0.539067428365    3.771142155697
H      0.069519739112    0.595983549869    3.469813617534
C      4.705019183834    3.397638576418    3.043214695330
H      5.246794975333    3.373766736454    4.004210677343
H      5.391021277486    2.997103364402    2.279622540431
H      4.502706130248    4.449665247268    2.796666635736
C      4.753512651823    0.505857872691    3.646361797602
H      5.394987033266    0.552786732076    2.750657497148
H      5.327815575690    0.958773545510    4.472207938105
H      4.590290234141   -0.553766022464    3.888765850233
C     -0.272685683623    3.155817065937   -3.542989668882
H     -1.337663340453    3.085340420791   -3.812106091905
H      0.087970115469    4.171105619464   -3.741479783840
H      0.267624187790    2.440564538104   -4.179999870415
C     -1.491164361151    5.339021497894   -1.645869885831
H     -1.691364537054    5.095749435125   -2.696512056713
H     -2.234292775826    4.823116537457   -1.017362820848
H     -1.617975273739    6.422142886257   -1.510898119352
N      2.063805011522    1.255498300726    0.122920006360
C      1.330335601981    0.124203426542    0.167688573438
C      2.019294123072   -1.176373946589    0.169540312149
C      3.422098436010   -1.241356647631   -0.010806507519
C      4.148631757362    0.006043597631   -0.233032456286
C      3.424657789139    1.232204526370   -0.152258822272
C      1.260801546692   -2.350172237297    0.344866679280
C      1.884060339430   -3.589323150156    0.367876691106
C      3.279156862132   -3.666108956764    0.203855039320
C      4.033862516487   -2.515975062896    0.014887242938
C      5.526345797979    0.054156051621   -0.538005149828
C      6.184819941903    1.255556431807   -0.762768176195
C      5.465431141420    2.460004358000   -0.687748189087
C      4.111312634156    2.446576392162   -0.385359260984
H      0.180825526607   -2.246750683480    0.461321734876
H      1.297327139516   -4.500177742400    0.509512151911
H      3.776431486839   -4.639518574450    0.221464102834
H      5.113386778421   -2.607131370414   -0.112637724604
H      6.089029837765   -0.877721030987   -0.613457116907
H      7.249952453039    1.260962678050   -1.004855798927
H      5.967661775956    3.412968914436   -0.872993871453
H      3.549742394540    3.381701115258   -0.330427526282
