47

C     -1.282564631154    2.707981467485   -2.043096203631
H     -2.250702275541    3.190923604521   -2.193742650393
H     -0.959636078827    1.956077801325   -2.766784861645
C     -0.393676007270    3.219621426845   -1.123068656943
H      0.637627787641    2.867766220339   -1.065204306643
C     -0.667117709019    4.428791626175   -0.271338245321
O      0.025159588929    4.729762961131    0.673379759092
O     -1.732741088770    5.111842592063   -0.691269961585
Pd    -1.513449518057    1.503800341819   -0.189612287689
C     -3.543274108943    2.352154560432    1.595562757963
O     -2.889671613379    2.743830529749    0.524777603785
O     -4.316421454254    3.062413728124    2.200174618581
C     -3.241152436878    0.920620920262    2.098475430906
H     -4.219562092592    0.428443310757    2.226139994402
N     -2.430880674741    0.201110843431    1.105862867699
C     -2.440332969533   -1.093812499588    0.985978267421
O     -1.696293542348   -1.714011658025    0.110445676693
O     -0.222492520827    0.083312144540   -0.926768821297
H     -1.080992562536   -1.064610196721   -0.389972878418
C     -2.263140066049    6.125161900144    0.187212348022
H     -2.710283083166    5.610901051958    1.052982748394
H     -1.434641934551    6.754410585305    0.546436406098
C     -3.297614236650    6.917485287961   -0.582885972479
H     -4.111625852176    6.263252677789   -0.930280084050
H     -3.734067694700    7.690829455724    0.068229859275
H     -2.849603851738    7.414644102614   -1.457609153293
C     -3.315751925215   -2.004006617281    1.807140057685
H     -3.143904223730   -1.860405164201    2.883032791166
H     -4.378797943791   -1.794682404984    1.609012156965
H     -3.099019600482   -3.044878835815    1.539908220967
C     -2.542572355147    1.018276914120    3.462580091276
H     -2.368875906296    0.025539577334    3.904874093779
H     -1.570566161019    1.525096875120    3.360417148712
H     -3.174687636347    1.604999704290    4.144093932348
N      1.345558816185    0.977178919072    0.483943089649
C      1.029284706385    0.083809436939   -0.453476283623
C      1.969308402409   -0.844696620314   -0.955815529334
C      3.259889250120   -0.796398494955   -0.444473754306
C      3.591728949378    0.154486392635    0.530672453735
C      2.596527693497    1.033128280229    0.973518936701
H      1.672887108567   -1.558872722850   -1.725612017135
H      4.017447877093   -1.495333493634   -0.810149305443
H      4.603371862270    0.214226469073    0.936511677727
C      2.852166060973    2.082460965896    2.023996738967
H      2.388744436473    3.035754795810    1.726669197898
H      2.383786292788    1.787174116685    2.978629489685
H      3.926634294038    2.232560271573    2.202595508911
