72

C      1.627356290936    3.016460432152    2.082323919220
H      0.643546162129    4.379862377405   -2.858021137148
C      0.365826696310    5.175262915908    0.232649659106
H      0.210175198143    5.437512625782   -0.816162096721
H      1.182049312264    5.671457436700    0.763980356212
C     -0.593066120470    4.488332825325    0.947864128648
H     -0.522834826301    4.417554110656    2.035062546315
C     -1.944739182318    4.059234958780    0.448476658340
O     -2.705128580680    3.428208585243    1.145350989846
O     -2.206617053085    4.471525907260   -0.794842728215
Pd     0.942159806180    3.033498867187    0.204678187691
C     -0.535978769629    2.374160183381   -2.393411420851
O      0.417889751195    3.086089086811   -1.910935253451
O     -1.109434177468    1.462045601989   -1.773515687945
C     -0.957128774869    2.658297597445   -3.849764177347
H     -1.805063907454    1.979191446644   -4.022899730601
N     -1.433608364268    4.004135754326   -4.130975939390
C     -0.764394327192    5.076921895338   -3.951294509871
O      0.449860799447    5.208684528938   -3.377847838240
O     -0.072741771588    0.039941059036    0.035434241114
H     -0.494587686544    0.730488447973   -0.606852808840
C      1.031350723543    2.204143676121    3.055384997027
C      1.525750409209    2.147679480407    4.368744544115
C      2.654518200275    2.927209929932    4.718380207797
C      3.242236866265    3.733102685319    3.736181966418
C      2.740782638284    3.787872259110    2.428214947989
H      0.159959911150    1.594304594295    2.798660939941
H      4.115706614329    4.339131571109    3.996512341468
H      3.236848648660    4.432244556054    1.695983220777
C      0.855325989505    1.262211305890    5.390498908479
H      1.552068232599    0.507579285488    5.794128597471
H      0.490261531557    1.843528744885    6.254467951390
H     -0.003588738364    0.729861005986    4.957501777160
C      3.213926167233    2.893104949695    6.119621614977
H      2.466269880245    3.211603487690    6.866198200388
H      3.529688036840    1.876151696144    6.409437061973
H      4.086963628762    3.554716139568    6.218215389580
C     -3.480338459292    4.086942314207   -1.374291320380
H     -3.294776845101    4.107552647307   -2.456747939098
H     -3.702823562321    3.057483081214   -1.060672336368
C     -4.586969915382    5.044896131743   -0.970316897353
H     -4.337016484528    6.080014534430   -1.251509570146
H     -5.518741371765    4.767259357753   -1.488770040573
H     -4.774594513545    5.004091032055    0.112885508178
C     -1.315837580233    6.403251221377   -4.400271308298
H     -0.568850202869    6.927440977409   -5.017552388334
H     -2.238842058331    6.257757679919   -4.972944825246
H     -1.515909272355    7.043729057893   -3.525275801754
C      0.190766345580    2.208083762789   -4.801324788644
H      1.072864299153    2.842698720639   -4.627901096143
H      0.470665258215    1.180539502135   -4.514092774177
C     -0.185613431929    2.237607498181   -6.265304311000
C     -0.954520712402    1.205897483917   -6.828335691525
C      0.211549478023    3.298249983591   -7.093695878061
C     -1.320513401193    1.235057661491   -8.176121074790
H     -1.268680098972    0.365532835425   -6.201618161332
C     -0.150930440396    3.331248143230   -8.443452302010
H      0.816008981389    4.107318873546   -6.674094406254
C     -0.919951831270    2.299963349724   -8.989515810715
H     -1.917774425553    0.420502605722   -8.594704678743
H      0.170289579481    4.166624137577   -9.071493475113
H     -1.203178413471    2.323296332143  -10.045062483544
N      1.946899631092    1.168658526855   -0.041279663563
C      1.238928157552    0.015650044495    0.004946185211
C      1.912079305947   -1.227910259114    0.058850563550
C      3.294626984617   -1.261411486082    0.022608293895
C      4.013038612631   -0.057047940378   -0.068275734726
C      3.297127477376    1.127231739800   -0.087449961186
H      1.303295945134   -2.131149913022    0.111033200190
H      3.820848294426   -2.218918789692    0.055196470325
H      5.102760315903   -0.038155624434   -0.107421748161
H      3.806821733659    2.092221048634   -0.121546403807
