57

C      2.871544817706    3.919512986443    0.861301400796
H      1.679038420756    5.269894690949    1.694398359235
Pd     1.198943255492    3.126381919908    0.087622178047
C     -1.538855448657    3.221842391963   -0.963596830439
O     -0.599106326801    2.355759555408   -0.684857428764
O     -2.672830042143    2.963573407573   -1.299799290590
C     -1.057017345208    4.694163612064   -0.903751743289
H     -1.934319900707    5.288949102753   -0.616584775475
N      0.027004379672    4.842874000933    0.081300930994
C      0.024296591665    5.817150591060    0.935157173626
O      0.983967742778    5.956689517172    1.829534417793
O      0.051614728026    0.132437464311    0.221691714036
H     -0.362544121223    0.998239083352   -0.136358424665
C      3.281459721346    3.606924251936    2.172459810248
C      4.477779391329    4.093007608637    2.728645187823
C      5.312909416408    4.923871364580    1.946489461997
C      4.908763426034    5.238331059108    0.641279876059
C      3.710588930693    4.755998756143    0.103406520626
H      2.655312197475    2.956633601477    2.792068431649
H      5.547705384905    5.882821193478    0.029414405990
H      3.438565275631    5.034324607496   -0.918755215511
C      4.863285227255    3.724237502737    4.140070002726
H      5.828934889258    3.191168707845    4.171119164263
H      4.979729152285    4.617971984380    4.776659685646
H      4.107200781029    3.076188534259    4.606352568753
C      6.608027261898    5.463258404039    2.501097437916
H      6.441630045238    6.077854839004    3.402404389528
H      7.293442975160    4.651523552742    2.799372845403
H      7.130798997778    6.087779371505    1.762171355371
C     -1.035734972203    6.880523139900    1.051493188988
H     -1.141144808339    7.437748880408    0.110487302747
H     -2.011091217509    6.429781262363    1.291502698667
H     -0.755627238620    7.572700277928    1.854131577486
C     -0.619571289664    5.126824932968   -2.329166409986
H      0.281583853751    4.554791470839   -2.602278070546
H     -1.427555371180    4.810515828210   -3.006590356919
C     -0.370126702129    6.609565595427   -2.485524137458
C     -1.428793256412    7.480442393393   -2.797792319368
C      0.908024722086    7.159365111355   -2.296003212091
C     -1.219339106012    8.857643035036   -2.907462377939
H     -2.429748792203    7.070340987038   -2.963104187467
C      1.121833547028    8.537396861773   -2.404104769543
H      1.747198597904    6.498730827037   -2.063980665536
C      0.058218184948    9.391744443406   -2.707590054763
H     -2.055502977407    9.516158504658   -3.157026178504
H      2.125409734300    8.944056030773   -2.254299692706
H      0.224564594300   10.468342684558   -2.795859416183
N      2.109732689777    1.203459337284   -0.008325783508
C      1.350067638441    0.086502730572    0.118918747388
C      1.988547516375   -1.190744643735    0.161127877367
C      3.358528181484   -1.298394041023    0.014729982657
C      4.101975644624   -0.123699361415   -0.171241107510
C      3.450211644684    1.096971038386   -0.169991764988
H      3.841820354509   -2.275753313731    0.031949792779
H      4.008726419117    2.023573563024   -0.286834738715
Cl     1.009273117471   -2.604465413475    0.376856392596
Cl     5.829424473358   -0.192442629126   -0.387428702318
