56

C     -1.009604127420    2.993043503126   -1.786859046860
H     -1.946773452740    3.432239681381   -2.136898716750
H     -0.476697299255    2.313278796519   -2.455358969131
C     -0.402808762349    3.482001536597   -0.652632240788
H      0.600912068444    3.165655467854   -0.356334153215
C     -0.969995727712    4.603378823745    0.177845956830
O     -0.557041519731    4.865759402248    1.282402527523
O     -1.945517945672    5.257544499563   -0.454489090336
Pd    -1.552954791434    1.610848775704   -0.114346619101
C     -3.786806072185    2.286469453363    1.492495624291
O     -3.028810854044    2.761029533126    0.525974572068
O     -4.681171430345    2.931866485629    1.995663618014
C     -3.444896331678    0.863979869690    1.985340723847
H     -4.401832487544    0.323487549219    2.057534855570
N     -2.564327496851    0.212716660369    1.003550409886
C     -2.570776655408   -1.069744684843    0.792895078272
O     -1.766296288866   -1.633854242370   -0.070534494804
O     -0.202829157686    0.236320089208   -0.839400974848
H     -1.118483781803   -0.958894856695   -0.473211247026
C     -2.735835311628    6.177655931284    0.326711789954
H     -3.322983557636    5.582447801669    1.044428824257
H     -2.058891936445    6.834286941531    0.894254539979
C     -3.627282978459    6.951006407565   -0.621081629935
H     -4.291923628402    6.272125770255   -1.176978786069
H     -4.255135759506    7.653359347046   -0.051005041016
H     -3.032815522096    7.529349959696   -1.345729722408
C     -3.505379347326   -2.031057925228    1.479009389090
H     -3.434262756580   -1.949352386009    2.572503308808
H     -4.548166584302   -1.817713580363    1.195284108360
H     -3.253480604375   -3.053085457229    1.172568597035
C     -2.802646770401    0.898112240241    3.408957127406
H     -2.465249373803   -0.137767327661    3.598134972169
C     -1.569132857373    1.806730501856    3.490731693390
H     -1.116184314228    1.736644439207    4.492121273819
H     -0.795040832576    1.527533748639    2.759061742582
H     -1.827742135044    2.863689782269    3.318368824090
C     -3.842473282693    1.251936883565    4.479275701923
H     -4.243488198934    2.263180118257    4.322285013776
H     -4.694001385125    0.551547680739    4.464780525277
H     -3.385378076715    1.206116223590    5.480411940754
N      1.538474978746    1.075982916129    0.405041684163
C      1.055312928307    0.148994117224   -0.433353158326
C      1.855173507754   -0.927377767749   -0.899656338793
C      3.164726980606   -1.020432835038   -0.463270482033
C      3.671160706454   -0.048813598120    0.423537582846
C      2.803422038921    0.977665036962    0.816008826758
H      1.425957546663   -1.654964076168   -1.590548214856
H      3.808446707647   -1.835363398718   -0.798615862530
H      3.168409299545    1.750557267150    1.500157302103
C      5.058294462680   -0.056263688571    0.950508587436
O      5.513957950588    0.767736403147    1.710873197356
O      5.777356752541   -1.100614591602    0.483985657899
C      7.125975527428   -1.186896182874    0.938544648578
H      7.166107557858   -1.278132368785    2.034801691742
H      7.552266085489   -2.081064175271    0.466775704413
H      7.697155591883   -0.292454637957    0.646237151880
