65

C      1.514358537326    3.264000881434    1.855198177949
H      2.353446331642    3.036738446534   -2.000535215145
C     -0.345197408807    4.899684704887    0.003253551901
H     -1.025820351994    4.861533431331   -0.848091917089
H     -0.793531829355    4.842308651061    0.997738842508
C      0.964048074659    5.298302361011   -0.143020514093
H      1.566735112932    5.554299904157    0.729611994611
C      1.609902664958    5.740770451383   -1.420135533054
O      2.792805811807    5.982332326267   -1.500881615800
O      0.749302810658    5.865779793167   -2.440214980028
Pd     0.917316002070    3.033306027907   -0.045311455602
C     -2.156196918445    2.509491067613   -1.102270133885
O     -1.861771498423    1.937771957545    0.055539134967
O     -3.045679074429    3.321565303533   -1.212568316683
C     -1.306256292238    2.108533501555   -2.326620200302
H     -1.735595997488    2.711075243417   -3.142065574630
N      0.103590447201    2.504483441111   -2.123101973315
C      0.893605085174    2.605389902294   -3.130398282904
O      2.176208002777    2.942950123730   -2.957336406386
O     -0.057910019357    0.135192238351    0.143736571303
H     -1.119495657989    1.241040347156    0.035273968520
C      0.600095126709    2.868726041033    2.837800069184
C      0.920014913479    2.948695810768    4.204368763911
C      2.190341736363    3.436795356578    4.590531216874
C      3.091771867694    3.827039470404    3.592176827547
C      2.768528806134    3.747132294202    2.231341443592
H     -0.380995586624    2.477507457465    2.552516385911
H      4.076656516211    4.206341118461    3.881239452379
H      3.503558712105    4.069556398103    1.488517739399
C     -0.085556898796    2.510163019271    5.240500618692
H      0.307374434984    1.688840893648    5.863859313001
H     -0.341719635137    3.331714484176    5.931247248195
H     -1.016992443173    2.160440607218    4.772848449279
C      2.570477226363    3.534023525289    6.047717215741
H      1.882584495789    4.191217840512    6.606903882508
H      2.534876283357    2.549585047397    6.545007231770
H      3.587880966253    3.933199002314    6.169949687016
C      1.296593772106    6.331935576558   -3.691268019170
H      1.843430500685    7.269833932858   -3.506678792366
H      2.032839628478    5.592364650744   -4.044935561877
C      0.152665601185    6.523040229746   -4.664152056247
H     -0.571060315367    7.259355704406   -4.282920860996
H      0.540411886692    6.887476763943   -5.628067608927
H     -0.383577144145    5.578494075622   -4.844203679585
C      0.581973068220    2.386710064196   -4.583831062502
H      0.924247347266    1.384095469164   -4.886389289581
H     -0.488663827610    2.471863059502   -4.801011945727
H      1.142438597743    3.115957902247   -5.184795518130
C     -1.484040104996    0.617199075567   -2.652017949284
H     -0.977108419047    0.352491297830   -3.591503147225
H     -1.082683967988   -0.012376931740   -1.846882686043
H     -2.555448040272    0.394912876408   -2.775934191681
N      1.970145220828    1.201321715901    0.018769155250
C      1.195078232960    0.059370528319    0.100450762061
C      1.886373032349   -1.206462339797    0.129750344171
C      3.255249090968   -1.266465755490    0.101029928780
C      4.008642894398   -0.066030401132    0.041477130016
C      3.316153227058    1.129482794065    0.014880075996
H      1.267137916336   -2.102417735731    0.190070998223
H      3.767822649233   -2.231680257567    0.129584123247
H      3.859907156613    2.075689885845   -0.006782880126
C      5.505195981877   -0.106537600950    0.019182780405
F      6.009454161817   -0.700988562637    1.119687337494
F      5.970066454677   -0.811526261186   -1.034175149404
F      6.047007380320    1.123147878602   -0.054398102086
