44

C      2.586187245644    3.688315672800    1.846277851357
H      3.334037741062    2.894070031420    1.880783133001
H      1.928522522816    3.857860560500    2.702168681366
C      2.639048554584    4.670353332920    0.882284023299
H      2.032336570703    5.563859480582    1.020213017549
C      3.705726079380    4.769617290343   -0.163193327272
O      4.599561578523    3.969866360409   -0.340963049575
O      3.556617829710    5.886569160254   -0.879202804329
Pd     1.081440565306    3.147331931556    0.269809348386
C     -1.407222228142    3.177689678552   -1.194506758490
O     -0.398104732677    2.367586309081   -0.860925727998
O     -2.355164878202    2.813587552828   -1.840289367222
C     -1.193962096999    4.609453344076   -0.705340770553
H     -2.179319566226    5.017053165884   -0.443943001555
N     -0.260239780112    4.647119406140    0.409683556204
C     -0.456184258042    5.397041320905    1.527143566528
O      0.286581586550    5.357756487004    2.508777602093
O      0.075527611229    0.088944319326    0.053390718570
H     -0.289053703030    0.951268109977   -0.335449982543
C      4.524350575281    6.134640999656   -1.921311873970
H      5.528913212983    6.148100935905   -1.469275054661
H      4.498718769103    5.291069281614   -2.629710621615
C      4.174838754685    7.450124690447   -2.582489329255
H      4.200929023814    8.276619631992   -1.856065234565
H      4.900718298814    7.668871196742   -3.380735863045
H      3.170217454884    7.413837209810   -3.030765523951
C     -1.652068580948    6.353199651106    1.541909551543
H     -1.574127404676    6.952270647611    2.457018264497
H     -1.667611221435    7.020686635839    0.666682862238
H     -2.605726660447    5.801373609561    1.561301810622
H     -0.830179428049    5.195461224323   -1.573727551345
N      2.113882631063    1.220581099388    0.025833860028
C      1.383355990765    0.072384831508    0.063181825679
C      2.019186216466   -1.192513103098    0.132108581020
C      3.392686224482   -1.274535092278    0.094815107847
C      4.139189675613   -0.086195170980   -0.015833461378
C      3.462487980379    1.122978621971   -0.043747712298
H      1.378758289436   -2.072685201450    0.192989306519
H      3.895550688708   -2.242821761155    0.142361313724
H      4.020978407421    2.059004390923   -0.113239021125
C      5.639542477333   -0.133037234533   -0.133692699134
F      6.153542760893   -1.105093267295    0.644217018357
F      6.031442885435   -0.398606651102   -1.394303702314
F      6.210024004289    1.024818968684    0.226186083800
