71

C      1.605396112776    3.193489828711    1.829440434802
H      2.305935491944    2.938401600891   -1.839720072228
C     -0.402022938030    4.720093560605   -0.007334622684
H     -1.076078374380    4.682187362218   -0.864602149236
H     -0.853841363714    4.606418313796    0.980883427449
C      0.886348480640    5.184592212419   -0.132032699483
H      1.473486179389    5.431440701425    0.753168323173
C      1.501199756872    5.754047965203   -1.372356174018
O      2.654520696573    6.113532645698   -1.421308589073
O      0.633840002578    5.883538249932   -2.389856803102
Pd     0.913275851201    2.892339149461   -0.030965235742
C     -2.217235226980    2.432105993723   -1.380271637184
O     -2.055540637222    1.972858128048   -0.150911852165
O     -3.092233852518    3.228921474763   -1.640089828509
C     -1.277041665982    1.956952155744   -2.513403115508
H     -1.630046451693    2.563915748165   -3.359925664163
N      0.114895814437    2.329105215314   -2.200154909968
C      0.926080298661    2.718457280043   -3.119617016839
O      2.188797351319    3.041505674999   -2.808005909262
O     -0.260372343435    0.448243413707    0.841484205670
H     -1.282773525962    1.353590641425    0.067674154004
C      0.758341288176    2.864117778937    2.891415525898
C      1.168041684401    3.034854199285    4.225657089013
C      2.460899819544    3.540254706225    4.495141999214
C      3.297747100281    3.853479908218    3.416107979518
C      2.885891337667    3.685811308361    2.088056327455
H     -0.227664893908    2.436391657874    2.693505447649
H      4.301243973205    4.242510694636    3.614452658004
H      3.569332592532    3.951015995184    1.276919371459
C      0.232872975327    2.668061847798    5.351983649993
H      0.668179569021    1.891102423018    6.003564296500
H      0.017174546491    3.534769807370    6.000297830430
H     -0.724586982907    2.286860745478    4.969311283757
C      2.934951585973    3.734008156396    5.914792002043
H      2.285962209110    4.431828189777    6.471353203926
H      2.930185393701    2.786048880816    6.479819592545
H      3.958774666817    4.134757458644    5.943617128192
C      1.120769716889    6.561068085524   -3.565181859281
H      1.615116259581    7.493881197814   -3.252264823820
H      1.895492742554    5.934148997317   -4.036543577526
C     -0.054736669993    6.822043846086   -4.483054307793
H     -0.807341200881    7.453515057578   -3.987097723899
H      0.289014872480    7.342211562272   -5.390645753449
H     -0.544275797597    5.884472928488   -4.787529953392
C      0.689937074823    2.924624535441   -4.589726452463
H      1.180524005152    2.125825074511   -5.165075666721
H     -0.371675060778    2.947021453549   -4.851069822829
H      1.164011314187    3.870894465026   -4.882850049221
C     -1.546265797322    0.453322997567   -2.937627508940
C     -3.075454831264    0.242004073871   -2.961777165513
H     -3.306391003937   -0.752703275488   -3.374510125832
H     -3.510509112510    0.289933684676   -1.952422209438
H     -3.584945384484    0.995363573315   -3.583034382259
C     -1.009582965950    0.202107543297   -4.360540061487
H     -1.443226339835    0.894770480079   -5.099004666190
H      0.086788903883    0.274865890810   -4.407806783823
H     -1.273896345297   -0.819947484227   -4.674637059162
C     -0.903506329060   -0.584630342880   -2.007843999727
H      0.188851934081   -0.462140523606   -1.963661203065
H     -1.287822050874   -0.536029621422   -0.982353522694
H     -1.108823574375   -1.594979277061   -2.397332419269
N      1.842335422198    1.019083551218    0.173733764969
C      0.940504389396    0.100064596825    0.665830614651
C      1.436333434216   -1.216633812247    0.955867146594
C      2.763009614171   -1.526966391246    0.752353605216
C      3.654224981991   -0.548133027280    0.257376457440
C      3.144156329533    0.709076382428   -0.003050153256
H      0.721847171610   -1.941949356941    1.348081549665
H      3.128781009414   -2.532619700979    0.979776099843
H      4.711169923880   -0.759647424567    0.092403709475
H      3.793532149052    1.513798785923   -0.360277643864
