59

C     -0.760991904086    2.606859487948   -1.573246326251
H     -1.616453795750    3.068448604699   -2.071908284564
H     -0.187640445311    1.854052754760   -2.118460361342
C     -0.279093663016    3.143835163454   -0.400946761221
H      0.659603802678    2.807257393667    0.045642584956
C     -0.877576065175    4.353192919602    0.267196032906
O     -0.588923866385    4.684411977381    1.392170164089
O     -1.729032192921    5.000482360427   -0.531268496456
Pd    -1.604605166365    1.385301474355    0.095093540553
C     -4.054063560986    2.236250692731    1.240725729561
O     -3.105665096687    2.639587529741    0.423432469295
O     -5.022608520435    2.914811991562    1.511501380256
C     -3.837245193318    0.855815964131    1.893862014209
H     -4.810001538618    0.342595003012    1.884702587767
N     -2.849459049269    0.101958060773    1.106530713882
C     -2.865892173700   -1.192298836368    0.997938413121
O     -1.954765494963   -1.840154935659    0.319364327124
O     -0.217236947581   -0.072566889957   -0.335516591610
H     -1.226280715725   -1.212408118117   -0.016209470152
C     -2.558787567945    6.014038794494    0.071318665057
H     -3.267128306309    5.505138968995    0.744551054758
H     -1.924625768090    6.680155660887    0.676103237437
C     -3.276227955321    6.752631527412   -1.038178181850
H     -3.900879837641    6.063824553787   -1.627157377183
H     -3.931646679775    7.525574079677   -0.607487010258
H     -2.561895275439    7.244538105586   -1.716974367840
C     -3.928285879119   -2.073128277416    1.600644942677
H     -4.046725675419   -1.881626451502    2.676176300186
H     -4.900147860518   -1.882844969621    1.118148369622
H     -3.652066915275   -3.122605744471    1.444746775521
C     -3.342331558025    1.014208451933    3.353144400872
H     -3.153772493448    0.000161871092    3.751053037123
H     -2.358915462734    1.513607303966    3.320524021249
C     -4.266744558626    1.767233009367    4.328586571102
H     -4.373110595067    2.801165612061    3.961651915714
C     -3.608662074960    1.819645400452    5.713864756105
H     -2.606626724186    2.276236382878    5.669255874273
H     -4.215728107389    2.411783819191    6.417109563222
H     -3.495742514201    0.808137485969    6.142186938637
C     -5.674692368600    1.162832305878    4.401819115546
H     -6.273850058727    1.666314519161    5.177465010325
H     -6.211878510855    1.283844382740    3.449401245434
H     -5.641752540147    0.088516900474    4.659046465038
N      1.166462572697    0.712430727808    1.309103678318
C      0.928971885837   -0.145020907207    0.338085713626
C      1.869047453390   -1.182051914232   -0.032758669957
C      3.083319174173   -1.268247539952    0.715799018190
C      3.295202894070   -0.325506253246    1.764014134044
C      2.330516214472    0.623036869486    2.004690566899
C      1.631921463776   -2.089288130110   -1.095598084030
C      2.562956227581   -3.063398932812   -1.404020962949
C      3.763120177768   -3.159781072490   -0.659620646710
C      4.019590914616   -2.282161975282    0.375668074243
H      0.706699580890   -2.001594609425   -1.667304669785
H      2.376193316280   -3.760309901309   -2.224719533548
H      4.492923615273   -3.934182370937   -0.910418811437
H      4.949073351748   -2.354824530342    0.946564777571
H      4.210992204667   -0.356873342796    2.358130084050
H      2.464248410681    1.368268577209    2.795994623684
