68

C      2.440125444266    3.803883725604    1.407156044531
H      0.420545945897    1.872446873213   -2.580197890852
C      0.220696968223    5.306694905444    0.029944437843
H      1.028971686937    6.008546334038    0.243560563995
H     -0.219827621293    5.297505879233   -0.969699156841
C     -0.458922899295    4.685439842536    1.058207646681
H     -1.392319403981    4.165633908028    0.824767100585
C     -0.231663146810    4.929698175232    2.520154935345
O     -0.695974484393    4.226204919883    3.386464354752
O      0.498040380938    6.028724280874    2.753062951916
Pd     0.982127743289    3.227484343326    0.174192225659
C     -1.564187253570    2.866956359068   -1.774808263020
O     -0.439004405740    2.374077464268   -1.269028400160
O     -2.147976084559    3.824992814530   -1.303309147253
C     -2.103241484056    2.147017740714   -3.034773515626
H     -3.078958628012    2.631645118862   -3.202087220466
N     -1.331844696272    2.361219338293   -4.254314841919
C     -0.082623313249    2.154886498003   -4.407634152850
O      0.827427789586    1.786870042946   -3.479921850385
O      0.097404222805    0.158153667756   -0.053444219681
H     -0.278993386930    1.000030320708   -0.447372398510
C      2.546649454487    3.234682974795    2.681814622241
C      3.622572161022    3.534283131073    3.535023941727
C      4.623380569352    4.434388902045    3.097657417043
C      4.503290651020    5.000290608436    1.821656752299
C      3.426153214330    4.698429598268    0.977706038070
H      1.780364156998    2.540015679255    3.037155214407
H      5.271076341719    5.698719655230    1.474282041507
H      3.377165933187    5.165674676257   -0.009977717147
C      3.706640289096    2.892917024517    4.898890674134
H      4.625503563272    2.291762724252    5.009050067710
H      3.731178021101    3.647692000057    5.703507011937
H      2.847933805731    2.232215148957    5.085193969129
C      5.797637185747    4.775787641495    3.982221255007
H      5.474952750912    5.225771161487    4.936736344297
H      6.385602809040    3.879487692708    4.244583579696
H      6.476013872769    5.487810284292    3.489955515016
C      0.782519261783    6.340488172303    4.128925469439
H     -0.171111066237    6.448780081698    4.670506738309
H      1.318277940884    5.488832403377    4.577185379223
C      1.606381015422    7.610284748660    4.160673726720
H      1.059518231059    8.448078205602    3.701104377056
H      1.837166602488    7.880632602300    5.202937217017
H      2.555086757168    7.474884227180    3.619304403292
C      0.550711421720    2.307516257689   -5.765599843411
H     -0.206931673433    2.588429433403   -6.505912135224
H      1.344544739120    3.071549864317   -5.731286875934
H      1.030898333147    1.360078371268   -6.060882831590
C     -2.383026118317    0.640022540759   -2.766353449619
H     -1.412707631296    0.151650235555   -2.565646740424
C     -3.280905769966    0.449677839561   -1.536572658418
H     -3.472040980182   -0.620412642903   -1.357872782114
H     -2.836935720967    0.860202797805   -0.616157660404
H     -4.256117537029    0.944362222137   -1.681926964578
C     -3.008263892872   -0.028817107998   -3.996710519200
H     -3.990475412248    0.418248846937   -4.226923546054
H     -2.375162572610    0.086259914478   -4.887112990094
H     -3.163905420924   -1.104947935903   -3.815820121822
N      2.074751473271    1.366623955530   -0.131377909494
C      1.417247804883    0.185212469952   -0.103663025614
C      2.117072573324   -1.040677200046   -0.112887722618
C      3.497096905520   -1.031687651523   -0.208063428508
C      4.171818255284    0.196835606958   -0.293283293885
C      3.424167005838    1.360290437163   -0.241562567131
H      1.534476941486   -1.961289811673   -0.067931110497
H      4.051538995879   -1.973321239139   -0.229097337884
H      5.257147697863    0.251614131266   -0.384954181865
H      3.906037070017    2.337594379041   -0.268012360264
