56

H     -0.330993173618    0.628188397155    0.662217121206
C      2.043921287498    3.070027205646   -2.359970186647
H      2.840233831168    2.324002360293   -2.419097553955
H      2.316872763563    4.127129956841   -2.352068353930
C      0.741083817645    2.688683028957   -2.570218979041
H     -0.047439352565    3.433263278180   -2.702793827021
C      0.386335230737    1.268021089709   -2.897155418902
O      1.187223880973    0.368984819180   -3.014959451819
O     -0.933870567104    1.139530302324   -3.049618507337
Pd     1.023337136071    2.919274709829   -0.338846233791
C      0.245180697478    5.507225677358    0.466973566952
O      0.294511603863    4.750575941008   -0.615482489462
O      0.043303693941    6.700397030742    0.431504353733
C      0.495156845857    4.770253037832    1.803947077584
H     -0.327015978894    5.085885162922    2.463182591167
N      0.436263315126    3.323123804378    1.569299787485
C     -0.433120348394    2.520845128658    2.192596088710
O     -0.712055683823    1.359179357933    1.806932232361
O      0.017767536251   -0.084492830180   -0.040295237530
C     -1.443465677491   -0.188700643272   -3.283616205746
H     -0.896518772183   -0.633163311308   -4.130209947598
H     -1.228171443198   -0.792494816521   -2.387960066955
C     -2.928949541303   -0.079236790150   -3.553258357325
H     -3.126312902960    0.539989823809   -4.441922285766
H     -3.350194795916   -1.081138369979   -3.730003145731
H     -3.453305219364    0.368568891037   -2.695427905000
C     -1.170730818683    2.998895084307    3.436200414306
H     -1.612132506264    2.118323300001    3.918279545471
H     -0.524374107179    3.527771470672    4.147105393373
H     -1.989112645103    3.679613828374    3.148716025165
C      1.808194370071    5.293822218207    2.454465985883
H      1.674175585334    6.390029418437    2.462761075228
C      1.951024899882    4.813507003434    3.902872315473
H      2.856992347185    5.222568267323    4.374763278921
H      1.095692380911    5.133673595354    4.518995443093
H      2.017370727244    3.713878450235    3.951970995322
C      3.065499963304    4.990171047233    1.617171332286
H      3.283469759723    3.908877477092    1.677848367778
H      2.852322532435    5.204250539595    0.555882591844
C      4.308185770167    5.786707003539    2.025921124559
H      4.632564175384    5.558538877384    3.053508852373
H      5.157328455928    5.563209263838    1.360120242663
H      4.119950361853    6.871606911600    1.969166137245
N      1.986065384516    1.090580865293    0.018783806694
C      1.328399270806   -0.088013651721   -0.025774548404
C      2.034642194510   -1.324987196658   -0.062143584984
C      3.417974754545   -1.279525210760    0.018311957244
C      4.088922165362   -0.048877910445    0.131519745193
C      3.336454761009    1.108467946727    0.120165173221
H      3.987520846629   -2.213026246388    0.006311068206
H      5.175208108185    0.004602662904    0.213894537587
H      3.802921839914    2.094096470540    0.179091008853
C      1.250970452479   -2.600638146371   -0.175731202628
H      0.481404359413   -2.660934726320    0.609595202209
H      0.719311770076   -2.642886149745   -1.140796117125
H      1.908161987900   -3.478946617399   -0.103100237475
