60

C      2.879056993838    3.899948986352    0.835441900563
H      1.665682846746    5.226394330502    1.686575132655
Pd     1.212911201347    3.110106827482    0.042528387520
C     -1.518747518174    3.210445908533   -1.023894819609
O     -0.583597554562    2.343576487186   -0.743439108706
O     -2.649457663729    2.956382812511   -1.378567883029
C     -1.044600577559    4.685223223796   -0.941079325773
H     -1.927135154303    5.271728319450   -0.652375758106
N      0.031945540843    4.825014912338    0.052226663281
C      0.017031341850    5.783168738638    0.922923717483
O      0.968692770610    5.909683717857    1.829043629843
O      0.088626989158    0.123608551626    0.218676325984
H     -0.328965553491    0.974447222228   -0.146035918376
C      3.293467285587    3.560675616565    2.138666688695
C      4.478976326435    4.053858787705    2.711185733086
C      5.300804102087    4.920420803324    1.954322795226
C      4.894074264281    5.261275900406    0.656566326862
C      3.706039008176    4.771329807433    0.103368905297
H      2.678594084791    2.881768874516    2.738393218826
H      5.522235284444    5.933841051038    0.063792719668
H      3.431499971328    5.071809490304   -0.911879578278
C      4.866882563745    3.655811718106    4.114236787364
H      5.843338414536    3.142086261924    4.136320765529
H      4.962086055834    4.534315852250    4.775262824703
H      4.122396387514    2.980075873327    4.559512043365
C      6.583385130635    5.470537997513    2.527792871379
H      6.401928196669    6.060627543571    3.442593030976
H      7.283427867943    4.665566760642    2.810498108738
H      7.097321116956    6.122415757688    1.806340298274
C     -1.047972742255    6.840657523822    1.049750433231
H     -1.152648356591    7.410304765786    0.116153619850
H     -2.022311084497    6.382476927608    1.279881763797
H     -0.774204093010    7.523021910898    1.862978651344
C     -0.600228730838    5.139082969462   -2.357492090799
H      0.306578479602    4.576353054992   -2.631226956321
H     -1.401702147977    4.826426854798   -3.044251909495
C     -0.359505091018    6.625247436691   -2.493136564346
C     -1.421028807447    7.492993617233   -2.804562008811
C      0.912834837819    7.181620207801   -2.284256943132
C     -1.220211015540    8.872885971980   -2.895063716093
H     -2.417512402709    7.078033207911   -2.984161907137
C      1.118049984916    8.562326362467   -2.373061987592
H      1.754040957121    6.523854624873   -2.051650351784
C      0.051588012944    9.413251991887   -2.676273572988
H     -2.058640499502    9.528746627514   -3.144187891608
H      2.117255836903    8.973908692265   -2.208014760693
H      0.211264895735   10.492033518926   -2.749313495551
N      2.131993055172    1.205877651012   -0.069913770006
C      1.395617215918    0.078156363087    0.079815114827
C      2.000445734243   -1.213368113846    0.112897087210
C      3.371842739934   -1.290373634066   -0.071191967244
C      4.124540323545   -0.123801950065   -0.282060107601
C      3.470137498363    1.092117456591   -0.267324575125
H      3.861043449591   -2.268575594254   -0.063990958893
H      5.202376950891   -0.159581585798   -0.445817450382
H      4.013243953541    2.026010346734   -0.402941575128
C      1.122555341273   -2.415521115542    0.319736423081
H      0.583329580575   -2.353413298622    1.279006821441
H      0.348805310044   -2.476107440071   -0.462469688956
H      1.713242381062   -3.342785260244    0.307766077885
