60

C     -1.088559275668    2.906425399989   -1.803224560642
H     -2.029326653436    3.321841400185   -2.172266042892
H     -0.567634630891    2.176405919642   -2.426868247174
C     -0.459228568669    3.475235605222   -0.719148871146
H      0.544495784552    3.159796395002   -0.418539876938
C     -0.993566023428    4.669226945631    0.023479178908
O     -0.523376597936    5.047741398438    1.070982175416
O     -2.005038133951    5.257422369772   -0.619174194309
Pd    -1.602269032902    1.641086751599   -0.035818346347
C     -3.805589509647    2.436722348996    1.543623885291
O     -3.071513085977    2.837362417695    0.533214031590
O     -4.606451653590    3.153871880523    2.105789497618
C     -3.602134703544    0.978299091367    2.012072490711
H     -4.599509131555    0.514054850039    1.927510819060
N     -2.648122495734    0.290561506856    1.130641685131
C     -2.589871413737   -1.004866302575    1.017546953210
O     -1.721701158217   -1.593852230862    0.241561889591
O     -0.238981738904    0.235004241313   -0.656591995688
H     -1.075258346413   -0.919654122247   -0.188369419513
C     -2.762398171400    6.248003108500    0.104084882422
H     -3.325995585993    5.722808015706    0.892219404229
H     -2.063834782302    6.948715305934    0.586360005397
C     -3.685678771941    6.940275532036   -0.875730411051
H     -4.371246064244    6.218802410111   -1.345954254415
H     -4.291026745369    7.693748528415   -0.348094955534
H     -3.115962436383    7.448972278305   -1.669262023928
C     -3.481109634557   -1.973934189048    1.746686056322
H     -2.952807580989   -2.350743238022    2.637311360870
H     -4.431396021981   -1.531724161235    2.066799320186
H     -3.670592176467   -2.832413989648    1.088226256548
C     -3.203653534939    0.953363742135    3.511560734163
H     -3.958835809415    1.570285762595    4.023774635189
H     -3.314621172953   -0.074212323021    3.891125461101
C     -1.807398807067    1.455423474161    3.812666897975
C     -0.771006150156    0.554037119700    4.103341971204
C     -1.510450324431    2.828753728044    3.786417040200
C      0.528057015440    1.006277498779    4.351272738643
H     -0.984286622393   -0.518755722107    4.142767289807
C     -0.210753549543    3.283153273278    4.022081112697
H     -2.303176981592    3.550295168324    3.575906995775
C      0.812220176906    2.373673910893    4.306012951061
H      1.320926575925    0.287938764364    4.575344141975
H      0.000971458019    4.353004350075    3.967922439635
H      1.829681520838    2.728559725818    4.487953640278
N      1.616444827359    1.269549929777    0.220022675608
C      1.057768525834    0.223640629183   -0.345638125067
C      1.798919031561   -0.967323028251   -0.666818082119
C      3.134394449596   -1.014090033122   -0.365554904325
C      3.767554520791    0.102869398937    0.254481775421
C      2.944545128946    1.242488386685    0.529547748122
C      5.143358508873    0.133766979971    0.599103498502
C      5.692973511431    1.251927234836    1.196342035433
C      4.879771661091    2.378684294209    1.470579675023
C      3.536181405021    2.377690051831    1.147215377670
H      1.285006680851   -1.802338996440   -1.146460126687
H      3.724784155280   -1.905362532576   -0.597909045014
H      5.762153668103   -0.742172556444    0.383478164540
H      6.753452731826    1.270227034202    1.459135967792
H      5.322261630960    3.258481547832    1.945409752773
H      2.896220537164    3.236365010563    1.360988537130
