43

C      2.607451159253    3.699988822805    1.811187411705
H      3.359884935951    2.909658538491    1.831816732702
H      1.966927652859    3.867440711241    2.680278388498
C      2.638944673837    4.681408076064    0.845469539387
H      2.035947818344    5.575551218246    0.995088381946
C      3.680517061753    4.772230385429   -0.226115042144
O      4.529784028789    3.939169133391   -0.456475513144
O      3.561362925176    5.918792463797   -0.898773373333
Pd     1.085459280426    3.147636265958    0.257093411412
C     -1.421846669879    3.170255569411   -1.180134886118
O     -0.401773383074    2.365258469387   -0.862686989932
O     -2.378233893268    2.800042864705   -1.808633146015
C     -1.203370829554    4.602188426504   -0.694873049803
H     -2.185495139333    5.011573835634   -0.424745244235
N     -0.260215629318    4.639495384031    0.412434360249
C     -0.450325734907    5.380292097896    1.538051022144
O      0.299889697280    5.335702516751    2.512926485516
O      0.077909847751    0.084667875878   -0.001269719927
H     -0.283601399326    0.961287106888   -0.376035287785
C      4.513068226591    6.161401970605   -1.957783509512
H      5.528313558538    6.108312241739   -1.533640045767
H      4.427409311241    5.348274459208   -2.696402917839
C      4.211078388131    7.517119313478   -2.558144219249
H      4.297569994876    8.312299528210   -1.802031733060
H      4.925309466781    7.731658743975   -3.367927035708
H      3.194270164446    7.547181972004   -2.978617851461
C     -1.649409776292    6.331776082676    1.567929663679
H     -1.566059975455    6.925625334540    2.485947113368
H     -1.674431597054    7.004389516939    0.696915936149
H     -2.600669419638    5.776011562862    1.592129541329
H     -0.845796869172    5.187025285569   -1.566515563653
N      2.120927301807    1.206561941009    0.006314753653
C      1.380148391432    0.058688787401    0.035447903041
C      2.002439020066   -1.215261961658    0.117826481682
C      3.373592742826   -1.316386898687    0.100428986502
C      4.110771770514   -0.126404272591    0.001791729233
C      3.466296982371    1.099505261807   -0.041756279718
H      1.350356667441   -2.087540338035    0.166428145978
H      3.892967353762   -2.273905372923    0.144858412492
H      4.054111184304    2.018583577381   -0.118089469055
N      5.577334230312   -0.176513567312   -0.043718645348
O      6.181303901687    0.881317014502   -0.091618367679
O      6.093043073657   -1.283881205057   -0.026358819661
