84

C      1.634841394902    2.989908414610    2.078190058973
H      0.648623113440    4.475943831857   -2.876175710815
C      0.361079320424    5.196851477365    0.273136205705
H      0.198514396779    5.484694624504   -0.767908794383
H      1.159848191928    5.702997228542    0.821232283363
C     -0.580219015648    4.462346223607    0.964943485318
H     -0.510532535616    4.362843816074    2.049781435303
C     -1.919476366579    4.013586852648    0.451057774558
O     -2.664886182958    3.343559449945    1.127616233145
O     -2.191930298743    4.454801601696   -0.780607420908
Pd     1.000169388622    3.077805185136    0.182233967942
C     -0.463792030487    2.432068416714   -2.406709677964
O      0.466924802885    3.174132513921   -1.930872768842
O     -1.002127464815    1.497322528574   -1.783918645873
C     -0.909211982154    2.704203612063   -3.857365303824
H     -1.739143549160    2.001320569307   -4.022844290431
N     -1.426523791047    4.036223983676   -4.132318262599
C     -0.787789036030    5.128617834281   -3.958374248793
O      0.426040469557    5.297738510726   -3.394897452886
O      0.016435732707    0.134681393462    0.055284474461
H     -0.403330787807    0.816686756132   -0.614799608704
C      1.045341540594    2.085265968054    2.970693967736
C      1.476290311846    1.980249255875    4.303281729492
C      2.531783486219    2.806658349506    4.756819486774
C      3.112664813308    3.705733220217    3.854710136733
C      2.675726165423    3.807429920241    2.527026968433
H      0.228076244614    1.440326854508    2.634535610977
H      3.932034974446    4.346957768516    4.194421870034
H      3.169598288010    4.519269631101    1.860091544599
C      0.815506205060    0.993962134441    5.235150064229
H      1.539430340686    0.261181518725    5.631239752439
H      0.370187999843    1.497306037517    6.110408824414
H      0.016028718823    0.436199393031    4.726755530802
C      3.022643136703    2.722556744928    6.181454290967
H      2.219742006461    2.946193540685    6.904843250389
H      3.391326764736    1.711957372987    6.427913901780
H      3.843725713589    3.431166829253    6.364212197930
C     -3.457458670613    4.057915030429   -1.368965958732
H     -3.272372257599    4.102492371690   -2.450819368445
H     -3.661520441935    3.018798363197   -1.075345256920
C     -4.581650405029    4.987044705487   -0.946468249379
H     -4.350789214346    6.032010446716   -1.206768458509
H     -5.508402869503    4.702784380792   -1.470328117816
H     -4.768158007979    4.921382774246    0.135761696720
C     -1.382322207723    6.437298630841   -4.404398688453
H     -0.657180150229    6.981052933049   -5.030771454534
H     -2.306555097715    6.263829879178   -4.967198826728
H     -1.591167531859    7.074168074208   -3.528848550695
C      0.241957933228    2.287914573697   -4.820565104489
H      1.107026186140    2.947385526981   -4.654435846389
H      0.554451748553    1.268719662618   -4.537473068531
C     -0.149633267088    2.308555741444   -6.280657499186
C     -0.892189044085    1.254910644826   -6.838374658501
C      0.206860029553    3.382335218848   -7.110632525875
C     -1.272232265432    1.275400913487   -8.182440069765
H     -1.174006386358    0.404012501648   -6.210491229183
C     -0.169776019004    3.406779351094   -8.456673457980
H      0.790821079933    4.208446328184   -6.695272679610
C     -0.912427628875    2.353572746571   -8.997392586880
H     -1.848309075856    0.443683000206   -8.596963095155
H      0.119779801166    4.252649770318   -9.086067853035
H     -1.206573589600    2.370198323104  -10.050082984351
N      2.025372688207    1.217685470886   -0.124945047115
C      1.325113597120    0.107207677575    0.024804842356
C      1.971006063434   -1.184488478635    0.203559049117
C      3.386893899591   -1.261672365850    0.161880254071
C      4.136025138901   -0.041004005353   -0.104318413818
C      3.411731629505    1.174885948205   -0.246855873142
C      1.191189467741   -2.342083118207    0.418176973941
C      1.806022486695   -3.568218559881    0.610954783339
C      3.211198121762   -3.654804764830    0.584511860319
C      3.986562591590   -2.526377313740    0.362258120497
C      5.542636980391   -0.004008693958   -0.238002413829
C      6.213477222777    1.178976767406   -0.506759955381
C      5.488895767162    2.374853926452   -0.655584339681
C      4.109439340483    2.369885057569   -0.526212562667
H      0.105509044704   -2.242541351971    0.431412026008
H      1.204815896358   -4.464265960875    0.781260337305
H      3.698495335515   -4.621150094586    0.737560355616
H      5.072424807443   -2.624356255391    0.343947735071
H      6.116445451470   -0.925918064088   -0.134778393769
H      7.301084021092    1.179122019774   -0.608327374989
H      6.010059994029    3.309069135256   -0.877725583762
H      3.535665663301    3.291193260761   -0.649842496879
