62

C      2.795846758907    4.022981995585    0.871762117752
H      1.474010377476    5.243647389044    1.713461326374
Pd     1.177674652062    3.134648000819    0.084857793611
C     -1.536686240742    3.123617505450   -1.052091966879
O     -0.588472257310    2.294726800721   -0.698831143837
O     -2.656396401065    2.808002272115   -1.395477040628
C     -1.097126203404    4.612814455676   -1.039620176110
H     -1.995866132462    5.187512405198   -0.778355430018
N     -0.063984541311    4.797492525911   -0.002237130365
C     -0.188406176093    5.704031439569    0.913699223492
O      0.719267836240    5.863256640023    1.859651658927
O      0.127011790537    0.107550869350    0.254939508032
H     -0.306923685049    0.956406224496   -0.118047227479
C      3.241818568317    3.707545833664    2.170595686719
C      4.397625171364    4.276135042027    2.733347248553
C      5.152648831745    5.197135347120    1.971508318946
C      4.711042893647    5.516199013038    0.679942812930
C      3.553233406424    4.951222252611    0.135216191888
H      2.678416828531    2.988058087939    2.773747416210
H      5.288860075108    6.228830311852    0.083157381091
H      3.248130327572    5.238710522209   -0.874784470043
C      4.827016163932    3.897850732358    4.129624331004
H      5.833862609167    3.446246328691    4.135860859926
H      4.875650412809    4.777778077733    4.793794425016
H      4.132108038424    3.174891917495    4.581044924592
C      6.405889020901    5.822690687232    2.531586879967
H      6.202825404222    6.387987231645    3.457413856147
H      7.160427261529    5.059962405489    2.789789011226
H      6.864284537463    6.514693068407    1.810236226754
C     -1.339372040639    6.666434707470    1.059850381509
H     -1.417992921423    7.329637279639    0.187506787831
H     -2.292070933677    6.124880616486    1.158530325498
H     -1.177999452662    7.275058457765    1.957300950687
C     -0.657827939569    5.104362577765   -2.474347455016
C     -1.915470744031    5.146314330421   -3.365672092842
H     -1.644110078286    5.471004250698   -4.383089924662
H     -2.401548958400    4.163313881766   -3.426999238197
H     -2.659253103482    5.859565182496   -2.973333229853
C     -0.069490436752    6.524667721428   -2.383189018022
H     -0.797260633682    7.241753467579   -1.969722475317
H      0.840791425002    6.558134527926   -1.765413393158
H      0.198662609416    6.883064937459   -3.389801526622
C      0.384695070703    4.171685334193   -3.119067348547
H      1.296081538910    4.086677050575   -2.506128775053
H     -0.012663851814    3.157106758258   -3.270374898699
H      0.678849741370    4.567432531834   -4.104556391052
N      2.151758642271    1.251779485153    0.076989268259
C      1.430969567330    0.101011906003    0.207384486235
C      2.087056342033   -1.152658530148    0.311035975855
C      3.458887533358   -1.224867407806    0.214933740614
C      4.194499300197   -0.037396015324    0.016157669382
C      3.493706317269    1.162789818113   -0.036059086815
H      1.459943417621   -2.035030031634    0.441348309693
H      3.977687205589   -2.182539422205    0.276553845318
H      4.042960469674    2.094932577015   -0.162567495281
C      5.673120085628    0.004800319794   -0.131234879883
O      6.320701944838    1.009909609528   -0.313100580514
O      6.224371737165   -1.222447057903   -0.039392531265
C      7.643509271523   -1.287054139633   -0.173472488113
H      8.138167392244   -0.693125354399    0.610041590947
H      7.912399551248   -2.346030933641   -0.075577043390
H      7.962003241698   -0.900874702632   -1.153627796478
