71

C      1.371894251138    2.941194011065   -2.123830146019
H      0.039404790399    1.845246949978    2.190497084408
C      0.465009553068    5.270376798557   -0.381405787476
H      0.532850925781    5.664713736761    0.638703918397
H      1.171839544973    5.631405828209   -1.132522225365
C     -0.639761728000    4.541110167868   -0.778258393026
H     -0.803411035579    4.300887519993   -1.832275684901
C     -1.855121657558    4.290160366857    0.078938766314
O     -2.563895895180    3.316239987798   -0.049308640776
O     -2.060572096413    5.282854471850    0.936897637081
Pd     0.963395753468    3.125463462480   -0.176195033652
C      0.266091632441    3.974981991287    2.871241812708
O      0.686237128702    3.101896787505    1.979867769930
O      0.446872626066    5.177511193758    2.803282411057
C     -0.503077128776    3.343429672880    4.060949893140
H     -0.839121534457    4.209968501932    4.651737664955
N     -1.713830207663    2.617574429421    3.665805210726
C     -1.745723041445    1.613743667505    2.880226432199
O     -0.673871000189    1.087035058096    2.224750066678
O     -0.010236564607    0.032237520448   -0.077261065055
H     -0.415321803866    0.491607769139    0.720261159907
C      2.480375422947    3.604001371815   -2.665667060324
C      2.847011426884    3.447379432307   -4.014327062797
C      2.073178499918    2.605222609532   -4.845253188836
C      0.965622709993    1.949715245632   -4.290315990447
C      0.607503763434    2.106904784246   -2.945916779696
H      3.094674046419    4.259063565065   -2.039110547058
H      0.362452860528    1.293996355404   -4.925838886752
H     -0.259024290790    1.570005118908   -2.551534241657
C      4.051154565468    4.174534837481   -4.561295180095
H      4.803833114414    3.472807014174   -4.959721295121
H      3.778036911465    4.844231038083   -5.394698366236
H      4.539075768868    4.785026740221   -3.787500814866
C      2.429375559205    2.414204319481   -6.299288754561
H      2.413865768801    3.368660603397   -6.853072038273
H      3.444878952874    1.999610470176   -6.420795251995
H      1.727295726973    1.728882180865   -6.795986504477
C     -3.179784384503    5.189574199781    1.850545982419
H     -4.096062436630    5.023121905285    1.261567957545
H     -3.023515228113    4.314759752870    2.501122185000
C     -3.219143381980    6.478579864191    2.643274167027
H     -3.387867318176    7.347633710480    1.988205072641
H     -4.034726599917    6.436995011035    3.381872465852
H     -2.267706393363    6.623295046464    3.176940546731
C     -3.029683909846    0.903036294688    2.560783836523
H     -3.816104056975    1.203811652963    3.262987598812
H     -3.338868438801    1.167230134350    1.535605840639
H     -2.883821139272   -0.187831019097    2.600500799171
C      0.430206267339    2.503845609898    4.984717142881
H      0.694183473459    1.579049230824    4.441112318474
C      1.726020640434    3.263364604069    5.298714836618
H      2.356460253000    2.698645664036    6.002323974593
H      2.326245152869    3.442779740783    4.393880637163
H      1.508895624904    4.244361930093    5.753413081109
C     -0.326270188851    2.098898624150    6.266813922981
H     -0.475956887141    3.002551010181    6.886443049142
H     -1.334003496822    1.756274497292    5.984862422582
C      0.357343618420    1.010613513523    7.097563280677
H      1.347904508076    1.321737903320    7.466649763558
H     -0.249712212778    0.748180608282    7.978984604281
H      0.498955999284    0.088637438222    6.508317159914
N      1.977424699631    1.217290812388    0.069090812400
C      1.310281589461    0.053424959154   -0.047225601564
C      2.041115969202   -1.156399855856   -0.186237118445
C      3.428237039151   -1.141151784622   -0.152354290123
C      4.080524119815    0.085643542399    0.023992311074
C      3.322585835408    1.244422175488    0.126154228867
H      3.993156290231   -2.069208919860   -0.246012902525
H      3.802121975220    2.217716650842    0.238490334939
Cl     1.181266869574   -2.647109147325   -0.373939387787
Cl     5.815317104537    0.167969608945    0.096167503486
