59

C      0.991035775874    2.660980735698    3.002931240448
H      0.076547976047    3.255636674919    2.962894546983
Pd     1.141915922678    3.087993155958    0.571262437189
C      0.340692231860    5.730361505495    0.058138905831
O      0.572720189277    4.918511501568    1.070227617457
O      0.394366105265    6.937568149859    0.158959229262
C     -0.100598008395    5.036956006970   -1.242756359682
H      0.439178932606    5.529980264230   -2.070659460104
N      0.243152751152    3.606685051517   -1.173716657440
C     -0.087724909727    2.732687742883   -2.124285521211
O     -0.150001110347    1.490713441487   -1.941516826107
O      0.088400282526    0.156026152012    0.091378765615
H     -0.145022148098    0.844884504729   -0.695601698784
C      2.245176110667    3.297083783076    2.885268891430
C      3.449148190208    2.596417729416    3.133251465970
C      3.386021406343    1.233770398893    3.475267215342
C      2.124188552506    0.605190278626    3.568071314659
C      0.941043572676    1.296445708034    3.347971387360
H      2.275098634899    4.376209927446    2.721717031010
H      2.085434916404   -0.453476989858    3.839753991185
H     -0.022273221394    0.793033590762    3.451586730886
C      4.767974749320    3.323574104552    3.075854062482
H      5.276290797105    3.307668167643    4.055216737914
H      5.456947339343    2.858771417168    2.352322721184
H      4.631566688033    4.374651585151    2.784598265492
C      4.643239236955    0.452523669100    3.763070422859
H      5.322609552430    0.447911920755    2.894433508168
H      5.208106595013    0.892284535389    4.602482160179
H      4.416946962405   -0.591963134843    4.021052957187
C     -0.363447123315    3.190827599717   -3.549132102992
H     -1.408510019337    2.970487453435   -3.814131272315
H     -0.152258774246    4.249481974045   -3.740555968274
H      0.267295078046    2.569781694332   -4.203015079948
C     -1.633832468505    5.292881987657   -1.438127640115
H     -1.951138958374    4.629851961413   -2.257965897992
C     -2.461610071442    4.912389610663   -0.203169865747
H     -3.537307261211    4.965560718194   -0.435261520050
H     -2.238413267711    3.888606830313    0.134058997083
H     -2.268636633508    5.597558067002    0.637712371095
C     -1.912075208542    6.732338320188   -1.888530604887
H     -1.581248363919    7.455916869538   -1.130289672335
H     -1.383208319869    6.969114508111   -2.826919943402
H     -2.990366025940    6.874283156239   -2.066605208805
N      2.076714226123    1.269866653329    0.042205610485
C      1.391258972046    0.122300039710    0.116328331006
C      2.064538261711   -1.141165600427    0.187973773543
C      3.422857617709   -1.189470790524    0.053474559064
C      4.161631256120    0.011528769082   -0.167316431599
C      3.441357306073    1.246675864061   -0.167941652761
C      5.561192397329    0.019387103561   -0.394427047333
C      6.234689124702    1.202955678299   -0.630443984116
C      5.518715217079    2.421239893536   -0.643153856780
C      4.154660293011    2.447205840621   -0.411674985500
H      1.446929842490   -2.032522617366    0.303287806120
H      3.953296033998   -2.145484886015    0.079490853543
H      6.096650179983   -0.933990880506   -0.391429240221
H      7.311308856289    1.199151942420   -0.814833002270
H      6.046139111857    3.357272878397   -0.843229435912
H      3.604451270157    3.390076530872   -0.428439033068
