56

C      2.610487447650    3.695841505868    1.876907448655
H      3.362385072467    2.905348783831    1.909363598251
H      1.928712621224    3.837720241353    2.718425027871
C      2.674074223691    4.688707515372    0.927067133945
H      2.052215735582    5.573395887396    1.053979925687
C      3.775763248494    4.811777793092   -0.077345038273
O      4.685811853213    4.025973443138   -0.237898261515
O      3.642767521474    5.941805663462   -0.780513366346
Pd     1.103198897506    3.167246134387    0.290861596855
C     -1.420213965015    3.154281034066   -1.104781523861
O     -0.431566456444    2.343685521223   -0.722552719259
O     -2.420006444347    2.741883165817   -1.641370368287
C     -1.130136371917    4.637335912140   -0.819735208805
H     -2.094848767866    5.082255898296   -0.541368091663
N     -0.205253798727    4.713871768612    0.312513609428
C     -0.509552518769    5.329088168607    1.490028067235
O      0.210970372423    5.253022055820    2.487793401050
O      0.071843489949    0.133322090373    0.416405059810
H     -0.320115751556    0.947734349164   -0.023651730408
C      4.642221508241    6.216804178521   -1.783284756859
H      5.633884068907    6.201821895590   -1.303695053831
H      4.627250177345    5.401004491233   -2.524091016793
C      4.325797938296    7.559762415980   -2.405345796335
H      4.344864913821    8.359282547123   -1.649105518376
H      5.073059624594    7.797167305598   -3.178205700218
H      3.331183826886    7.552670084529   -2.876357185331
C     -1.790115613055    6.162966687061    1.580518225870
H     -1.777946393267    6.663250442907    2.556274333408
H     -1.868190988083    6.917147881554    0.785058744939
H     -2.683651856754    5.520375531398    1.524595506967
C     -0.661852946775    5.399688082832   -2.122332514276
C     -1.848536122351    5.466512557652   -3.103667585670
H     -1.551005681990    5.997368761132   -4.022669504665
H     -2.208253806405    4.465655878340   -3.379450266590
H     -2.698133276271    6.013746155705   -2.662536417842
C     -0.240470328282    6.831532638842   -1.748233314837
H     -1.069723243027    7.391169306177   -1.286448558384
H      0.609946503145    6.834849369970   -1.051188239596
H      0.059764402680    7.383547273257   -2.653971003031
C      0.523258194635    4.694293059651   -2.807049061566
H      1.397279953101    4.635094409009   -2.139822649460
H      0.266969470349    3.673666950427   -3.130575859383
H      0.829948742201    5.258779452232   -3.702807990535
N      2.101151667922    1.244672988323    0.124317151605
C      1.382202750232    0.107567157323    0.281805353437
C      2.029737396447   -1.148259410453    0.324973221888
C      3.396978751616   -1.222506482283    0.150978608917
C      4.145306520629   -0.048783589945   -0.076667772819
C      3.440425541013    1.147690147830   -0.074687590590
H      1.407414729446   -2.030920902168    0.476384293467
H      3.896459802137   -2.195619087103    0.175232104110
H      3.973218783712    2.088162155447   -0.222487263687
C      5.634745419454   -0.078248215744   -0.306101583856
H      6.044920015485    0.937835096634   -0.397418114252
H      6.158112680723   -0.582249998320    0.523238939121
H      5.886638083580   -0.628004687187   -1.228693798935
