75

C      1.417011284672    3.129205805893   -2.379676944946
H     -0.459536388675    1.539023010259    1.969875886960
C      0.306059952632    5.262884694271   -0.567518631113
H      0.371085515891    5.581718549025    0.477606215916
H      1.022583988063    5.671295557034   -1.283756084063
C     -0.796281296727    4.564327245881   -1.023239467534
H     -0.950160725721    4.392383332975   -2.092037351399
C     -2.024276798608    4.273781036413   -0.201210937841
O     -2.833422114435    3.426079624126   -0.499919855619
O     -2.125899514922    5.092554986555    0.847071749010
Pd     0.774944809731    3.100394118933   -0.491595314016
C      0.128892842966    3.667729203729    2.585721746098
O      0.136664102852    2.833915232473    1.577416577425
O      0.583019696761    4.802128538122    2.558269091801
C     -0.465894081973    3.107890784297    3.906834329226
H     -0.669310771582    4.007831326035    4.503486049257
N     -1.731646058247    2.375362609836    3.839610164032
C     -1.924792410849    1.312373398409    3.162114501445
O     -1.053581601353    0.759753913606    2.281698358397
O     -0.204316655565    0.315581094291   -0.184783448210
H     -0.736870566942    0.031062970190    0.593335600087
C      2.590080797927    3.812142014032   -2.727443267456
C      3.097069946752    3.793966575917   -4.038954674650
C      2.403205463079    3.070945165036   -5.035930703473
C      1.230523457509    2.392333972440   -4.677033955270
C      0.733492674379    2.413059826025   -3.368441025576
H      3.141015141273    4.380711661152   -1.970585301765
H      0.687840087922    1.828467392434   -5.442294373975
H     -0.181459927334    1.863799216151   -3.130347140551
C      4.364359169770    4.543367090380   -4.372313215185
H      5.144175687143    3.870222928699   -4.768347611973
H      4.192577698783    5.309742945729   -5.147599608092
H      4.776825261247    5.050114949932   -3.487509882953
C      2.910386760171    3.029853688950   -6.456971003036
H      2.971336100856    4.039010476982   -6.899772758357
H      3.925586813949    2.601017888774   -6.518070550931
H      2.253435126052    2.424034145035   -7.098063188271
C     -3.241459737609    4.920810783022    1.746621855527
H     -4.158540014037    4.791175886194    1.151039584700
H     -3.078622483037    4.001108379612    2.331178685973
C     -3.293583767348    6.139527164310    2.644068113295
H     -3.476044223579    7.056533450520    2.062079141514
H     -4.104438163940    6.027087420826    3.380450091971
H     -2.343242264570    6.256057214396    3.186630649965
C     -3.211323037436    0.541029891394    3.269314145602
H     -3.839671477198    0.958249991985    4.064743037131
H     -3.752765132826    0.577846788256    2.309293797479
H     -2.996195111801   -0.519335750496    3.480355079497
C      0.596660148532    2.270241985992    4.664746723102
H      0.129385511853    1.957451499923    5.615587657329
H      0.784382609522    1.345337465856    4.093996098178
C      1.943655281859    2.954977681985    4.964147954774
H      2.423648932697    3.202328986940    3.999783291973
C      2.867011725326    1.975228908347    5.701655103514
H      3.003891333430    1.040667684970    5.132252176299
H      3.863562974789    2.414830946565    5.871423779261
H      2.451115423842    1.704267762139    6.687780973426
C      1.788894858427    4.265898080431    5.746229606228
H      2.774956554360    4.678063614521    6.017219367252
H      1.266025272944    5.025590269073    5.147853661616
H      1.226626767062    4.106622350999    6.683385474505
N      1.862376505456    1.263301848197   -0.207554890752
C      1.100921319435    0.204691363305    0.063879592299
C      1.662962293469   -0.998874334314    0.573582776603
C      3.043983379639   -1.061566091190    0.740959733202
C      3.825863784865    0.054953853918    0.400452242658
C      3.204607157440    1.197420744372   -0.073320715569
H      3.520714248749   -1.966151809622    1.119967674675
H      4.910908731632    0.028216710464    0.511212294707
H      3.765633568155    2.092198740495   -0.346840665694
O      0.774599450767   -1.976281930816    0.837159714937
C      1.234128004244   -3.191020279008    1.396904046889
H      1.729227561139   -3.025787533910    2.369917575261
H      0.346853253867   -3.818939851517    1.546832417812
H      1.933045954541   -3.710539952617    0.717737003169
