75

C      1.364917832770    2.830384194185   -2.084978872829
H     -0.019114524435    1.833542828855    2.242123187011
C      0.542741459024    5.220494108951   -0.367653891581
H      0.622582971761    5.624741532564    0.647430376245
H      1.267513700026    5.545082044318   -1.118206644963
C     -0.586358475856    4.530007455089   -0.762477747725
H     -0.753319726849    4.283796789068   -1.814450260666
C     -1.815409885064    4.335752778660    0.088217212339
O     -2.575112232628    3.402397338075   -0.050980948665
O     -1.973464177658    5.330578343665    0.955253007114
Pd     0.960611256195    3.057306465474   -0.141323230466
C      0.280480901505    3.978042067776    2.895898319096
O      0.647253967234    3.089274373417    2.007649109286
O      0.545925333956    5.167050586095    2.854448631523
C     -0.545344603365    3.387565294404    4.080079986455
H     -0.873989994050    4.279061279908    4.637428747457
N     -1.762301902084    2.682526075091    3.688917623392
C     -1.817584786008    1.679932925241    2.900393694538
O     -0.765505072286    1.113202908071    2.260068081005
O     -0.056316323892   -0.046653485087   -0.009701728923
H     -0.463862769147    0.489945794421    0.728680561477
C      2.489287219400    3.455042846424   -2.639518441560
C      2.841123641480    3.280774521071   -3.989776436772
C      2.036596337683    2.458374868925   -4.810959625303
C      0.914236944357    1.839317102441   -4.244239220136
C      0.571494947639    2.014409467224   -2.898203301563
H      3.128840715115    4.092813594300   -2.020539827763
H      0.287198417015    1.198370616438   -4.871809975233
H     -0.307482060927    1.505061098062   -2.495053840297
C      4.063221022105    3.967936043251   -4.548859164140
H      4.791826960443    3.241545331236   -4.948072188994
H      3.805601905157    4.641242282225   -5.384370933418
H      4.574406274293    4.567565499825   -3.781530517554
C      2.376535647563    2.248851716371   -6.266430552342
H      2.386915154412    3.200227602298   -6.825738286081
H      3.377673086606    1.801879635506   -6.392952639805
H      1.649904056341    1.583088114275   -6.754508023335
C     -3.108827888357    5.295248438487    1.852104349046
H     -4.023761589028    5.174799112396    1.249990703453
H     -3.007541968780    4.414629979255    2.505679840507
C     -3.094684374954    6.585938202023    2.643285747158
H     -3.212172858104    7.461081750478    1.985148150873
H     -3.920274233294    6.585897976891    3.371870600754
H     -2.143918743160    6.685672276839    3.188419595506
C     -3.126473402815    1.018753729624    2.572716920394
H     -3.903363507291    1.342569968065    3.275270784915
H     -3.422035144072    1.304586546343    1.549341540403
H     -3.020606654247   -0.076908496065    2.602059712245
C      0.374902575531    2.603919966824    5.028010629961
C      0.006476035645    1.371260267671    5.580914509718
C      0.854004720374    0.707160905753    6.475029496317
C      2.080772834876    1.267955115100    6.834908533567
C      2.452905667547    2.504737228159    6.296531075102
C      1.607150208136    3.166635951593    5.405209751885
H     -0.956203287996    0.929869614156    5.320350697385
H      0.547467899402   -0.255165756632    6.894115288344
H      2.742449200753    0.748191403373    7.532798294054
H      3.408223166958    2.958698561093    6.573811328137
H      1.902089348939    4.136390610652    4.995376090926
N      1.916912488143    1.144413173143    0.136963423017
C      1.270409045722   -0.010876335823    0.014079759914
C      1.976111079348   -1.255233847001   -0.136961989725
C      3.402243735048   -1.235719575880   -0.107920073604
C      4.046789683136    0.020947352067    0.084517294325
C      3.287776549415    1.152856421993    0.197700917742
C      1.286314821419   -2.483249282305   -0.298848805320
C      1.996555381864   -3.659097102623   -0.444182787422
C      3.412133855828   -3.645062565554   -0.423238523859
C      4.103456010568   -2.460487263721   -0.255819890308
H      0.196012532183   -2.473557107242   -0.307703407645
H      1.466679777010   -4.605869036494   -0.572140680591
H      3.961484152475   -4.583135258299   -0.537057309937
H      5.196011590375   -2.452215402034   -0.234616478952
H      5.135076016194    0.084141864658    0.136224604335
H      3.748268452423    2.132603962482    0.333949509394
