54

C      2.563145691094    3.690444309245    1.834149993613
H      3.319803258520    2.906410035283    1.899608994176
H      1.868191347657    3.844907122117    2.662914734589
C      2.644491980425    4.677110302720    0.877613514483
H      2.022006298354    5.561360702383    1.002549594135
C      3.767271749058    4.807746124940   -0.103271241614
O      4.610835228959    3.968899301486   -0.335833284628
O      3.740217409215    6.010647485562   -0.682908027914
Pd     1.120303165564    3.118363825770    0.215775296752
C     -1.375877423091    3.004545215099   -1.223111877964
O     -0.331072715501    2.254629613374   -0.878470995683
O     -2.347343360393    2.556173500449   -1.777712106997
C     -1.201347439568    4.491615219977   -0.860649928169
H     -2.199680844996    4.806927127620   -0.523727832794
N     -0.245824666985    4.611754063820    0.236076997012
C     -0.487220511990    5.390684848254    1.328842027269
O      0.223484052439    5.380706722291    2.334116142013
O      0.157505233597    0.044395204648    0.205018960829
H     -0.218028076301    0.872045778374   -0.239441857089
C      4.787253784900    6.307078913530   -1.633002448811
H      5.757336867874    6.070161452892   -1.169298174296
H      4.667478580379    5.637135592718   -2.499808303020
C      4.676370925526    7.766288459396   -2.017459904800
H      4.791440638140    8.416733869827   -1.137096256345
H      5.466867181182    8.019879647345   -2.740422924263
H      3.702900982895    7.982305600874   -2.483067975656
C     -1.686139992111    6.340163947010    1.278582416119
H     -1.590849416829    7.025243937604    2.129680752459
H     -1.734167219591    6.915236559915    0.342213468219
H     -2.631652412376    5.783771945138    1.385197738183
C     -0.869798735335    5.310067558924   -2.117353637249
C      0.273845878589    6.114128120893   -2.196645335687
C      0.532337779895    6.867437788013   -3.348236310760
C     -0.345569877339    6.825622667408   -4.432631513747
C     -1.489307310327    6.022677228993   -4.359655686660
C     -1.750767836538    5.272388404089   -3.212321454948
H      0.965602393380    6.154912304861   -1.354794441863
H      1.426876467252    7.494406673602   -3.392523338402
H     -0.142742931200    7.415714781885   -5.330019905785
H     -2.184474786205    5.981036084087   -5.202272731767
H     -2.637517727217    4.636649417740   -3.162955019984
N      2.178845622579    1.196799141398    0.076245705354
C      1.466564217204    0.043010858820    0.187448955695
C      2.121073317408   -1.207901971962    0.306654115338
C      3.494752035519   -1.272640268766    0.242595808427
C      4.221152860985   -0.081508896829    0.055411013104
C      3.527041757034    1.116024367322   -0.017584242547
H      1.495231577557   -2.092630079440    0.425452286906
H      4.012475544628   -2.230609311756    0.327051621239
H      4.067042767069    2.057563948678   -0.139717698074
C      5.719317718141   -0.117256262218   -0.090771432617
F      6.264545704954   -1.009170625579    0.758979931502
F      6.088177486822   -0.489995700966   -1.330908488637
F      6.279349656827    1.075304313250    0.151937698445
