61

C      1.625626095041    3.340827806381    1.853304790522
H      2.893207840543    3.855492407921   -2.428382957143
C     -0.073343625741    5.093052454897    0.213022776281
H     -0.936917516090    5.039674988750   -0.454873312293
H     -0.265816327035    5.076923815948    1.286647057411
C      1.168554516917    5.436692582821   -0.271210750169
H      1.991490506063    5.695570159403    0.400615246063
C      1.413397581515    5.775355384856   -1.708768482473
O      2.474796717386    5.559167116869   -2.272432574875
O      0.363826672146    6.329412452174   -2.288000749576
Pd     1.160799409857    3.213900445103   -0.090057628584
C     -1.664337080954    2.961033792150   -1.820132288310
O     -1.857946861920    2.464698688418   -0.609794244106
O     -2.255166807695    3.939003310073   -2.223187154786
C     -0.592175693170    2.265824300733   -2.666353214748
H     -0.833781730734    2.479385062279   -3.718545315818
N      0.735038421940    2.786244951790   -2.312798912981
C      1.722882914328    2.482996139189   -3.089743711723
O      2.932406367597    2.994616962122   -2.913596388173
O     -0.310897005463    0.459974214155   -0.167180737094
H     -1.252760626338    1.677828285600   -0.414380187874
C      0.721390543046    2.873854323887    2.814641886206
C      1.027264165267    2.909234409312    4.185239929639
C      2.278284498994    3.423580877683    4.602750284511
C      3.174458375048    3.879357293429    3.628903974853
C      2.862611780655    3.844211079608    2.262625353383
H     -0.242522642510    2.459383998949    2.504960819903
H      4.147131646535    4.271923664553    3.940520319321
H      3.602339411959    4.201745898145    1.540197758669
C      0.030620645236    2.394950073178    5.194800694176
H      0.447734080759    1.563713171504    5.788516503079
H     -0.258977707514    3.178761323412    5.915483481238
H     -0.885040999964    2.032080726538    4.706276377978
C      2.643846354187    3.474105171600    6.065922251951
H      1.930863408880    4.086037397398    6.644665617807
H      2.636304552701    2.469810606838    6.522993095792
H      3.646922107252    3.900083539660    6.213027615234
C      0.396472685572    6.576655475603   -3.713675534789
H      1.021214446915    7.467060911082   -3.891525510300
H      0.891376673100    5.723543676425   -4.201724223976
C     -1.033152554742    6.760958973127   -4.175934320079
H     -1.492230955274    7.639539356577   -3.697564212580
H     -1.054772722758    6.911848028304   -5.266542416553
H     -1.632797589570    5.874307672611   -3.920015867369
C      1.647520957903    1.529843162103   -4.250145572834
H      1.159757496283    0.588185935796   -3.958129485483
H      1.050385339094    1.970069162764   -5.065715455399
H      2.657043351708    1.326943110743   -4.627014342843
H     -0.638884565975    1.176159540996   -2.502188989736
N      1.849942927108    1.219427517454    0.039790224601
C      0.905904246149    0.198649768873   -0.034444603406
C      1.392379975242   -1.160163894490    0.040977803833
C      2.726863027830   -1.434334263394    0.185573899877
C      3.631757234775   -0.351666967251    0.262715028251
C      3.151768363495    0.946838737829    0.197618763931
H      0.641963625674   -1.949797191015   -0.015591317245
H      3.110728348794   -2.453344955973    0.246706296511
H      3.850570113306    1.779892758469    0.279786894120
N      5.057965180048   -0.581241610163    0.420356006999
O      5.795407398579    0.395255902161    0.480608303383
O      5.438034514858   -1.743471683377    0.481441190199
