62

C      1.108081587756    2.693456373450    2.986749736301
H      0.216512123771    3.323031319122    2.996952330465
Pd     1.147443199598    3.080692439042    0.562236372995
C      0.359248436759    5.737887409851    0.077056379824
O      0.632476645090    4.921851280457    1.073928665656
O      0.410130172119    6.944884458051    0.183589721507
C     -0.123071105699    5.053035549737   -1.213239645684
H      0.402703054749    5.544453084135   -2.050308112097
N      0.206429142155    3.616725092600   -1.165447314085
C     -0.122431435729    2.779057810015   -2.143984835556
O     -0.180842826645    1.526044742877   -2.010222392738
O      0.045481283937    0.138912724132   -0.048993392435
H     -0.171278207022    0.869108449718   -0.846714285227
C      2.376200074166    3.279121152013    2.783525956478
C      3.565337297280    2.533793146059    2.968115785871
C      3.471772876149    1.182929995856    3.346089710375
C      2.194697432182    0.603388258841    3.520772451238
C      1.028077147358    1.334992474155    3.353125720056
H      2.437484156270    4.354619263371    2.604986015374
H      2.132608293450   -0.448740412231    3.812309979080
H      0.054085893114    0.870143551611    3.519532606336
C      4.905185479354    3.201623638180    2.791874903356
H      5.492479825270    3.182086077462    3.725663845015
H      5.517464515293    2.689831930456    2.029800009208
H      4.792533525675    4.251654967343    2.486914889027
C      4.712603862615    0.360429250883    3.581508511945
H      5.334839335393    0.303736509698    2.672876229962
H      5.344559372126    0.800364316005    4.371443258132
H      4.463033247622   -0.667172418373    3.881353494033
C     -0.412479587022    3.275992179498   -3.551710787074
H     -1.460972971505    3.064484394034   -3.810164622159
H     -0.202619860455    4.339003301894   -3.716587168604
H      0.209086951747    2.671648331934   -4.229449715231
C     -1.658299664644    5.322767575162   -1.372441204385
H     -2.004960599858    4.650926189639   -2.174772320954
C     -2.444649151087    4.956024933191   -0.105761250549
H     -3.527684877942    4.961129938584   -0.299776665981
H     -2.176483321677    3.949435022532    0.249315698600
H     -2.246426409553    5.668956403519    0.710723617090
C     -1.920992719147    6.762339362249   -1.856489690259
H     -1.555096828739    7.469829756644   -1.096547410695
H     -1.300713132142    6.943892322331   -2.753198544049
C     -3.382554964305    7.057786861100   -2.200593595189
H     -4.036115894223    7.008160643693   -1.315446594208
H     -3.486380465449    8.069905148853   -2.623259195892
H     -3.778828539667    6.346003071848   -2.945694961416
N      2.025503165589    1.256924054699    0.032882113044
C      1.342283301206    0.103759234268    0.004709889840
C      2.039442207257   -1.162907607242   -0.009875871572
C      3.461797963508   -1.165776896549   -0.099903799432
C      4.127829850170    0.095585793478   -0.174226825537
C      3.391106476830    1.245369909353   -0.092755204093
C      1.326670596780   -2.385002514011    0.029301292476
C      2.011156660476   -3.586455176245    0.003708834270
C      3.423438474185   -3.597086545794   -0.076680087318
C      4.136665622818   -2.413309575145   -0.132359015071
H      0.237420252980   -2.348796174021    0.077985834292
H      1.462944423916   -4.530921588802    0.037679502202
H      3.954631881619   -4.552220344777   -0.101437088111
H      5.227351998478   -2.425917398834   -0.203752117469
H      5.211997161905    0.145543279386   -0.289670252925
H      3.866870921810    2.227199384267   -0.127285928942
