57

C     -0.606259060152    2.865953928240   -1.385318393823
H     -1.446817772270    3.298429024173   -1.933327783105
H      0.054923064774    2.176025287653   -1.914689831190
C     -0.247099384435    3.367854028646   -0.155622389448
H      0.673391608153    3.030632658973    0.333044719616
C     -0.965872019505    4.499459616957    0.526295363710
O     -0.804450276280    4.762102638074    1.694723421818
O     -1.766658417657    5.168460236808   -0.306959666105
Pd    -1.496016838260    1.507100943111    0.153424392078
C     -4.040070660097    2.220258904835    1.175934785351
O     -3.068413661039    2.682662343227    0.420024531079
O     -5.049135977236    2.852343605725    1.410317800615
C     -3.800407759329    0.833330694263    1.804904113219
H     -4.749148603139    0.282851444150    1.726321126300
N     -2.737315180109    0.140578664966    1.060319003791
C     -2.706900334389   -1.152517882254    0.915289412149
O     -1.741305334532   -1.763208903884    0.288692219674
O     -0.070112340736    0.086913967327   -0.213728081194
H     -0.989567369121   -1.123662043405    0.011448682594
C     -2.694110780834    6.103145662997    0.279238500108
H     -3.436228718589    5.521191184217    0.849213321903
H     -2.150122869854    6.751709655112    0.982996312163
C     -3.341250278020    6.886928052340   -0.842610943650
H     -3.875962148667    6.215689549631   -1.531927636164
H     -4.069087746748    7.600965659321   -0.426682617387
H     -2.591672729849    7.453112692960   -1.417611494003
C     -3.786510657816   -2.073038085178    1.425625943006
H     -3.969700400877   -1.924106176220    2.498961013383
H     -4.733561268020   -1.883979131578    0.895973137344
H     -3.479755618267   -3.110586146347    1.248662928240
C     -3.401289584983    0.972655117852    3.295167330410
H     -3.188161751713   -0.042740886412    3.677097567618
H     -2.443151663716    1.518844860225    3.335352914504
C     -4.415566077859    1.654326555209    4.233111670769
H     -4.549391467628    2.692120097729    3.886862304285
C     -3.842722818154    1.697807095257    5.656061282967
H     -2.863059452362    2.201922092993    5.683020108082
H     -4.517508036027    2.240728775588    6.336982865892
H     -3.706285880888    0.680850335202    6.064319793260
C     -5.795054683702    0.984118279187    4.206820373049
H     -6.461716393786    1.437398392909    4.957997519007
H     -6.280636367702    1.107468467876    3.227382513832
H     -5.726394320447   -0.094484252462    4.437744626643
N      1.777271916566    1.116319563471    0.722795009618
C      1.188726895849    0.048106362829    0.206235453694
C      1.894160052596   -1.193654549302    0.061755318987
C      3.218305439468   -1.254810188719    0.476041209456
C      3.820219339291   -0.104103418915    1.020452233605
C      3.060235806813    1.049962056137    1.121332304264
H      3.789871893243   -2.179557168812    0.385172978905
H      4.858841376159   -0.122952897650    1.356122175202
H      3.484648765949    1.967957870909    1.541800347317
O      1.178811028466   -2.213252112001   -0.475556217280
C      1.785334546967   -3.478414217406   -0.605308120823
H      2.107872666788   -3.880820116979    0.372499373900
H      1.027294224536   -4.146961470246   -1.034361372138
H      2.659721242780   -3.446256546475   -1.280696210112
