56

C      1.147532857745    2.717398047054    2.994227503880
H      0.258448515436    3.349319567098    3.036653651893
Pd     1.143465213346    3.089593749250    0.613791724532
C      0.300014882161    5.736543938304    0.138445713860
O      0.576486873160    4.917633698032    1.128401036707
O      0.320831682924    6.943509829213    0.251607170890
C     -0.149612544965    5.063491911657   -1.171164161799
H      0.389903358738    5.567992638633   -1.990102386574
N      0.191444572411    3.623042916855   -1.147466842618
C     -0.053255131197    2.855976996063   -2.176894877303
O     -0.071180516379    1.561397945717   -2.119056462943
O     -0.001303104172    0.261905452267   -0.000618732888
H     -0.124867811964    1.124798696946   -1.166265231023
C      2.415484273065    3.303695722035    2.774552213444
C      3.607767881591    2.557152539202    2.942509590804
C      3.517033231948    1.207550379898    3.324564710981
C      2.240217204145    0.626875630035    3.511457616415
C      1.071911710147    1.355925685841    3.357118191172
H      2.476130427074    4.381295367669    2.607582997432
H      2.181702658163   -0.425595350714    3.801988573461
H      0.099949740118    0.889934225971    3.530400184178
C      4.946988013262    3.220308525282    2.742911020964
H      5.542089878751    3.213964219897    3.671971543303
H      5.551330945661    2.694504223507    1.984430254576
H      4.833306183093    4.266220987168    2.424160475153
C      4.758716540539    0.383579730710    3.551272102695
H      5.359904495787    0.295151281761    2.631314357259
H      5.411035106033    0.842462179777    4.313112927458
H      4.509077290042   -0.632302145500    3.888723950797
C     -0.308672429715    3.362254717840   -3.575909730465
H     -1.345157044629    3.138995039445   -3.870726549540
H     -0.113131340943    4.431683119635   -3.704917758923
H      0.343443658887    2.784330531560   -4.248228259051
C     -1.684316718637    5.307487983468   -1.360910157857
H     -2.002461247951    4.638068635787   -2.177829578221
C     -2.489823572718    4.913621605368   -0.114408778691
H     -3.568337799390    4.909085432280   -0.330687763378
H     -2.218733713739    3.905820847497    0.235051482404
H     -2.316379411004    5.619035842627    0.713865553127
C     -1.960819357289    6.747602400754   -1.836055890205
H     -1.623555585133    7.452373677366   -1.060789994721
H     -1.324556500867    6.949659148863   -2.717097764614
C     -3.419737316859    7.020526099461   -2.208245677217
H     -4.090537982115    6.951780951978   -1.337640839471
H     -3.531170404969    8.034670105055   -2.623396378578
H     -3.788100524017    6.309736577149   -2.968350957841
N      2.027445078338    1.287418101586    0.092935167439
C      1.252013845820    0.153327955221    0.047355027219
C      1.960466361553   -1.106325371770    0.004584545641
C      3.333704166782   -1.156867838038   -0.105218491321
C      4.054675422351    0.053436431086   -0.150515169471
C      3.370942597565    1.247354511813   -0.036483129924
H      3.849162225830   -2.116193782595   -0.169709532306
H      3.900568835620    2.201194583708   -0.043448649798
Cl     1.014772247694   -2.561350157965    0.045248443783
Cl     5.797801391914    0.050171557516   -0.303929067169
