75

C      2.537295296901    3.973126524189   -1.104918916860
H     -1.316996610586   -1.044184163720    0.035252293272
C     -0.430854217354    4.674697250683   -1.017250191376
H     -0.036770340857    5.145416778231   -1.920612581597
H     -1.319266639213    4.045930100090   -1.115328664152
C     -0.010793957165    5.099353215558    0.229146059657
H     -0.523703040931    4.764511047945    1.140577287577
C      0.936010992708    6.241801408489    0.443067097672
O      1.446619171705    6.491452177378    1.509781666049
O      1.119127679472    6.975072762491   -0.665296649924
Pd     0.948883052982    3.135697245735   -0.242187220018
C     -1.531695205362    2.239983868600    1.577583849935
O     -0.817065283873    2.068575808066    0.487596847457
O     -1.419254164955    3.218074249192    2.297996594486
C     -2.553561808299    1.128433342085    1.926085560654
H     -3.325998201753    1.696437419312    2.468597727418
N     -3.249946614051    0.644826695226    0.749834383776
C     -3.151238218672   -0.371436748602    0.001900729211
O     -2.231480459345   -1.386637516989    0.010536922673
O      0.052866546799    0.070795280848   -0.540206716937
H     -0.433933564803    0.929392791517   -0.125973462021
C      3.523572520421    4.616873836262   -0.346287093702
C      4.690659924381    5.132100511313   -0.938609146967
C      4.871130190407    5.004826990810   -2.335690902959
C      3.873008241744    4.365958030280   -3.083786324887
C      2.715330334787    3.851991819961   -2.486625629752
H      3.394048821858    4.740420530778    0.732976430414
H      4.004331580240    4.260719346389   -4.165285559431
H      1.969109452283    3.352249199951   -3.110278847484
C      5.733725163975    5.812719110240   -0.085035762980
H      6.707122327059    5.295666389517   -0.142498572135
H      5.915549611886    6.850661285184   -0.412875725573
H      5.430470345452    5.843347258539    0.971386340185
C      6.110964237660    5.541496372576   -3.008704726486
H      6.223254977723    6.628633602112   -2.855461830242
H      7.027840514882    5.075027952499   -2.609042638667
H      6.088739138603    5.358067175711   -4.092857537620
C      2.019166424441    8.092334737069   -0.565501525063
H      1.659125789013    8.766243443388    0.228717266006
H      3.007993780449    7.720292749023   -0.253958946818
C      2.069948504566    8.775067477614   -1.916013987808
H      1.072877109689    9.133118840128   -2.215757388755
H      2.747877560812    9.641781363966   -1.872426217501
H      2.438895865241    8.085414320659   -2.690553548311
C     -4.191268264755   -0.626043666678   -1.062696883318
H     -4.975882547656    0.138543184085   -1.026475114550
H     -3.717217032706   -0.638433197274   -2.058174588703
H     -4.633730988730   -1.624835296421   -0.912241903647
C     -1.991259109701    0.134606613988    3.032337228886
C     -1.956764772899    0.909005407249    4.368436623348
H     -1.563142105711    0.262397373117    5.169765151675
H     -1.328830199560    1.808621457572    4.304059105695
H     -2.968088036810    1.231676631064    4.664493111192
C     -2.962738366345   -1.051140491442    3.187210699515
H     -3.996740389022   -0.701294873501    3.337673737192
H     -2.942945233187   -1.712276421234    2.310417447909
H     -2.681540095751   -1.650577047571    4.069095743150
C     -0.570388392078   -0.388769670206    2.752908278620
H     -0.509205610796   -0.969676851094    1.824918084580
H      0.162167611952    0.432748353951    2.700138410854
H     -0.251633455102   -1.054134560704    3.572296935831
N      2.017784200311    1.231150418374   -0.139138312039
C      1.343214212592    0.079068254025   -0.299445589940
C      2.012628088493   -1.185486255824   -0.215811588551
C      3.375445234143   -1.208380473099    0.036589646816
C      4.055107069263    0.012180270260    0.208502314705
C      3.353448194756    1.195190243411    0.115538207853
H      3.915923051937   -2.152289446615    0.113761056904
H      5.126622136150    0.030920185687    0.412131172679
H      3.847279989655    2.158491456698    0.229465071772
O      1.208676783376   -2.256077566830   -0.373160638460
C      1.765919173153   -3.550676716912   -0.282182445733
H      2.218666726340   -3.729597456475    0.709498707515
H      0.937942290859   -4.255219710497   -0.431358201775
H      2.529784908416   -3.719380046198   -1.062235969739
