53

C     -0.940470928521    2.900085061082   -1.829192254507
H     -1.849118994324    3.408884789988   -2.159457305638
H     -0.479927583408    2.173918592749   -2.502828340880
C     -0.267682350366    3.353262697457   -0.716778015910
H      0.723888021678    2.981002416116   -0.449707936666
C     -0.712011384470    4.532710872238    0.108658984698
O     -0.234753137990    4.780862023254    1.189561775482
O     -1.656938893906    5.247589447616   -0.502217692589
Pd    -1.558584863880    1.598548790930   -0.125694399770
C     -3.805055736078    2.438037751980    1.383574312699
O     -2.974414817807    2.849820887269    0.450020141631
O     -4.664481163835    3.138682617790    1.863375007158
C     -3.619121124668    0.970507969584    1.862171490442
H     -4.622100592889    0.520130572303    1.790188106542
N     -2.685954815793    0.273413096171    0.967917748402
C     -2.689666047421   -1.021767152263    0.849393752742
O     -1.867404566667   -1.645651584321    0.045984791889
O     -0.224253578262    0.165593184277   -0.779397513772
H     -1.218866103072   -1.005389817514   -0.391837883701
C     -2.341399324073    6.246531485742    0.283840412483
H     -2.949879132320    5.716886773199    1.034210632398
H     -1.592795054103    6.855243014407    0.813273492554
C     -3.199225733354    7.071400401184   -0.651055754751
H     -3.937113051089    6.438687806181   -1.167486925374
H     -3.746081011669    7.834863137155   -0.076229014562
H     -2.585388948977    7.583615686084   -1.408510383163
C     -3.631287011046   -1.922526337502    1.597014443529
H     -3.577592767366   -1.726908362875    2.677723782961
H     -4.669542461278   -1.739881246787    1.276855187501
H     -3.372016780772   -2.967770436977    1.392110699516
C     -3.188828027466    0.959301093583    3.326130206958
C     -4.168433118312    1.078705412670    4.323725419654
C     -3.804545874504    1.125704734381    5.671122200465
C     -2.456886504924    1.056310098694    6.037994227183
C     -1.476526511104    0.944985600585    5.048639948368
C     -1.837346667486    0.899495909531    3.698219405681
H     -5.221134828787    1.151074824942    4.040040243612
H     -4.578096387024    1.217350055746    6.437788620517
H     -2.171917965707    1.091682832345    7.092466660140
H     -0.420329266629    0.899147455124    5.325445992596
H     -1.058268943136    0.824037549422    2.935986283488
N      1.277941486859    0.794741248996    0.835389779911
C      0.959720581651    0.020170109343   -0.214040982764
C      1.856746031831   -0.957296758669   -0.726810741341
C      3.088003720256   -1.114732791049   -0.119745938686
C      3.397130815288   -0.294793975821    0.975956250683
C      2.467665682913    0.646946664410    1.416829239478
H      1.558599933632   -1.559100140645   -1.586470087257
H      3.818523323010   -1.846924707575   -0.465238897103
H      2.706609050730    1.291590295125    2.266687970239
N      4.687984787915   -0.424502460918    1.651203846777
O      4.906003936689    0.308292535195    2.604616661422
O      5.468347154219   -1.260484054224    1.218600743042
