68

C      1.624207535866    3.020155151413    2.084081491016
H      0.647965368318    4.350606320969   -2.852411310926
C      0.352945918842    5.155881737262    0.213431858766
H      0.197674890191    5.409940401386   -0.837497064984
H      1.163095459348    5.663251637294    0.743580340038
C     -0.600771633419    4.464762388571    0.931532350030
H     -0.532454971275    4.402685295045    2.019357212897
C     -1.946680472837    4.017586634584    0.432730043662
O     -2.701208344570    3.382454019122    1.132324711148
O     -2.211302257181    4.419211991029   -0.813452995960
Pd     0.949724593520    3.018995284609    0.202204531750
C     -0.503754993838    2.335076145422   -2.404248827396
O      0.445589108968    3.052257594613   -1.919417228968
O     -1.081928588729    1.431346444900   -1.775261834711
C     -0.923257176657    2.605034874695   -3.863535366184
H     -1.771811509371    1.921282218551   -4.024409050960
N     -1.418417386726    3.950059547337   -4.138931294550
C     -0.770307160268    5.033412910814   -3.941276603374
O      0.433579659149    5.186241355913   -3.354013331225
O     -0.053326639726    0.021903116395    0.043419762831
H     -0.472487937948    0.708806301959   -0.607253540816
C      1.030056368377    2.210323198813    3.060383360171
C      1.518774963606    2.167065815878    4.376348482173
C      2.639850453196    2.957803903121    4.725579763553
C      3.225788808019    3.761264198787    3.740336145373
C      2.729937940279    3.802759280933    2.429738279852
H      0.164358423552    1.592239812353    2.804102028543
H      4.093267366743    4.375998253613    4.000339966052
H      3.224236610239    4.445860347598    1.695178455033
C      0.850417626758    1.283785756193    5.401368865243
H      1.550960360988    0.537306345207    5.813520837734
H      0.476977822502    1.868390010106    6.259531813317
H     -0.002450899772    0.741897238249    4.968243721977
C      3.193007980188    2.938073883232    6.129591039209
H      2.439489635206    3.256098029001    6.870468822503
H      3.515318266276    1.925719117710    6.428198584421
H      4.060434231993    3.607157842913    6.227403968277
C     -3.477651333574    4.012792745520   -1.393529695222
H     -3.289221885912    4.028968501993   -2.475530145997
H     -3.686139035261    2.982232002491   -1.074117578520
C     -4.599021978969    4.957336916068   -0.998486323816
H     -4.363329405007    5.994213572794   -1.285549234984
H     -5.525517686453    4.663049135608   -1.517275505979
H     -4.788708818435    4.920721210719    0.084504821647
C     -1.342648310262    6.353888844061   -4.383620193786
H     -0.603385992589    6.892840287694   -4.997707097653
H     -2.264165570734    6.198928696967   -4.956443206258
H     -1.552553043641    6.986384144580   -3.505168175569
C      0.199073982582    2.169323789159   -4.855190718427
H      1.043350755509    2.869239704112   -4.724945171517
C      0.702358319326    0.750931773434   -4.557916570842
H      1.455149934777    0.446352111441   -5.302701501621
H      1.171120370448    0.671721229268   -3.564989798515
H     -0.122703508052    0.020089755825   -4.597607592127
C     -0.294791824586    2.276269269971   -6.303319881473
H     -1.118952707477    1.565956192742   -6.487550004129
H     -0.667281074373    3.284487966360   -6.531362175198
H      0.517105426229    2.037634417066   -7.009447384736
N      1.963669835591    1.156088164714   -0.020266307985
C      1.258058763867    0.001419875469    0.027958390623
C      1.934581233351   -1.239769264604    0.099790262625
C      3.317446252475   -1.269459481148    0.079509963891
C      4.033537943051   -0.063742761840   -0.013197285379
C      3.314455481230    1.118146905421   -0.050533320627
H      1.327833921328   -2.144338289893    0.152553124797
H      3.845950624089   -2.225142610821    0.126101501006
H      5.123582878124   -0.041953958548   -0.039901073212
H      3.821679902243    2.084366343703   -0.086632421831
