56

C      2.784675326943    3.952263318777    0.844874260407
H      1.568175927244    5.301851249124    1.643943877476
Pd     1.143153843305    3.113390425327    0.052160829934
C     -1.597385647522    3.139930574572   -0.981534209941
O     -0.626965182304    2.297653865068   -0.747607304826
O     -2.745064240116    2.846991791683   -1.247539919549
C     -1.151804567621    4.622186939225   -0.954926881932
H     -2.036684100698    5.199120769821   -0.658277682471
N     -0.067441686471    4.802012199573    0.031764258547
C     -0.065004911409    5.822615214867    0.825270861313
O      0.881698977598    6.005346354428    1.727736933376
O      0.084869776429    0.098762602032    0.240890553577
H     -0.349514263613    0.938478642996   -0.131150556291
C      3.216111025816    3.626692454115    2.146037235572
C      4.390753609846    4.154312490438    2.710096754919
C      5.182060806474    5.043550442300    1.946825612934
C      4.756043443986    5.373304779689    0.652282711670
C      3.578999548019    4.849226653015    0.106905062361
H      2.624622437237    2.931028392285    2.750020795700
H      5.359292434126    6.065345560825    0.056047269079
H      3.283015071502    5.147495007510   -0.903079774315
C      4.799286474710    3.769383325397    4.111002372405
H      5.790333629836    3.284173150490    4.127264195497
H      4.873442901395    4.651025331902    4.770547975832
H      4.077631541654    3.072925677017    4.561914835193
C      6.452375388879    5.630474901385    2.511072283835
H      6.260572414799    6.215532061125    3.426994877075
H      7.177124229875    4.846006853305    2.789109568418
H      6.942289696598    6.296461014129    1.785830140526
C     -1.109391102847    6.908696540008    0.852901332035
H     -1.269090832972    7.338849689954   -0.145679431815
H     -2.073183380070    6.507999993089    1.204176976909
H     -0.783876617497    7.698602655318    1.540089772307
C     -0.678607741412    5.089944650302   -2.349445233953
H     -0.395445172817    6.156292961422   -2.266596408213
H      0.250080627456    4.545209072444   -2.591334168283
C     -1.681704999533    4.925873453167   -3.507080234373
H     -1.886215378307    3.847855204014   -3.625655327569
C     -1.048628878808    5.430984759260   -4.810443117976
H     -0.095628700759    4.919678543677   -5.024078893201
H     -1.719118048408    5.261802623666   -5.668154162017
H     -0.841259124896    6.514361574495   -4.759637817207
C     -3.024846243695    5.615797119338   -3.234448333085
H     -3.677660891649    5.559616002171   -4.120492393527
H     -3.558500805743    5.129841200408   -2.404645275510
H     -2.886674982439    6.685923622531   -2.995563575231
N      2.105757966007    1.231919130240   -0.034268202053
C      1.390478468588    0.086223301293    0.117370888561
C      2.043732435253   -1.169952136976    0.165166660722
C      3.413305020738   -1.241168758388    0.001918983814
C      4.138293176223   -0.056862937612   -0.210970557086
C      3.447474660223    1.141466514007   -0.214517060195
H      1.420638035217   -2.052894676800    0.311155445411
H      3.920378346817   -2.209235593220    0.026069982701
H      5.218439018522   -0.061064705550   -0.362013382349
H      3.970707310074    2.086722918692   -0.352962104626
