57

C      2.575406371776    3.735284667666    1.819338673406
H      3.349844766178    2.967639302483    1.865878445241
H      1.890512530431    3.867008525379    2.660220326404
C      2.620679891994    4.731194638822    0.870209919077
H      1.983375815274    5.601828661612    1.013870720725
C      3.718359778658    4.886072823053   -0.135228529113
O      4.542043921910    4.047683402124   -0.424488275941
O      3.687297247856    6.112504472906   -0.668294093690
Pd     1.132338111045    3.139724498571    0.211513604084
C     -1.354073429144    2.990160581007   -1.241724552633
O     -0.303818338943    2.253140392185   -0.888351785045
O     -2.318258963343    2.530337093697   -1.800490041893
C     -1.198357934080    4.481011616047   -0.883843498388
H     -2.202911839698    4.788004757692   -0.558026916745
N     -0.254343963879    4.614395598864    0.220831036766
C     -0.519264208553    5.378777748772    1.317907422053
O      0.181669830858    5.370374275683    2.330236957407
O      0.191496071848    0.079951067665    0.270080748822
H     -0.185351513200    0.891010459512   -0.201543447168
C      4.707191125266    6.431649759496   -1.639069885150
H      5.686909074095    6.147397927858   -1.225048025825
H      4.539192056385    5.810768418731   -2.534120768397
C      4.620497579667    7.911296607790   -1.944867030750
H      4.786736234930    8.512343259462   -1.037879434357
H      5.388724950847    8.182865585023   -2.685192832008
H      3.635529046063    8.175798946822   -2.358723977378
C     -1.732192254869    6.310393172116    1.264111430262
H     -1.654979413819    6.990360224951    2.121167465602
H     -1.780658118318    6.891914066166    0.331694381863
H     -2.670166521014    5.739102131844    1.357973385447
C     -0.862724548396    5.297111296779   -2.140822043207
C      0.274126748243    6.111389562566   -2.213023590952
C      0.537846278237    6.860323503143   -3.366295145355
C     -0.328718793192    6.804801280364   -4.459206823351
C     -1.466020148478    5.992119092718   -4.393160139263
C     -1.732140828428    5.245530046036   -3.244468434175
H      0.956762404827    6.163329323843   -1.364504391721
H      1.427878621941    7.494066883477   -3.405360088543
H     -0.121930273874    7.391468313455   -5.357977747112
H     -2.152254088083    5.939594756960   -5.242517803160
H     -2.613186762003    4.601475232068   -3.200546424698
N      2.212312267263    1.228554014300    0.094985121673
C      1.501170877090    0.074786471622    0.240973533787
C      2.154946272210   -1.172399367624    0.381164064316
C      3.528454120159   -1.239942608698    0.303025037181
C      4.258821167534   -0.054722839446    0.081857199041
C      3.556894237393    1.144534664464   -0.010578681223
H      1.528267633267   -2.053559064663    0.521216783759
H      4.051678193453   -2.192745554610    0.393530446014
H      4.106199922002    2.077024590146   -0.166192918110
C      5.742929244863   -0.022435331389   -0.043030855691
O      6.400657741936    0.976310169409   -0.211460109853
O      6.279451876706   -1.255426627128    0.057253543525
C      7.700901830135   -1.333898543470   -0.049573538159
H      8.185532682151   -0.745131726098    0.743905622629
H      7.957188490150   -2.395509021212    0.052523098305
H      8.041034542815   -0.950017992183   -1.023200732138
