52

H     -0.421207713240    0.941301330202    1.045607895612
C      1.976026528083    3.251132052194   -2.380575832603
H      2.819526975431    2.561458540342   -2.464690514910
H      2.179272978953    4.323732398113   -2.357744073193
C      0.697979441210    2.788209767452   -2.595853930150
H     -0.137270851824    3.483038025650   -2.713654416154
C      0.434509791097    1.350348429337   -2.945716714268
O      1.296631893431    0.512628028255   -3.072900155962
O     -0.872373768578    1.140933822453   -3.099142618149
Pd     0.990206808846    2.980645134736   -0.378906465483
C      0.121474619601    5.518829129768    0.489355094386
O      0.169785457523    4.783722033726   -0.604524887130
O     -0.125507788476    6.702896544214    0.491261347381
C      0.435988826688    4.774314032587    1.809952108945
H     -0.347956899456    5.089216820271    2.512843300833
N      0.349422872318    3.323283789346    1.562858166644
C     -0.440178336936    2.556326926339    2.267715444389
O     -0.736184424185    1.332515488675    1.957925680228
O      0.013319068701    0.092256466205   -0.065547960224
C     -1.299507487902   -0.221261059986   -3.318176339556
H     -0.713144926093   -0.645336293465   -4.148251799064
H     -1.062292073870   -0.791674280629   -2.406476765088
C     -2.784101202928   -0.204533842739   -3.611024056509
H     -3.004846298674    0.385577779759   -4.513915486191
H     -3.141477109887   -1.232926476232   -3.775263082595
H     -3.347482053681    0.225013878810   -2.768746624600
C     -1.138051636355    3.011880003406    3.528625998611
H     -1.511836402355    2.124601086382    4.053330644089
H     -0.480457688810    3.585740249303    4.191056903905
H     -2.001669094552    3.645383070466    3.267237967576
C      1.787947678251    5.274168910018    2.392688353092
H      1.648942079627    6.367531546249    2.445040653550
C      2.037365055254    4.755106588369    3.812868378130
H      2.981143691590    5.159596764349    4.211069989089
H      1.235410470700    5.056495757272    4.505743007829
H      2.118368057016    3.655422645739    3.833569115849
C      2.996575886282    5.004361303941    1.489057679217
H      3.214207120416    3.926436338418    1.415660071742
H      2.852002057893    5.401982942460    0.472527760739
H      3.895340829626    5.486792992701    1.903863653272
N      2.005937463464    1.191966359696   -0.096606793834
C      1.270329840829    0.017732933218   -0.079268741672
C      1.991374438381   -1.225962129013   -0.062125278344
C      3.361537908317   -1.248007930888   -0.017353393413
C      4.053920642676   -0.017159952894    0.003282482362
C      3.345216076344    1.170590419702   -0.046875463461
H      1.397365323669   -2.140287588131   -0.071863316839
H      3.930432611369   -2.178059085858    0.007955215915
H      3.883507030750    2.119853410807   -0.052500847082
N      5.508773491359    0.022954823166    0.059350961903
O      6.050967962702    1.121191030562    0.062125241245
O      6.098963395406   -1.046573553274    0.101241635322
