44

H     -0.341699595068    0.666046584926    0.717771140960
C      2.018953405416    3.177155189711   -2.410813021017
H      2.833835814187    2.450334396189   -2.452204303501
H      2.264515640253    4.240976397626   -2.403733284598
C      0.730350255398    2.762140145515   -2.646130681442
H     -0.073429232786    3.486133645673   -2.799668210708
C      0.418999947623    1.328830499930   -2.962652188740
O      1.247763996456    0.452818403083   -3.057823826007
O     -0.894560104733    1.159242093133   -3.126799174795
Pd     0.960028157897    3.003463414120   -0.413814456742
C      0.095777029052    5.577191339105    0.365912420669
O      0.236367523181    4.830309483244   -0.716758668976
O     -0.169527323239    6.755585253034    0.331640594488
C      0.325083444792    4.831856334762    1.693047040858
H     -0.461169609292    5.157400321077    2.388792583305
N      0.335413826514    3.390336086042    1.476941062722
C     -0.328453560501    2.535288506137    2.256545729778
O     -0.566928168787    1.342983958212    1.948639117067
O     -0.028467992254    0.003550309915   -0.045156034016
C     -1.362265778529   -0.190271160730   -3.329451213518
H     -0.799224788244   -0.637989634352   -4.163674160608
H     -1.131166076123   -0.764522613890   -2.418558261395
C     -2.849473704953   -0.132832033939   -3.604940247311
H     -3.063580720734    0.458142149084   -4.508869206531
H     -3.239277494699   -1.151237338638   -3.757732563929
H     -3.389437396756    0.319288077727   -2.759140503129
C     -0.846895092507    3.006248314060    3.608617755226
H     -1.103865778429    2.117310012073    4.197352352859
H     -0.113779132637    3.617515672435    4.154414476684
H     -1.760938335360    3.609200027574    3.479532991737
H      1.285811823851    5.193392417451    2.107403977483
N      1.937233360380    1.187560908105   -0.034171614626
C      1.283117458452    0.006074881105   -0.041947689958
C      2.018546539244   -1.200853717319   -0.044126177701
C      3.397084645697   -1.163091152837    0.016764598781
C      4.078082444877    0.072755436086    0.092558707758
C      3.288481720758    1.212575688368    0.057715661135
H      1.459841030754   -2.136702072931   -0.074347586321
H      3.966612238318   -2.097160764904    0.023335538315
H      3.745161020519    2.205380938323    0.091061838138
C      5.579463856024    0.149948858317    0.193901450569
H      5.929667723574    1.192336976831    0.221148877095
H      5.945325921830   -0.349831588913    1.106326020231
H      6.064418542072   -0.345508438790   -0.663420864329
