56

H     -0.367682899692    0.726773665104    0.745441147336
C      2.030178675910    3.152607083344   -2.357544949985
H      2.844887494825    2.426211720795   -2.411986870696
H      2.278954422516    4.215630300814   -2.347587553527
C      0.738864026013    2.739213124672   -2.577788930187
H     -0.067230385174    3.463114257078   -2.719463647650
C      0.424814819296    1.305990063006   -2.893156801961
O      1.251539987158    0.426017529918   -2.971527812744
O     -0.886184897594    1.141587055977   -3.075072570418
Pd     0.997554262650    2.974941765467   -0.343525679183
C      0.100538252137    5.533081489653    0.466297243144
O      0.235996698473    4.787691956714   -0.619037765727
O     -0.262233484247    6.687481131690    0.420057743212
C      0.468925866091    4.824996056590    1.792252651191
H     -0.292534925415    5.131537749162    2.522442438400
N      0.389801423032    3.378393351609    1.555408258274
C     -0.467298111732    2.585838221522    2.196645876357
O     -0.753093661292    1.415065638410    1.826229291392
O     -0.013753232929   -0.015769451128    0.021106346727
C     -1.356595482890   -0.205313116323   -3.294191314017
H     -0.782397979952   -0.648627300205   -4.123028229385
H     -1.140632753735   -0.787454114028   -2.384544871717
C     -2.839166936091   -0.140257674714   -3.591130665118
H     -3.037380671931    0.458118944480   -4.493716943479
H     -3.229706180667   -1.156149087526   -3.757757211188
H     -3.390508625417    0.307034759708   -2.750149875558
C     -1.188501341623    3.067033428001    3.446345829380
H     -1.633686886298    2.190487889525    3.931913169764
H     -0.526433218549    3.585790089025    4.151301040728
H     -2.000829779945    3.759197803451    3.170217573314
C      1.853328217527    5.327703895564    2.357444939520
C      1.670337975551    6.768126867459    2.875168174550
H      2.627006007716    7.158514749803    3.258517145884
H      1.306175027097    7.437001498661    2.083643804872
H      0.941102291758    6.800908759537    3.701578541982
C      2.291323472556    4.426460861997    3.525470181364
H      1.555163111873    4.439412906738    4.345271434715
H      2.429767579510    3.382307263055    3.207250981161
H      3.246445948590    4.785565713662    3.941252655636
C      2.952095186612    5.320508848278    1.277959365288
H      3.107218975441    4.313169094732    0.857714475050
H      2.714324931578    6.003346233169    0.447706207513
H      3.911341846632    5.644933378475    1.711873295628
N      1.962283739567    1.144238164938    0.021157658215
C      1.282397168682   -0.032245381955    0.006869690966
C      1.997694148183   -1.258363137423   -0.027591376727
C      3.373348303385   -1.253760721789    0.017333076596
C      4.056827342542   -0.021575390381    0.102393200342
C      3.309544792531    1.142326462472    0.094949119403
H      1.417850971202   -2.180324502075   -0.071907986375
H      3.932942659000   -2.191812125104   -0.002948572485
H      3.799584969618    2.116661951853    0.131929069698
C      5.555772842808    0.017242235145    0.212252801207
F      5.976553669731   -0.407980251787    1.418180132539
F      6.133916200855   -0.780855510566   -0.702558265081
F      6.039993615271    1.259181566670    0.035813713462
