66

C      2.764885842478    3.938945281389    0.899665675310
H      1.375530448164    5.128217382049    1.676988594367
Pd     1.279471090583    3.106177046223   -0.170265813534
C     -1.372653732733    3.020162710626   -1.412096810806
O     -0.368940386674    2.230361200435   -1.156158366651
O     -2.467301627970    2.683807447239   -1.811893519372
C     -1.065790133268    4.535417699784   -1.196166832986
H     -2.026710787104    4.960716074424   -0.873172788581
N     -0.055751929620    4.704175556099   -0.139172322867
C     -0.200797462417    5.637192659963    0.746543210848
O      0.638012282474    5.780043736251    1.753909253970
O      0.309670643320    0.222442830505    0.239445213339
H     -0.110251723760    0.970426433768   -0.307547770059
C      3.137154298077    3.386324696444    2.140533732496
C      4.180456744552    3.909409738307    2.922892518563
C      4.894627063400    5.036645024230    2.455122878263
C      4.525310111365    5.595463275924    1.224201489441
C      3.480563429473    5.066782899134    0.459162032378
H      2.605081022499    2.508496773264    2.520475113158
H      5.068375409163    6.470912563177    0.854224356509
H      3.230839983890    5.544874463785   -0.492667481855
C      4.533106307258    3.269381692006    4.243391751993
H      5.577489517221    2.913104412809    4.255849280491
H      4.436402347504    3.981377285769    5.081015428361
H      3.883198609647    2.408659990828    4.457913990544
C      6.024927099482    5.627992368541    3.260685157089
H      5.687215855902    5.960159151194    4.257552297867
H      6.830628763366    4.893816768566    3.433496964528
H      6.467775760725    6.496421449497    2.751385024833
C     -1.310324847443    6.655336610476    0.761154304117
H     -1.419897062855    7.135101805408   -0.221550470614
H     -2.269943495081    6.177215814013    1.014277894815
H     -1.086935524610    7.415777776946    1.518861767009
C     -0.683024973040    5.198049469685   -2.521436373335
C      0.518903532419    5.897805939719   -2.692118729711
C      0.822698807168    6.503308548088   -3.917485097857
C     -0.070821704690    6.417262787867   -4.986167149016
C     -1.272915633280    5.719205914146   -4.822778968840
C     -1.578126812181    5.114889813417   -3.602789515281
H      1.226018587798    5.971339476811   -1.864710112714
H      1.765912402274    7.043994591939   -4.032624728698
H      0.166461017278    6.889920534701   -5.942688334248
H     -1.979294162227    5.642992182148   -5.653599981724
H     -2.507787633312    4.555025853445   -3.479844458006
N      2.302374550469    1.246431916844   -0.288427489900
C      1.614788108944    0.185097350657    0.103784975087
C      2.260300372685   -1.072461247257    0.448485668790
C      3.662005689201   -1.195203929385    0.279371122013
C      4.378212342646   -0.081046673604   -0.325458580402
C      3.655571540239    1.110411741362   -0.614538045589
C      1.498816378806   -2.143683210322    0.965939856666
C      2.123016777139   -3.322177686999    1.340348933107
C      3.517973382870   -3.448265858264    1.195734124779
C      4.272508928094   -2.408326076377    0.673363128878
C      5.746875249482   -0.142801385280   -0.673897793705
C      6.380387508059    0.915502994451   -1.305392848307
C      5.649863456031    2.074119862701   -1.621651953564
C      4.310296170044    2.167860541467   -1.280791884299
H      0.420737146536   -2.017802233435    1.067517624699
H      1.536699764886   -4.149999329150    1.745676936459
H      4.013050977801   -4.376025524672    1.493957963940
H      5.350403299873   -2.535257368640    0.568289702888
H      6.314914650720   -1.048874201568   -0.458927056795
H      7.437721702008    0.840934645988   -1.569901307912
H      6.133968638952    2.903956922240   -2.142042135661
H      3.732969166808    3.056007626426   -1.532662604742
