71

C      1.617350844178    3.050768813902    2.157982099472
H      0.721470903056    4.468747114851   -2.717345985901
C      0.317160361072    5.179595771275    0.320709388903
H      0.189232151454    5.471211762854   -0.724615064539
H      1.088866192696    5.693169506761    0.899879425133
C     -0.637085015278    4.427629420930    0.974979840736
H     -0.607401913908    4.323917518119    2.061487213217
C     -1.951357162532    3.966814677293    0.407946751492
O     -2.715056679339    3.285704387095    1.051251613956
O     -2.179943178040    4.416129059892   -0.829740120016
Pd     0.995617333567    3.069516664600    0.259371463275
C     -0.395746753663    2.400195540464   -2.385768429508
O      0.534353860091    3.121567817091   -1.878397569622
O     -0.932125725797    1.448441111613   -1.781536011527
C     -0.888312810200    2.694919722333   -3.818797655418
H     -1.832662125117    2.130359308254   -3.863850192559
N     -1.234538424793    4.064144038803   -4.161156508200
C     -0.612470756934    5.148391573438   -3.905261709738
O      0.512108262903    5.324389712927   -3.184321429358
O      0.155160387039    0.045843100055   -0.043266347710
H     -0.298470628106    0.738465375166   -0.695229905154
C      1.025919449021    2.189854823919    3.090760714857
C      1.481947013687    2.121784874554    4.417513685113
C      2.564386264444    2.940398471404    4.820705202868
C      3.146362536442    3.795292315963    3.877278040193
C      2.684183936815    3.861423025508    2.555360990607
H      0.189705393526    1.550495013689    2.792045896180
H      3.984323106487    4.431141849913    4.179309390606
H      3.174360757801    4.544056608353    1.854636801318
C      0.820156901726    1.182912909046    5.396080434062
H      1.537179714162    0.449935962521    5.803801451961
H      0.403498977192    1.726500901503    6.261200315782
H     -0.000405807090    0.624201440520    4.923808750699
C      3.081820343071    2.894849849225    6.237537627229
H      2.298134673283    3.160923707976    6.967411146433
H      3.433386282050    1.885433852817    6.511729636447
H      3.921212769026    3.591023955785    6.379696227156
C     -3.422455637955    4.023515351301   -1.467084301492
H     -3.205283236034    4.105498055302   -2.540673959401
H     -3.622500853103    2.973324127854   -1.211929207762
C     -4.571359414131    4.926492464017   -1.054256859362
H     -4.345101140439    5.981250233833   -1.275981071888
H     -5.476799613475    4.646995389127   -1.616443606157
H     -4.791977626795    4.825637077283    0.018609455943
C     -1.131593430456    6.460331867278   -4.435126630217
H     -0.334384817175    6.981309312422   -4.989306878716
H     -1.995728205584    6.294432100683   -5.088403680903
H     -1.419193941235    7.115951472363   -3.596590356718
C      0.028296006608    2.010537680804   -4.911486545150
C      0.172453574512    0.509410435251   -4.595445524255
H      0.719103291231    0.006829338625   -5.409731159830
H      0.728855694578    0.328349395787   -3.663136889151
H     -0.809245704598    0.020912314861   -4.493500548083
C     -0.673149125507    2.161022387170   -6.275285428771
H     -1.669534572675    1.690148975077   -6.262465588982
H     -0.807116158289    3.218078976885   -6.542696445870
H     -0.078063540303    1.672160665872   -7.063985366905
C      1.426462042637    2.649855141871   -4.983795703450
H      1.376430555992    3.721352906614   -5.227241941204
H      1.974535594322    2.541735469668   -4.035473278669
H      2.021116976878    2.159109843608   -5.771710151298
N      2.119435384043    1.263403847298    0.011061406396
C      1.455998380253    0.086201965088   -0.012159614192
C      2.210899592027   -1.124566589394    0.038271323592
C      3.594219816449   -1.088559428358    0.064531435674
C      4.236836084916    0.159281812853    0.044221233402
C      3.467635598084    1.310988850526    0.027862977951
H      4.169813780241   -2.014475408303    0.090784813422
H      3.935091475695    2.295917760425    0.049651888284
Cl     1.364671247916   -2.635643989413    0.047055594018
Cl     5.973875216918    0.264783873647    0.062425507616
