54

H     -0.509718213050    0.914901986565    1.041440303447
C      1.970850316887    3.353778676351   -2.293208320960
H      2.844015199217    2.698725958013   -2.347756582456
H      2.127149257620    4.433312749339   -2.241858973804
C      0.725570570230    2.842126610560   -2.576829588054
H     -0.133405462363    3.502275406245   -2.721634732431
C      0.545532586460    1.400062235727   -2.963993972559
O      1.454179486616    0.609318388950   -3.068947284667
O     -0.739819154228    1.127585147429   -3.177237363481
Pd     0.907988845974    3.010564667458   -0.341848156548
C     -0.045325734092    5.507548786166    0.548261823306
O      0.061479858322    4.804961748977   -0.561312728911
O     -0.346255141884    6.678627079460    0.581311518511
C      0.292954932596    4.738336970458    1.850571399936
H     -0.456035422835    5.048447030195    2.591886032003
N      0.209871286696    3.297601937423    1.580654863092
C     -0.523555792613    2.495428173629    2.307769563478
O     -0.799075546770    1.272775789734    1.983634564332
O     -0.075264309805    0.166930407537   -0.119157944381
C     -1.082331887826   -0.253165194630   -3.432653781226
H     -0.498446854465   -0.604320012809   -4.298305900373
H     -0.776722563378   -0.841963830475   -2.554212828130
C     -2.573711873799   -0.325103104618   -3.677363999564
H     -2.865815889624    0.287064645311   -4.544716130857
H     -2.866632807434   -1.367687107028   -3.876171174128
H     -3.133029517106    0.027355035726   -2.797541732492
C     -1.158015311871    2.917256006491    3.611952336039
H     -1.485045584895    2.014453880925    4.141481647996
H     -0.467678910564    3.490658303931    4.243090475354
H     -2.046041942181    3.539265001172    3.411813212220
C      1.687404562872    5.188743438975    2.355000963279
H      2.441789464479    4.892867050987    1.606387898454
H      1.664553571392    6.288877720715    2.373785285169
C      2.065333965675    4.649793413297    3.715640170642
C      1.720645872557    5.354162864670    4.881976856142
C      2.739124448558    3.425166895983    3.852079831056
C      2.032332946726    4.846981670862    6.146483381450
H      1.207216900541    6.316675925548    4.796263231022
C      3.052459715088    2.914430776662    5.115517815569
H      3.025558722905    2.865363244076    2.957821208357
C      2.697880757827    3.622746965423    6.267213983645
H      1.760597021981    5.413522999813    7.041005731375
H      3.579714409888    1.960605599138    5.199299229366
H      2.945241244752    3.226141987496    7.255116123439
N      1.932395385167    1.235270702582   -0.048475531449
C      1.185021110191    0.088372367523   -0.089768160494
C      1.915825349498   -1.155798170203   -0.095714294549
C      3.289251073068   -1.183232548483   -0.000646532491
C      3.990077443302    0.037700469332    0.093168375822
C      3.280770800139    1.221267999972    0.054673050240
H      3.826053924891   -2.132744523046    0.005263648090
H      3.793013226463    2.184473674538    0.099110359352
Cl     0.997011087396   -2.622234212499   -0.216212592724
Cl     5.728123830813    0.055142784784    0.238710977611
