74

C      1.356099329739    2.906752690960   -2.131083214763
H      0.063001310532    1.853109718885    2.161872648908
C      0.467853602573    5.260097411107   -0.400720969706
H      0.533371150907    5.666809200453    0.614600923294
H      1.174219215479    5.614540835822   -1.155525163094
C     -0.635000906188    4.524118834597   -0.788991663905
H     -0.797904635237    4.271308602066   -1.839848007228
C     -1.851863063394    4.285056403318    0.067667478985
O     -2.574582102937    3.321741802736   -0.065651705041
O     -2.044733956862    5.275924818280    0.931078213250
Pd     0.980449048231    3.118975434373   -0.177522739647
C      0.283008628609    3.991746324603    2.865518679373
O      0.722262614757    3.125409582863    1.980365168763
O      0.455315507803    5.197014750728    2.805381611407
C     -0.496691383423    3.348343073557    4.042519039818
H     -0.839321116873    4.207212324917    4.641259724051
N     -1.701332516620    2.621807310008    3.632689038469
C     -1.728440323692    1.629188970686    2.831959773336
O     -0.660428041816    1.110984267769    2.167219405878
O      0.025292127962    0.019102485360   -0.155264954426
H     -0.371735838849    0.539522292094    0.599379625176
C      2.459018025764    3.553281428570   -2.703008651139
C      2.785938035436    3.394501200828   -4.061277537731
C      1.978445911943    2.565408786161   -4.872805505183
C      0.877686774386    1.924406919919   -4.288689229244
C      0.558574393701    2.085265446004   -2.934954059834
H      3.103031258152    4.192493847185   -2.091163315204
H      0.247725017258    1.278659363416   -4.908416908120
H     -0.304829392488    1.560082519409   -2.518930457777
C      3.986283326153    4.104410089605   -4.638849286657
H      4.717729309500    3.392101020567   -5.057740182321
H      3.702205178709    4.780213392314   -5.463745923707
H      4.503519627220    4.705242019990   -3.876625727626
C      2.292374877054    2.372474825070   -6.336411285620
H      2.276192527620    3.328149986687   -6.888225324114
H      3.297911953537    1.942976108000   -6.486610119112
H      1.566822004511    1.698801891771   -6.815225605526
C     -3.163473997274    5.192986407033    1.845532509785
H     -4.082637049510    5.039131373615    1.257518456207
H     -3.016161347697    4.314872668643    2.493752801212
C     -3.185926339466    6.480265933070    2.642004114995
H     -3.347136455605    7.353057059012    1.989914890125
H     -3.999238745959    6.445854223061    3.383533589805
H     -2.230581451658    6.612334690882    3.171966427937
C     -3.012767057825    0.921498235709    2.504208803686
H     -3.796534225291    1.206241152063    3.216088289535
H     -3.327249832038    1.205893917325    1.486168761979
H     -2.863660238851   -0.169513718087    2.521360619629
C      0.431636847799    2.501101964103    4.961606243482
H      0.740691345991    1.607533606373    4.391625704547
C      1.695625421452    3.277379088055    5.351926414565
H      2.312908711144    2.684750991228    6.046462123627
H      2.318474797554    3.521882746830    4.478021633578
H      1.440491406813    4.225089063616    5.855298789350
C     -0.328475128184    2.032157019987    6.208906621543
H     -0.624003756003    2.893423248774    6.832460892474
H     -1.243558886111    1.483519389059    5.944304658697
H      0.303427956760    1.373489795792    6.826883305543
N      1.994894353733    1.209034520608    0.075655013921
C      1.349940368848    0.069280071861   -0.157219037426
C      2.046476552097   -1.142504714258   -0.452049778108
C      3.414156818101   -1.152991105026   -0.431250407626
C      4.131063941621    0.031820182680   -0.096731135199
C      3.372050525558    1.214126126490    0.162324439599
C      5.546304725043    0.080009308500   -0.013153725115
C      6.192841887819    1.252918140366    0.323137359271
C      5.438332707280    2.418473408560    0.590721885033
C      4.057952477521    2.403711889317    0.511422821933
H      1.449733358693   -2.029839107042   -0.664497215260
H      3.967315555656   -2.070694859584   -0.648753364169
H      6.114962920458   -0.831291625684   -0.216418585634
H      7.282736490419    1.282383249058    0.389352715589
H      5.950563629178    3.342126811579    0.870935278715
H      3.474782859396    3.299369734581    0.737129878840
