65

C      1.355633451706    2.898203563383   -2.142315458969
H      0.090363185162    1.853733576044    2.204165612614
C      0.488692883316    5.267040442243   -0.418296914063
H      0.558838961810    5.678373655387    0.594746802724
H      1.195139921194    5.615325817818   -1.175844306912
C     -0.619982590703    4.536472730431   -0.800583391224
H     -0.788047464649    4.281202044856   -1.850033003712
C     -1.835071326411    4.309764603844    0.061883684780
O     -2.567294776466    3.353059407297   -0.066637559504
O     -2.013904431024    5.304089169431    0.924193937696
Pd     0.987803736525    3.124903503125   -0.189104144607
C      0.301234342086    4.012007600268    2.858117527703
O      0.720238406391    3.149260609601    1.958898613009
O      0.482299632394    5.215191343342    2.818144031632
C     -0.470778947799    3.328330733969    4.009560990021
H     -0.709273148096    4.100600438503    4.753077844001
N     -1.706631312998    2.661737081875    3.610901058020
C     -1.717683553949    1.647468960456    2.837112625350
O     -0.621904164724    1.104711208794    2.240640881961
O      0.049854878809    0.022086972592   -0.102537157355
H     -0.334872731170    0.538042521929    0.660598135451
C      2.451997917272    3.542106514637   -2.729697684131
C      2.768374882523    3.371408964968   -4.089013167073
C      1.956750544166    2.532466439828   -4.886130212885
C      0.862491957322    1.894092172567   -4.287061232802
C      0.554082322549    2.067020921228   -2.932363933945
H      3.099379353035    4.188794658688   -2.129374087749
H      0.229166012644    1.241012156072   -4.895579881977
H     -0.305355304641    1.544352215951   -2.504854161593
C      3.962017595357    4.079112723025   -4.682968001912
H      4.692127035686    3.364903484361   -5.100976380953
H      3.669435032072    4.746283411681   -5.511912910896
H      4.483663935652    4.688575477817   -3.930653363081
C      2.259334454463    2.326568842840   -6.350363213536
H      2.236105008311    3.276959527830   -6.911007233488
H      3.264774276195    1.898287387621   -6.504728381313
H      1.531725017569    1.646522180998   -6.816911828331
C     -3.129520190434    5.235718110859    1.844229938377
H     -4.054745944820    5.108216280980    1.259301415784
H     -2.996935020547    4.348685711856    2.483189606350
C     -3.118809963104    6.514834186675    2.653942540577
H     -3.261819928833    7.398269070371    2.012000493702
H     -3.929756911566    6.491505271760    3.398498363836
H     -2.158344858223    6.617901630834    3.181109665909
C     -2.994393936316    0.945332224954    2.476744739487
H     -3.798000225093    1.246689426747    3.159269842726
H     -3.275777045917    1.217349807061    1.445750725678
H     -2.854500952581   -0.146248830824    2.516034606413
H      0.225857235043    2.607866304364    4.483493827919
N      2.017351642260    1.223900403799    0.077499578441
C      1.374845403337    0.077992008071   -0.128649644673
C      2.071888354875   -1.134019893966   -0.419967091767
C      3.439899517077   -1.137542659791   -0.422790127968
C      4.156174296338    0.054845923963   -0.115491207137
C      3.395686825461    1.236795626201    0.141247626793
C      5.572397718646    0.110786146392   -0.055895097645
C      6.218407576923    1.290810944081    0.255281933153
C      5.462607962246    2.456012545196    0.521089047723
C      4.081275577744    2.433807964504    0.464513549440
H      1.476099256985   -2.026954496763   -0.610445208328
H      3.993954474337   -2.055223483151   -0.638103367297
H      6.142166725483   -0.800258890319   -0.257146223405
H      7.309076831785    1.326298356134    0.303251765007
H      5.974803151924    3.385359337166    0.781790314705
H      3.497408730800    3.329483650570    0.688413182294
