74

C      2.636772365329    3.736631739205   -1.055318082767
H     -2.177598345371    1.690212161502   -0.143096839191
C     -0.068274422274    3.337803197714   -2.217227599547
H      0.581710755948    3.734108666713   -2.999313853791
H     -0.670730552180    2.459696837478   -2.467258746597
C     -0.408996529746    4.128916994323   -1.122278153100
H     -1.264697218261    3.858240600334   -0.499255034299
C      0.017686519103    5.553399424610   -0.945927260203
O     -0.182692161083    6.186658462982    0.063491587023
O      0.615176388281    6.054450732614   -2.038594533253
Pd     1.075733974189    2.629230358066   -0.518845462639
C     -0.595082450708    1.656200967351    1.560693330276
O     -0.630051051343    1.419767806477    0.258230789025
O      0.344476814900    2.261938664360    2.061547438572
C     -1.773361219764    1.181421141438    2.442075845410
H     -1.496808713540    1.598397510933    3.423695188892
N     -3.102319559704    1.693475375595    2.164827647299
C     -3.638823137525    2.038080563514    1.062894972052
O     -3.106713271097    2.037152296772   -0.179291223652
O      0.805247930122   -0.541658599041   -0.739341497771
H      0.192230561220    0.181385240487   -0.424322501445
C      3.072129331271    4.683569142017   -0.120251754464
C      4.233432744397    5.446649729422   -0.337468198555
C      4.970019342710    5.257753196244   -1.531014793750
C      4.514233229624    4.310775605625   -2.458669750346
C      3.358969493094    3.550996060883   -2.235442528912
H      2.505709566830    4.844803122751    0.802743642092
H      5.080578124375    4.156693091802   -3.382528014411
H      3.046661324152    2.815022585924   -2.980366145748
C      4.679611484337    6.454336547008    0.694181466426
H      5.689918531886    6.226181625871    1.074993484546
H      4.729902847006    7.473077658639    0.273015946460
H      3.993955933090    6.479833276693    1.553091886183
C      6.222027348462    6.056442216816   -1.801208245733
H      6.020219747029    7.141226064765   -1.818762316377
H      6.986329172473    5.895553887143   -1.021589750591
H      6.669263486164    5.784585207043   -2.768464093544
C      1.094001280459    7.407716898532   -1.952633411669
H      0.246623506101    8.068172914633   -1.707138645734
H      1.811005907637    7.474614887599   -1.118963735594
C      1.731731163891    7.764169563827   -3.278884193187
H      1.003754460686    7.685999322212   -4.101267331923
H      2.105878312180    8.799466634737   -3.248389772908
H      2.577920131916    7.095323597468   -3.498250662429
C     -5.062370305265    2.531956992110    1.036519294814
H     -5.481735339178    2.535038199113    2.048895704115
H     -5.098304343703    3.549242498271    0.613692184189
H     -5.670059582722    1.889950556093    0.378048218095
C     -1.797970999576   -0.381834259222    2.660307460275
C     -0.377847776995   -0.876703339427    2.990904905891
H     -0.405996093170   -1.937536929704    3.288578861931
H      0.297099118507   -0.799862754096    2.124611378505
H      0.068156915583   -0.303299829913    3.819020348685
C     -2.719413025223   -0.667767426101    3.862181704480
H     -2.328752731183   -0.199101791328    4.780240629059
H     -3.728467261816   -0.270289980076    3.686499562593
H     -2.791946978183   -1.753200959965    4.041042196481
C     -2.331058819477   -1.129859986487    1.426309540215
H     -3.350166653313   -0.803494184032    1.169802486553
H     -1.689395891619   -0.983587037342    0.545877101861
H     -2.371020135810   -2.212426302373    1.631016899988
N      2.454796300504    0.958988186203   -0.098169973201
C      2.052349181218   -0.299067826397   -0.356464468817
C      2.944622625028   -1.384530531112   -0.237859350374
C      4.235860012780   -1.151569233206    0.198161218324
C      4.651193062750    0.155227299891    0.526622653881
C      3.714119872618    1.166221170855    0.349573448417
H      2.576304457454   -2.382650601953   -0.477338382232
H      4.932613461834   -1.988626251440    0.301933426955
H      3.975995292972    2.203720441122    0.561292065204
C      6.039110101606    0.446895302593    1.036084050405
H      6.191981798203    1.525219234135    1.187924142071
H      6.226517610291   -0.057380800331    1.998882495445
H      6.808368126157    0.093764467278    0.329547057613
