56

H     -0.393873613854    0.910011344930    0.994286981781
C      1.978198048895    3.260206505632   -2.405639385091
H      2.817861921086    2.566532519065   -2.493732149368
H      2.186897474680    4.331749928569   -2.381833284990
C      0.696560876332    2.804208727120   -2.615002315535
H     -0.135882356861    3.503619971567   -2.725282463643
C      0.421520378039    1.369192903767   -2.966484254234
O      1.277348950749    0.531488349871   -3.128526375035
O     -0.890823487779    1.161689610679   -3.079973036699
Pd     0.999654076071    2.988013121293   -0.402334703346
C      0.115929370255    5.516765570113    0.484223134829
O      0.170665974676    4.793416385191   -0.615402284814
O     -0.135800543602    6.700670343678    0.499435771221
C      0.429151864561    4.760648489683    1.799156172242
H     -0.359742197085    5.065147411397    2.501201429936
N      0.354289375733    3.311751380488    1.540197842548
C     -0.436470662482    2.532627709639    2.233130477886
O     -0.721517457170    1.311606298297    1.914562779726
O      0.037487788045    0.095554857510   -0.091161678893
C     -1.325133594095   -0.200504950646   -3.278360574800
H     -0.768879436815   -0.628703002107   -4.126985267761
H     -1.056755768848   -0.766479918391   -2.372621943628
C     -2.819221415351   -0.184254168378   -3.519354827991
H     -3.071564500701    0.402970620980   -4.415943206592
H     -3.182962813861   -1.213024592562   -3.667079592007
H     -3.352299729811    0.248793482086   -2.659281089609
C     -1.146391018724    2.979594095944    3.491998283165
H     -1.525590475740    2.088065596556    4.005441078257
H     -0.494630780206    3.547119539499    4.165775109622
H     -2.006666523011    3.616642173478    3.228490112446
C      1.774924477694    5.264483226286    2.392751763107
H      1.629879029368    6.356738204711    2.452053894902
C      2.019338757326    4.736429024768    3.810516700138
H      2.959050816677    5.142466376287    4.217046177553
H      1.211819079422    5.028344321329    4.501117074861
H      2.105282372906    3.637014492804    3.822835852798
C      2.989891638666    5.006034627948    1.494338673949
H      3.213801193821    3.929902826535    1.416204821699
H      2.847877382098    5.407490951472    0.478910152011
H      3.883800239001    5.491929027624    1.915994108138
N      2.024048691469    1.209003631079   -0.128250496726
C      1.301242970417    0.032813278089   -0.104944861230
C      2.033081258896   -1.199459114276   -0.083405890141
C      3.405800888323   -1.202687345611   -0.045055692053
C      4.112625455284    0.027202206954   -0.031502875959
C      3.366166475435    1.196843747927   -0.082949055865
H      1.448632103299   -2.120253404443   -0.085913936269
H      3.963772225684   -2.140317117644   -0.019919048659
H      3.884801617147    2.158772896756   -0.094912726999
C      5.588682362985    0.145370027499    0.013761450282
O      6.198013495951    1.192970281963    0.013279551180
O      6.195551858518   -1.058119270440    0.056025987615
C      7.621213320061   -1.043677837979    0.095781446107
H      7.983448468415   -0.509670362149    0.987465819240
H      7.937340368634   -2.093725184511    0.126407290834
H      8.033313256181   -0.547003260043   -0.795807750144
