44

C      1.014071944947    2.649328055482    2.935636423446
H      0.082260437952    3.218233422613    2.917315526352
Pd     1.153313373572    2.998809271860    0.525393905143
C      0.259211090046    5.597696443497   -0.112500757521
O      0.415671885539    4.805435372680    0.931624925946
O     -0.006693490781    6.774725172164   -0.032711093965
C      0.476610716895    4.900472424734   -1.470149868061
H      1.455948470699    5.238247038280   -1.858832713054
N      0.441518689784    3.452708474012   -1.304172721511
C     -0.356833105160    2.650334977399   -2.005451629046
O     -0.619036231156    1.463695850384   -1.688715196550
O      0.154350919139   -0.001519996621    0.117473990314
H     -0.229831277147    0.729449936376   -0.556137174784
C      2.245141222468    3.319717484361    2.772815207820
C      3.477199359310    2.655182649320    2.982458282805
C      3.464623721333    1.298212618638    3.350695947276
C      2.225152969258    0.634565050829    3.493956385226
C      1.016538377192    1.286787846921    3.298423579232
H      2.238953960988    4.397765718177    2.598591308630
H      2.225951295593   -0.420495158905    3.781417950330
H      0.072354546911    0.755963049134    3.435021349069
C      4.773160768677    3.412891633140    2.842130042543
H      5.339138672952    3.425148449035    3.789097630068
H      5.436700429081    2.951294404500    2.090844747549
H      4.596825549527    4.455600275096    2.542227724558
C      4.752193143678    0.557660637661    3.609159587457
H      5.395750135435    0.542935786958    2.713586610386
H      5.338851603856    1.035753022851    4.411680071195
H      4.564157431516   -0.484397449741    3.904235372521
C     -1.004976686801    3.170460796104   -3.281869680901
H     -1.869550141353    3.809962631306   -3.038964754212
H     -0.312527194459    3.757262362690   -3.902185756516
H     -1.367872889765    2.303884592197   -3.847785191794
H     -0.288538738775    5.273263169678   -2.165050000835
N      2.105862023659    1.207782718690    0.036359867852
C      1.455283066272    0.016106062376    0.047855290657
C      2.194131940427   -1.191377516400   -0.019068409804
C      3.567130670783   -1.149329087901   -0.179040447544
C      4.215152265664    0.095621919532   -0.269195626561
C      3.444847204649    1.239524286724   -0.147453227342
H      1.635437827539   -2.127254353938    0.019111955301
H      4.139277295391   -2.077707064007   -0.255874949199
H      5.291810161230    0.174240734599   -0.425064709585
H      3.897124482684    2.232833565885   -0.188979276845
