56

C      1.097266778515    2.705701528803    2.970866116463
H      0.193852719347    3.318275115049    2.980168853291
Pd     1.114053272051    3.072466682095    0.542653381620
C      0.326533460608    5.723800345632    0.029289014048
O      0.587284510051    4.914006344579    1.036088379705
O      0.372860764788    6.931260999458    0.130601283613
C     -0.135461711441    5.027671877574   -1.261453545991
H      0.390873604180    5.521753981526   -2.097118759902
N      0.208868756648    3.597217051905   -1.200789330742
C     -0.110612848305    2.737750152190   -2.170645992518
O     -0.166990058798    1.493983174984   -2.012529819510
O      0.022661468575    0.106089615862    0.004502156734
H     -0.205161524354    0.801428250861   -0.759521179665
C      2.353403993584    3.313836495166    2.762341713005
C      3.556773659896    2.592232760564    2.945997066538
C      3.489960293158    1.241724977943    3.331530414955
C      2.224629465591    0.639606331535    3.514969104145
C      1.044030459729    1.348027490829    3.346173335739
H      2.393411509061    4.388517433007    2.573609392681
H      2.183413904792   -0.411006304755    3.815767761633
H      0.079316016011    0.866311524379    3.518493706221
C      4.883204342251    3.284592709132    2.761191927129
H      5.474108615448    3.281666872878    3.692911423024
H      5.503442457348    2.781307744874    1.999730141446
H      4.749087627536    4.330525164135    2.450994375131
C      4.747061316574    0.444106426973    3.567777779299
H      5.366104958836    0.388420579515    2.656798288476
H      5.375523093453    0.903265586608    4.349424962242
H      4.517778936089   -0.584437144548    3.880718930496
C     -0.382649017981    3.223209772563   -3.588320070174
H     -1.426687226394    3.005159730141   -3.859320309792
H     -0.174724305450    4.285651878483   -3.761291007041
H      0.250543010474    2.615371377472   -4.252036541705
C     -1.671816814504    5.280353636647   -1.435337064591
H     -1.998239826125    4.613838385812   -2.249108301211
C     -2.480525353826    4.900012415262   -0.187844432794
H     -3.559763255033    4.950618406879   -0.403621838940
H     -2.250074531967    3.877112738209    0.147233450596
H     -2.276330233722    5.587091684634    0.648903619911
C     -1.960754059852    6.718010614687   -1.884434791575
H     -1.621112812970    7.443805875256   -1.132233986772
H     -1.445800957825    6.954494551195   -2.830612952811
H     -3.041843656179    6.856822719757   -2.047584530949
N      2.008064235608    1.243199383858    0.031343073501
C      1.333244834471    0.071940365896    0.025061000841
C      2.017636506393   -1.176600119172    0.003574216596
C      3.401115263387   -1.149247163788   -0.111119691686
C      4.086679159426    0.074481004112   -0.197547660050
C      3.353047645066    1.243510918603   -0.108316325561
H      3.954449476162   -2.091450306464   -0.162303361287
H      5.169401817760    0.114795321875   -0.324541467962
H      3.832897621351    2.223632168419   -0.143830578818
C      1.210914146703   -2.443700404437    0.044082565318
H      0.606887107262   -2.502300770987    0.964119743363
H      0.496550564972   -2.475747297430   -0.794129740868
H      1.859186605177   -3.330362107785   -0.006594522694
