54

C     -0.636754226789    2.832471160847   -1.444248980908
H     -1.500166621403    3.259370397612   -1.960141280722
H     -0.005414853224    2.128463311136   -1.991109679961
C     -0.216471378298    3.357307063837   -0.243639021194
H      0.724103435311    3.026790536787    0.209724192274
C     -0.898211693953    4.505280185832    0.449983247178
O     -0.678521486337    4.790399918394    1.603982896180
O     -1.738047444400    5.159916039438   -0.354867617827
Pd    -1.456406195598    1.509654383961    0.162816127214
C     -3.917623308527    2.277049192069    1.340587021134
O     -3.001238161106    2.700259445999    0.497097900147
O     -4.874826551734    2.951692992411    1.657163152873
C     -3.686458084875    0.876089070592    1.945868211213
H     -4.649750184599    0.347232926424    1.871392911812
N     -2.655665227196    0.173155413954    1.166931969201
C     -2.646041948755   -1.121195138496    1.025491279303
O     -1.715325276053   -1.745301460221    0.360199041603
O     -0.054384888168    0.077708734031   -0.252753078757
H     -0.973368935147   -1.114535358910    0.037776680418
C     -2.634629906051    6.107415419978    0.259371484754
H     -3.349413258871    5.536704714203    0.873989421186
H     -2.055665446185    6.765951798649    0.924846321480
C     -3.332814639830    6.874371062833   -0.843321108607
H     -3.902016839320    6.193853654157   -1.494920197128
H     -4.037915738789    7.597675651140   -0.404840138526
H     -2.610393985644    7.428455604390   -1.463154925620
C     -3.712951038835   -2.029671199406    1.582579564029
H     -3.830227095921   -1.896533152049    2.667089762678
H     -4.685257109635   -1.812335796730    1.112918324997
H     -3.437883732429   -3.069619519081    1.371153660783
C     -3.308482208984    0.971674168280    3.458704944111
H     -3.027128180820   -0.056689969636    3.751692424141
C     -2.093880337650    1.872091685421    3.718478834712
H     -1.830713471251    1.851738844380    4.787780454103
H     -1.207001020987    1.544278229174    3.154342057084
H     -2.293997656199    2.920576066539    3.445999742156
C     -4.515085956132    1.384093937900    4.310831082694
H     -4.864397503742    2.390595579605    4.040966397186
H     -5.362543893151    0.691873037919    4.174661421054
H     -4.244148980377    1.379143057450    5.378621148572
N      1.808080596867    1.097505153177    0.662920382348
C      1.211445883403    0.033792386344    0.146078485013
C      1.912805794444   -1.207467926805   -0.018862349557
C      3.243113915781   -1.272872219622    0.374942210711
C      3.854139498681   -0.127009143963    0.919393061905
C      3.096870388732    1.026875016777    1.041588965394
H      3.812551701331   -2.197227396116    0.268139437029
H      4.897709047161   -0.149462211481    1.239140520671
H      3.528333487512    1.941030513512    1.463167994087
O      1.187988260204   -2.222482375867   -0.552023794697
C      1.792518937305   -3.486337610009   -0.702484542691
H      2.130469290179   -3.897402696738    0.266483479516
H      1.027987401391   -4.151344034444   -1.125489319131
H      2.656143431545   -3.448043671562   -1.391264549270
