65

C      1.522620416793    3.235572649682    1.848228167603
H      2.361664921470    2.966453420774   -2.020603005015
C     -0.326529582330    4.887384771529   -0.007598434491
H     -1.004904298453    4.853174591024   -0.860747811007
H     -0.778653202169    4.832073328539    0.985209736492
C      0.985937033093    5.277345350963   -0.149217673946
H      1.586801542123    5.529670039607    0.725635325613
C      1.639620502369    5.715770120060   -1.422865860239
O      2.823608728276    5.954665448431   -1.499419562927
O      0.784513258949    5.843243386799   -2.448260750542
Pd     0.929089848781    3.014412209412   -0.054749384828
C     -2.142745401258    2.487912301635   -1.066367043603
O     -1.822765684678    1.903849426989    0.075777196677
O     -3.040155030938    3.295647424874   -1.152885010657
C     -1.314226817864    2.107702972328   -2.312589807026
H     -1.754584068774    2.725363759390   -3.110993011204
N      0.100397583931    2.492682363575   -2.125838052376
C      0.880604551474    2.590825557972   -3.140227429573
O      2.170349629264    2.906918820860   -2.977685481792
O     -0.036475068675    0.113641599414    0.116883090396
H     -1.071798513077    1.204019594422    0.038594710209
C      0.602884151045    2.836138309472    2.824615228873
C      0.910774404499    2.916971066280    4.193752959181
C      2.175194055885    3.410974825370    4.591094805209
C      3.082961973078    3.805374698689    3.600149945270
C      2.771313909700    3.723607578812    2.236842190344
H     -0.374202452064    2.441324228698    2.530793301810
H      4.063450333415    4.189772641256    3.897973204060
H      3.511201198674    4.048135589345    1.499891751196
C     -0.101796160314    2.473527433773    5.221187637416
H      0.289145581814    1.653806537177    5.848081623095
H     -0.368458250268    3.293611065535    5.909870672553
H     -1.027231384650    2.119488389184    4.744882826773
C      2.542225025804    3.510347101005    6.051631076621
H      1.846495295941    4.164241620659    6.605130608004
H      2.507371547974    2.525982616089    6.549365172032
H      3.556580354609    3.914876988826    6.182554375789
C      1.340513315072    6.303500333615   -3.696590981007
H      1.899975774459    7.233623409115   -3.510278832498
H      2.066998897562    5.554278723730   -4.050380616146
C      0.201282750075    6.511776691165   -4.671728631688
H     -0.512511251878    7.258075252708   -4.291084275508
H      0.595721906496    6.871252917360   -5.634850023318
H     -0.348214406507    5.575169927813   -4.853117802061
C      0.548610592032    2.392776534397   -4.592304919963
H      0.869281319672    1.387791013375   -4.910047281767
H     -0.522981368879    2.499435520135   -4.795277827678
H      1.114475874641    3.118990762760   -5.191939606579
C     -1.502677680927    0.622097602645   -2.657478476083
H     -1.018098840349    0.369983612318   -3.612137325620
H     -1.082798249941   -0.016587887520   -1.868887450461
H     -2.577091916610    0.403176962600   -2.759478613237
N      1.986180585552    1.191936903415   -0.007660009837
C      1.226245146156    0.050564627668    0.071549919412
C      1.906240280248   -1.228954318232    0.101892522561
C      3.284927092357   -1.255271333265    0.063590585887
C      4.033028907584   -0.057751634520   -0.001039533361
C      3.340752796696    1.132682580753   -0.021506143669
H      3.804142910639   -2.218414821961    0.092674135714
H      5.123405541561   -0.061785712352   -0.022184883429
H      3.868524831136    2.089456047082   -0.043125662618
C      1.054542366074   -2.462058371035    0.193983646516
H      0.401121016703   -2.421140875202    1.080879301845
H      0.378430029856   -2.544472255839   -0.673739063423
H      1.670630913583   -3.371946653725    0.246652521180
