51

H     -0.584227178053    1.051640747269    1.116763525682
C      2.137010117881    3.175030197470   -2.283728020329
H      2.967121176535    2.464284169607   -2.270725419470
H      2.362552340760    4.243520548519   -2.280767477908
C      0.871392841252    2.729260734000   -2.590409999111
H      0.063858145448    3.434460029590   -2.802990856845
C      0.608948422017    1.283669232329   -2.911664085684
O      1.464916042080    0.430298190274   -2.942162146724
O     -0.684104885626    1.084860555378   -3.158193640241
Pd     0.985844777701    3.002851850838   -0.364760820035
C      0.091717672708    5.580061495248    0.358417897873
O      0.260115285949    4.828911499946   -0.706230674270
O     -0.244118883431    6.742197072653    0.320581092117
C      0.374370384174    4.872368921758    1.716363247510
H     -0.406000455549    5.246342366229    2.395352979154
N      0.237926316879    3.425979749040    1.513180092500
C     -0.495378491613    2.689554639015    2.306049689914
O     -0.829489407493    1.465995342504    2.055396799213
O     -0.197967274968    0.248277713841   -0.005988624141
C     -1.110151403011   -0.281785376508   -3.357114918775
H     -0.521975579656   -0.715575820281   -4.181396357099
H     -0.875542013602   -0.843198733117   -2.439715054904
C     -2.593731878202   -0.268137019886   -3.653899346607
H     -2.813694110221    0.315241766982   -4.561438995087
H     -2.949753830742   -1.298165554788   -3.810685256870
H     -3.157542275135    0.166653168502   -2.814721315757
C     -1.043951767318    3.204189618155    3.616157185169
H     -1.337042044711    2.343079183157    4.228987943060
H     -0.312248644184    3.817457330001    4.158531625793
H     -1.942958664272    3.815813729736    3.434924933044
C      1.735745343538    5.286346018173    2.282949803352
C      2.678246726634    4.338417306124    2.706139653467
C      3.906354160653    4.745129534450    3.242090817693
C      4.205316922019    6.103116199959    3.363423465918
C      3.267239887264    7.054298354103    2.946294723864
C      2.042442688998    6.652428716589    2.411296479382
H      2.453561532791    3.273672378567    2.622263463468
H      4.628786748090    3.991961553249    3.567482651649
H      5.163418837364    6.421062109282    3.782260976467
H      3.490961344452    8.120347583002    3.037545049670
H      1.316156803501    7.394508566360    2.073762931982
N      1.876444731570    1.182679314861    0.055311040686
C      1.055023151254    0.087242228925    0.051096855441
C      1.699811315498   -1.200770416942    0.117583115718
C      3.066348127053   -1.314061282978    0.246437171835
C      3.844973823141   -0.139126230344    0.303455377276
C      3.218418675848    1.086046617110    0.194002480096
H      3.538056990086   -2.295622969580    0.308044009636
H      3.790327018572    2.015864568735    0.213739468208
Cl     0.687600928140   -2.607616866488    0.041754502760
Cl     5.576167336609   -0.230458838247    0.494114383258
