65

C      2.440514202842    3.793367781833    1.426529123094
H      0.349739127127    1.895632113312   -2.571607063710
C      0.228898228276    5.311474723470    0.046442457266
H      1.048626831275    6.006232921311    0.238552510577
H     -0.224591760378    5.294878450854   -0.947259721693
C     -0.444444978198    4.714158950331    1.092908185726
H     -1.387339560861    4.202751374170    0.879643311612
C     -0.194828087794    4.978961705029    2.547536292483
O     -0.658696654786    4.297331058237    3.431403924215
O      0.553746138394    6.070868719692    2.752931429384
Pd     0.966338480710    3.225717388021    0.208993788195
C     -1.613198466625    2.878850555986   -1.699420447637
O     -0.477419902310    2.385042140163   -1.220480782128
O     -2.196671412423    3.826487969433   -1.207369693124
C     -2.166106882998    2.167664899807   -2.958589304803
H     -3.160758874453    2.620556029170   -3.086344331423
N     -1.440022920871    2.423259978792   -4.199810007479
C     -0.195913544949    2.212318576298   -4.385367793054
O      0.729873085724    1.818715813908   -3.483333171823
O      0.035111341674    0.174731603544    0.011395595279
H     -0.329380770455    1.019617115208   -0.387748154890
C      2.549263529451    3.233610179396    2.705099280182
C      3.634239185708    3.527996591726    3.548549727013
C      4.642163358095    4.412962849705    3.097020460525
C      4.519714049954    4.969726873562    1.817227020242
C      3.433528887927    4.673167389326    0.983144011071
H      1.777755101090    2.550424203789    3.071143243204
H      5.293130061177    5.656253391521    1.458764920336
H      3.383493278328    5.132306262144   -0.008264760999
C      3.720509431989    2.896750868265    4.917007562021
H      4.632823363759    2.285367825258    5.025433135444
H      3.759908167271    3.657581445645    5.715315241146
H      2.855235999564    2.248059185236    5.114823654098
C      5.826507755419    4.747878670314    3.970573973525
H      5.515935136811    5.209044930842    4.923787597980
H      6.406132848863    3.846994720980    4.235827229389
H      6.509422907010    5.448159933657    3.467827671613
C      0.860709071102    6.400667031296    4.119610141234
H     -0.083975004218    6.528772833452    4.672440805211
H      1.392702493179    5.549781529816    4.573799801685
C      1.699782266984    7.660904406109    4.120225781529
H      1.156445739568    8.497965232433    3.655139354216
H      1.948181773793    7.944584478902    5.154878971081
H      2.639236566954    7.505801752529    3.568143201653
C      0.409161306022    2.388961305335   -5.752615562752
H     -0.365542531633    2.676128856691   -6.472609998566
H      1.198987947492    3.157404303248   -5.723227746585
H      0.888474843745    1.448880402688   -6.071715367700
C     -2.356269925845    0.660217754962   -2.722217016286
H     -1.395897045753    0.151382908607   -2.551650793770
H     -3.005716583401    0.474199074044   -1.851581983453
H     -2.828475031086    0.210859602643   -3.608882008125
N      2.030337017743    1.347688544830   -0.088420234921
C      1.358251545289    0.178900336829   -0.044266164819
C      2.021767103634   -1.078059250431   -0.041746698587
C      3.405662306928   -1.065894111591   -0.148698482263
C      4.101225660547    0.148975377607   -0.252450348913
C      3.379384427634    1.326342211503   -0.208075028452
H      3.950272524498   -2.014102503897   -0.164512248624
H      5.186895649234    0.178621337398   -0.352709329787
H      3.874715798563    2.295975071755   -0.248178198509
C      1.205244588235   -2.336660422191    0.046892741092
H      0.602420565644   -2.355864510241    0.969228730310
H      0.491684687643   -2.402247668515   -0.790255883248
H      1.849970354576   -3.226863698914    0.030977328846
