56

C     -0.752112961769    2.865827326188   -1.655513703979
H     -1.629887229101    3.333720975128   -2.107335676564
H     -0.190595012700    2.139522236908   -2.247030043086
C     -0.233746364396    3.367244033055   -0.483109134334
H      0.722559896573    3.022357109480   -0.081854689761
C     -0.822821362887    4.542045723534    0.251693317263
O     -0.494684287953    4.836306203276    1.376667321217
O     -1.714673256768    5.205321755674   -0.487032396929
Pd    -1.516366803849    1.572539990705   -0.002859850990
C     -3.885132913370    2.373686184585    1.334158848744
O     -3.005860642169    2.797526344120    0.452590866727
O     -4.801228585533    3.064777734289    1.727443381419
C     -3.665664700430    0.945281254817    1.880751116573
H     -4.645920327212    0.444793618998    1.836086666013
N     -2.697741601311    0.243697688805    1.024000560476
C     -2.720712468726   -1.043365830130    0.839104056265
O     -1.838386309528   -1.650816686508    0.091479104074
O     -0.149534932507    0.138089597581   -0.543149453711
H     -1.122053161165   -1.000424652771   -0.247659200859
C     -2.538349232652    6.177546407466    0.188237758047
H     -3.215959757378    5.626670679146    0.860211660223
H     -1.893772781796    6.825724789234    0.801353888846
C     -3.302798220112    6.954422504746   -0.862224204652
H     -3.936839229371    6.283761682840   -1.462076892595
H     -3.954632096468    7.696352769574   -0.375175052829
H     -2.618681926417    7.488184858977   -1.540585658255
C     -3.763966891084   -1.957640328908    1.426910930569
H     -3.818620544455   -1.855276152430    2.519609352099
H     -4.758010196486   -1.714703471687    1.019157153062
H     -3.515111717888   -2.993856171913    1.169537684755
C     -3.207837744955    0.974573046342    3.374218866060
H     -2.924839868043   -0.068720543420    3.611684302695
C     -1.964489533657    1.848232693791    3.588279905241
H     -1.599669643310    1.759042427004    4.622094277942
H     -1.135628037766    1.551031625040    2.927413880357
H     -2.178732395598    2.912758340230    3.400922223054
C     -4.383136519689    1.348451184194    4.299524541722
H     -4.706273143670    2.376089069158    4.072080739241
H     -5.244948393833    0.705321713097    4.044319946026
C     -4.084514506460    1.201775052956    5.793058150059
H     -3.311905720489    1.908095783100    6.134432794465
H     -4.989047106238    1.397577837619    6.390429408814
H     -3.737335906330    0.183855611572    6.041907350600
N      1.379588867005    0.916575483116    0.990879409010
C      1.036342713447    0.024816991647    0.060002952112
C      1.888716987991   -1.043892240147   -0.310289862004
C      3.124377725610   -1.185908619710    0.315479973092
C      3.471296370176   -0.236457167211    1.299619495774
C      2.572164885994    0.782287164044    1.589343830055
H      1.561818792405   -1.740052194121   -1.085755728949
H      4.427529792265   -0.294160195127    1.824915880384
H      2.815998778922    1.537009850292    2.346038825613
C      4.064760316347   -2.308735610869   -0.040405310290
H      4.273648668252   -2.940079014864    0.839249109232
H      3.652537750152   -2.951447310394   -0.831581926705
H      5.034089256155   -1.915101595704   -0.388564740510
