74

C      1.389112324399    2.887594960996    2.152330578070
H     -1.457362825571    0.248101287656   -2.784373866075
C     -0.721777317626    4.654654745333    0.785617397740
H     -1.447133402087    4.653588700542   -0.029821200694
H     -1.075471726565    4.395638213874    1.786377828737
C      0.512867576973    5.247965712923    0.619673051186
H      1.155217573540    5.436502278572    1.482515577386
C      0.997017949205    5.936449785493   -0.624401147146
O      2.169756649321    6.163506351803   -0.818070254144
O      0.006060730479    6.285651622535   -1.449377464353
Pd     0.728415907422    3.066465547517    0.269727869665
C     -0.799380410261    2.427384587481   -2.275489196917
O     -1.269581361477    1.420931529312   -1.661101879987
O      0.014118444400    3.245248214839   -1.767006626724
C     -1.234702014811    2.707810148033   -3.731073659959
H     -0.648493654737    3.600196399279   -4.000599705413
N     -0.900854653277    1.704557045357   -4.726555134560
C     -0.965671231037    0.432792928780   -4.633697561190
O     -1.312709212963   -0.327162903317   -3.580561324376
O     -0.168416005060    0.035078615362    0.153959480076
H     -0.635109143161    0.711164478273   -0.456635788284
C      0.627489582547    2.151038310554    3.068891135962
C      1.049569481503    1.962150576175    4.396186220897
C      2.275944651968    2.526257678058    4.818538191775
C      3.031779456782    3.255383147056    3.891684321579
C      2.603017780115    3.441875433744    2.571282719165
H     -0.313476024172    1.689529771857    2.753905953085
H      3.983351129946    3.693889703775    4.208311848047
H      3.227171109036    4.021541839575    1.884752297158
C      0.200882441602    1.160362786966    5.352789292514
H      0.747257733646    0.286225679983    5.746777158970
H     -0.101672887790    1.759203325207    6.229063684330
H     -0.713634073847    0.791926333660    4.865858318349
C      2.763800895806    2.346000145232    6.235375429674
H      2.049348645382    2.755809999123    6.969974346953
H      2.895893918264    1.280360654688    6.490398552060
H      3.729270868314    2.848728698102    6.392717458406
C      0.372681874634    6.884074859430   -2.710856153829
H      1.293822960049    6.405372259170   -3.072206802107
H     -0.453864533912    6.626573459648   -3.387718037100
C      0.543013237781    8.388512847829   -2.588833094296
H      1.389336168748    8.635640334236   -1.931197463943
H      0.744180371248    8.820790596559   -3.582121143334
H     -0.368978402027    8.858289670470   -2.188614508370
C     -0.628382370295   -0.421926725618   -5.829222628384
H     -0.341492318908    0.208242371212   -6.678616445072
H      0.193086943221   -1.112475547419   -5.577884829294
H     -1.496932705098   -1.044648071212   -6.099416694992
C     -2.743143112765    3.167470246273   -3.828567019974
C     -2.948350686166    3.784110898924   -5.225740580335
H     -3.998232407023    4.091656070118   -5.362172134210
H     -2.314478576145    4.675807984360   -5.363788736465
H     -2.687158097372    3.063702073578   -6.013506714145
C     -3.728365153125    2.000723440928   -3.639664417351
H     -3.603044193064    1.235256884683   -4.419558970125
H     -3.602394191213    1.517998985462   -2.660148281787
H     -4.764186649315    2.372919746851   -3.705641741083
C     -3.023265264915    4.239179180711   -2.758234117211
H     -3.014382152967    3.809524840400   -1.743506107374
H     -2.282057500129    5.052942917698   -2.787443817451
H     -4.020107184566    4.682048468015   -2.915412753468
N      1.771887693052    1.245912796415   -0.127903642143
C      1.141133810117    0.060869779185   -0.020884085605
C      1.852792977527   -1.168402990869   -0.071709914027
C      3.226534582680   -1.102803560722   -0.269106627800
C      3.870294451067    0.136265747316   -0.418415691652
C      3.106843443531    1.286234116072   -0.337163585806
H      3.804618376181   -2.029565324738   -0.323750938969
H      4.945752186694    0.204076410302   -0.587321820073
H      3.554312277443    2.277934197933   -0.427187350359
C      1.090619695633   -2.457231273938    0.053898549236
H      0.554098938639   -2.510114611262    1.014939057322
H      0.324038217386   -2.532032795579   -0.734273894907
H      1.762526834840   -3.324102897529   -0.021634344984
