29

Pd     1.097600653969    3.082013658959    0.158740036881
C     -1.722665971185    3.447598776614    0.088900116939
O     -0.820464037874    2.465379204427    0.114827484333
O     -2.909646110408    3.257614483199    0.030401776811
C     -1.139428890104    4.894368244666    0.135885464105
H     -1.605391477196    5.404235244544    0.997867827848
N      0.291997450501    4.828449403917    0.238801929812
C      1.378670291573    5.567163797055    0.162228027638
O      2.459210030543    4.875431068678    0.162217288907
O      0.024923670625    0.009377092709   -0.025658339761
H     -0.422293035264    0.901915952676    0.021470387597
C      1.408208347840    7.064360121676    0.081939190189
H      1.885146391031    7.369367161501   -0.862811384565
H      0.401153481992    7.500644920177    0.139451433511
H      2.026539275451    7.460174010052    0.902282694879
H     -1.483499889160    5.413400058832   -0.777180388607
N      2.024962709189    1.203836140221    0.054223982046
C      1.340713538132    0.043637294186   -0.016676660847
C      2.039023760630   -1.185432327253   -0.084170028677
C      3.419292451783   -1.187148297235   -0.077254825118
C      4.140293746832    0.026381477691   -0.003756428920
C      3.381104262970    1.184793623937    0.059310003034
H      1.452274526328   -2.102958527415   -0.140250215151
H      3.958850234683   -2.137433705628   -0.129311712297
H      3.859782567067    2.166961179440    0.117645813910
C      5.646506474946    0.061378754783    0.005808122201
H      6.024118720816    1.092602969786    0.065080462479
H      6.055000542417   -0.495890506565    0.865266893988
H      6.064035915502   -0.397509912104   -0.905870609175
