65

C      1.354048271726    2.898124487300   -2.140441750179
H      0.092608330015    1.853905496136    2.207465279812
C      0.488639811805    5.266899178436   -0.415715222937
H      0.559802870175    5.678272521599    0.597242407097
H      1.194348651023    5.615109676538   -1.173983199284
C     -0.620401854368    4.536311715884   -0.796880447228
H     -0.789472106010    4.281002770961   -1.846158222297
C     -1.834707889747    4.309623123318    0.066695228838
O     -2.567048331827    3.352918167043   -0.061170310058
O     -2.012811082047    5.303943057764    0.929124688831
Pd     0.987906816845    3.124726568403   -0.186903394626
C      0.304374358191    4.012283928530    2.860780241974
O      0.485551396468    5.215435448881    2.820325572895
O      0.722323145594    3.149254101288    1.961331726889
C     -0.466599648710    3.329020971487    4.013163660287
H     -0.704347853067    4.101594590805    4.756632933982
N     -1.702881765452    2.662395086811    3.615867902993
C     -1.714805813669    1.647943639692    2.842327122374
O     -0.619696199957    1.104952765511    2.244841502365
O      0.049225671550    0.022101025893   -0.099107508266
H     -0.334473851244    0.538239757256    0.664407798039
C      2.450391033619    3.541511252760   -2.728426185193
C      2.765647328931    3.371068068357   -4.088034216489
C      1.952860653644    2.532957648590   -4.884841317933
C      0.858658616511    1.895058342525   -4.285161539164
C      0.551391986160    2.067696373023   -2.930159171319
H      3.098617136490    4.187595905689   -2.128365758935
H      0.224453736911    1.242602708381   -4.893435033146
H     -0.308064027525    1.545435891810   -2.502178749282
C      3.959320554584    4.078172207784   -4.682626810041
H      4.688553747476    3.363627758203   -5.101585891638
H      3.666559019415    4.745969831352   -5.511011167114
H      4.482025358632    4.686872368696   -3.930438577620
C      2.254185023964    2.327405278186   -6.349389096506
H      2.231473295973    3.278029392880   -6.909609757324
H      3.259072317047    1.898221300244   -6.504664265185
H      1.525604910501    1.648270617691   -6.815701396548
C     -3.127860301608    5.235725311476    1.849871186209
H     -4.053433369872    5.107982183809    1.265536459646
H     -2.994794614204    4.348886445289    2.489002853223
C     -3.116777413916    6.515061474414    2.659236818142
H     -3.260075179038    7.398299850395    2.017090601453
H     -3.927397566252    6.491964406677    3.404188848962
H     -2.156050716619    6.618295544165    3.185928515743
C     -2.991962143981    0.945844272460    2.483405737709
H     -3.794878939500    1.247535206232    3.166563593943
H     -3.274286206169    1.217505109711    1.452572995895
H     -2.852196411202   -0.145726805546    2.522964458457
H      0.230411501441    2.608645893587    4.486697759071
N      2.017233829843    1.223438503332    0.078616253985
C      1.374185181520    0.077710503964   -0.126884007022
C      2.070563379357   -1.134431286655   -0.419260984715
C      3.438565550644   -1.138248313981   -0.423914000457
C      4.155527269531    0.053932294619   -0.117349781527
C      3.395652026569    1.235987046597    0.140643986966
C      5.571840157191    0.109552832402   -0.059582751188
C      6.218530999954    1.289353035014    0.251078291790
C      5.463346997381    2.454633273242    0.518201684168
C      4.081937474882    2.432757293796    0.463359626115
H      1.474315584640   -2.027211534135   -0.609078158916
H      3.992126255386   -2.056020150323   -0.640138025057
H      6.141138574849   -0.801558915352   -0.261785804717
H      7.309269327784    1.324584109117    0.297672869250
H      5.976098631596    3.383774961932    0.778581658828
H      3.498561786765    3.328487972304    0.688282929628
