71

C      1.105386877129    2.662521760268    2.238713678771
H      0.389416468484    2.233818491262   -2.143745405177
C     -1.113754183808    3.927749814172    0.894629153919
H     -1.232668830763    3.829568100785    1.974734776698
H     -1.825478916959    3.391218434229    0.256177923840
C     -0.268930171603    4.888379336288    0.378336213032
H     -0.320354967032    5.145216823988   -0.682162263715
C      0.498529667913    5.891847836652    1.181895320852
O      1.391174200336    6.564042956324    0.714547085338
O      0.079589367534    5.975565090699    2.449052147949
Pd     0.821111527434    2.940513263061    0.286999383791
C     -1.746669477389    2.014446875946   -2.065840926012
O     -0.674984562965    1.266422804840   -1.993682860612
O     -2.667720076264    1.990412299161   -1.261528987821
C     -1.785176583404    2.992426067052   -3.269999024182
H     -2.750579922018    3.512113659136   -3.180074683605
N     -0.780678479557    4.052051401812   -3.332246456816
C      0.374002044633    4.085550351893   -2.810827017058
O      0.948662028145    3.104708550143   -2.028597502315
O      0.108206407260   -0.149934639316   -0.104792519517
H     -0.330186082674    0.479455090652   -0.833189008079
C      0.398942087576    1.686382397181    2.947573588398
C      0.658184941314    1.449539004719    4.307908069760
C      1.656654556603    2.206571659845    4.966219004563
C      2.359676833375    3.171478624662    4.233880861912
C      2.094474739979    3.410302115949    2.878071967979
H     -0.359743715251    1.083408395935    2.441615407601
H      3.140324920604    3.754904535049    4.732051841323
H      2.669278181031    4.172258655809    2.344127539900
C     -0.120077450177    0.390352759344    5.049363207950
H      0.544982294149   -0.388458543658    5.460167634138
H     -0.669614939770    0.815648335304    5.906538919527
H     -0.850725728962   -0.103546347666    4.393146712095
C      1.965796645746    1.974807755850    6.425125910990
H      1.080489686437    2.141007698182    7.062467619681
H      2.294337892378    0.938209659757    6.613011261488
H      2.762408287553    2.646307360853    6.777419646400
C      0.768589839504    6.902735231225    3.309877391419
H      1.832184327746    6.618828794430    3.354037062799
H      0.718049834025    7.906067665309    2.857583310765
C      0.111347340930    6.852264096352    4.672393139946
H      0.181554437828    5.842174106837    5.103729058283
H      0.611858162593    7.556935007064    5.354587616858
H     -0.951759815397    7.130753780905    4.608338220800
C      1.295699584028    5.259832487368   -2.997830682250
H      2.236218564996    4.924918534966   -3.464823675894
H      0.814456863244    6.012642965004   -3.633063701914
H      1.559534651816    5.710927663343   -2.026352509867
C     -1.767192019900    2.222082778091   -4.608177502920
H     -1.865974282453    2.969071443155   -5.415291627928
H     -0.770684114589    1.762782650446   -4.722446873902
C     -2.840884999001    1.130404938777   -4.772276473249
H     -2.652047467961    0.356821307159   -4.005391674478
C     -2.692201728394    0.459660831562   -6.144598737963
H     -1.676405861923    0.056901221885   -6.290247568329
H     -3.403928140225   -0.373785224949   -6.261026494548
H     -2.885163453130    1.178674185394   -6.959818425534
C     -4.267895336134    1.655790954945   -4.564563960293
H     -5.007885254667    0.863029531588   -4.762200763581
H     -4.428069587569    2.002983031513   -3.532798546303
H     -4.487712815065    2.493205686197   -5.250155480904
N      1.997385353914    1.185554309366    0.037790664084
C      1.408409052781   -0.037387685040   -0.018927150047
C      2.211043564415   -1.203375662380    0.047243829139
C      3.587250899512   -1.092086786004    0.122971750598
C      4.179208582712    0.183054038487    0.132091322658
C      3.344708273932    1.285799200246    0.096248615955
H      1.700972787310   -2.166725089507    0.014629669806
H      4.208554239540   -1.990609798190    0.163590338112
H      5.260619995089    0.316246286077    0.178632112343
H      3.750589622203    2.299350372080    0.128881424552
