59

C      2.559712709674    3.897774863208   -1.241508012213
H     -0.410770014078    1.025670169673    0.213361146180
C     -0.020255391767    5.144513859646   -0.232873281945
H     -0.784530535104    5.084358287804    0.544163238505
H      0.784231666788    5.871152517582   -0.096853320235
C     -0.247490082369    4.586952024489   -1.479028498702
H      0.398209745990    4.841671113757   -2.322602760737
C     -1.506911091608    3.892215523289   -1.926083333947
O     -1.544250280136    3.244634961559   -2.946885447366
O     -2.548807003326    4.114096814349   -1.119532060825
Pd     0.968661122610    3.190752873934   -0.268628666469
C     -0.640179719740    2.572578144739    2.125209295493
O     -0.742588735102    2.427546510548    0.825914480154
O      0.380433048668    2.880991886880    2.715142436255
C     -1.947521294418    2.316372991977    2.886113259451
H     -1.913722067450    2.917724237129    3.807531631919
N     -3.085961265165    2.637128318014    2.053550578810
C     -4.403481629683    2.693579885874    2.397972395109
O     -5.267911153038    2.966475586923    1.574477038832
O     -0.027851670685    0.139985949411   -0.083113961909
H     -2.867115618622    2.792872703511    1.072457491817
C      3.444266794189    4.740607168304   -0.554872536994
C      4.628077746767    5.209717033557   -1.152651095204
C      4.925942234807    4.829653727046   -2.482007083054
C      4.026658258286    3.994770343915   -3.159488862826
C      2.850902070141    3.529188644091   -2.558457323021
H      3.230970871920    5.040478241477    0.476645279843
H      4.249758571060    3.697497169568   -4.188766483892
H      2.176885400786    2.879677709038   -3.123468983189
C      5.561368537099    6.109728339163   -0.380436925427
H      6.567014537399    5.665961255718   -0.284855623673
H      5.696544224274    7.082175027445   -0.884054982934
H      5.184017230570    6.306320312243    0.633522371895
C      6.183886124980    5.313603212699   -3.160643293135
H      6.220945277452    6.415157464402   -3.214977249707
H      7.089682004467    4.997277164003   -2.615507391931
H      6.259085174533    4.925813247257   -4.186864901090
C     -3.839883213285    3.573757176524   -1.519528951022
H     -3.672288034055    2.596841488700   -1.994971932928
H     -4.392673288987    3.438322330574   -0.578820747475
C     -4.560361941695    4.525504372279   -2.457570869414
H     -4.017533479831    4.641228788009   -3.407889438904
H     -5.562202159543    4.126516060414   -2.682649541309
H     -4.686041454871    5.515817707712   -1.992892741405
C     -4.738093110272    2.409057196167    3.852707792695
H     -5.826191137580    2.465980899567    3.975214048109
H     -4.386200318775    1.409810263710    4.156475221588
H     -4.258046609378    3.142648026821    4.520809466989
H     -1.937826425330    1.251847810625    3.197276248238
N      1.997476584182    1.272041551302    0.011685413707
C      1.281316995989    0.128007679480   -0.001578042317
C      1.953073003392   -1.126031043428    0.058688524073
C      3.330454270485   -1.170732152038    0.184088628547
C      4.036204640203    0.039449828801    0.245608706444
C      3.340694467614    1.233570174062    0.148411504031
H      3.848511489928   -2.128469394248    0.243901642948
H      3.866123748197    2.187403325593    0.162965967224
Cl     1.018889818847   -2.584135973578   -0.003783753508
Cl     5.767598618206    0.047460419970    0.423634818330
