75

C      1.891666036440    3.117532839650   -1.820167693583
H     -3.041852469054    0.586370439990    2.771055368781
C      0.293677524047    5.123405051414   -0.135315601882
H     -0.025876381809    5.333298088271    0.887819058875
H      1.193702911377    5.618402827471   -0.506750550391
C     -0.568344937394    4.499176765186   -1.014088627474
H     -0.340461222366    4.457207001596   -2.081619260088
C     -1.999044663002    4.142390506808   -0.724433954511
O     -2.663961432575    3.481862065965   -1.488726467735
O     -2.446919023810    4.672654489834    0.418585724485
Pd     0.813710995720    2.980990192963   -0.138462628646
C     -1.061347846802    1.979418522225    2.058343058490
O     -1.300243969768    0.935436866128    1.402628500993
O     -0.258850784351    2.898289693781    1.728344045825
C     -1.811403246372    2.161579502436    3.390782563133
H     -2.043513121354    3.229261382521    3.503752892713
N     -3.077116541154    1.452333547339    3.300526044610
C     -4.284149433762    2.052440008090    3.510542969963
O     -4.400895978035    3.199805812161    3.920813140316
O      0.130293649827   -0.065776870461   -0.385741385156
H     -0.487154107354    0.449520401148    0.279702836027
C      3.036448899313    3.921935361994   -1.890201487946
C      3.818977557964    3.998898829215   -3.056051116833
C      3.440025467278    3.246518102001   -4.190866762350
C      2.294348361209    2.443127851714   -4.109400058647
C      1.522630584647    2.369715718707   -2.943900458257
H      3.353673794970    4.509022057265   -1.021700175800
H      1.994642729257    1.854612379440   -4.982185953910
H      0.640474757333    1.723953277710   -2.921640960664
C      5.046616772762    4.876722102152   -3.088785980399
H      5.958548181392    4.294529378150   -3.306670013113
H      4.975609608608    5.648438997745   -3.874527097827
H      5.199624821662    5.390862416899   -2.128462485916
C      4.249283183869    3.303891186792   -5.463697553233
H      4.302477016849    4.328796079431   -5.869868539939
H      5.291473213835    2.978209615805   -5.302289797948
H      3.815328870141    2.659355361713   -6.242039585924
C     -3.829869623391    4.436924375110    0.773068249493
H     -4.103779436548    3.423067411782    0.446824389095
H     -3.857638730412    4.480162436550    1.869707264834
C     -4.743364216838    5.477166842641    0.148091716441
H     -4.739320753509    5.403322856369   -0.949843513568
H     -5.775612921354    5.318637182109    0.498872879913
H     -4.437923689111    6.494634117788    0.438311077163
C     -5.498305035824    1.194388694631    3.188122393539
H     -6.224987209671    1.293323556136    4.007082953059
H     -5.978734867589    1.585622670196    2.276999288681
H     -5.258965678625    0.132058526058    3.034961827449
C     -0.960474037996    1.731024172394    4.643119017125
C      0.313187329009    2.590749681258    4.737995972784
H      0.863359499524    2.342955449440    5.660525272044
H      0.986343373719    2.429879910129    3.884307057050
H      0.068259363139    3.664585472194    4.770147213296
C     -1.810112781992    1.967473967878    5.906376288217
H     -2.136311288549    3.016233719820    5.980500125504
H     -2.711953117007    1.337635103675    5.909236741891
H     -1.225093547709    1.722505989566    6.807911979816
C     -0.576720074290    0.242562866733    4.558092288998
H     -1.470660784364   -0.398647692098    4.501003044828
H      0.047494169551    0.027055638478    3.677205423923
H     -0.011111077988   -0.057858612689    5.455158437999
N      1.936613210497    1.208645859442    0.269703860138
C      1.390749475521    0.021904445358   -0.039468551469
C      2.197738114485   -1.164871339298   -0.017334140602
C      3.526304166174   -1.065018218622    0.375114452301
C      4.048997463183    0.192561132890    0.732729522195
C      3.232570225481    1.301105056769    0.660122377699
H      4.162888409505   -1.949194225301    0.419144071979
H      5.087452332936    0.296022620303    1.050546624315
H      3.598974580803    2.300819040713    0.897135214429
O      1.561715057133   -2.295592553115   -0.376325435985
C      2.281440987381   -3.508359140439   -0.387963844242
H      2.661292075687   -3.768780515061    0.616855524151
H      1.577975575419   -4.284736644153   -0.715624163508
H      3.131969173806   -3.472841214124   -1.092786938143
