74

C      1.875050936945    3.157137650035   -1.907900090117
H     -2.992282943423    0.523664891657    2.795476135283
C      0.272601706823    5.142215194759   -0.230642879001
H     -0.023430673482    5.365054640778    0.796933829519
H      1.159977121319    5.637069650057   -0.631094797737
C     -0.609176498796    4.501537475344   -1.077548508347
H     -0.410275839271    4.444522136910   -2.150368995951
C     -2.027546355975    4.141144032321   -0.736536715296
O     -2.700734138987    3.430155773244   -1.446605128494
O     -2.452874511930    4.727860177605    0.386440114897
Pd     0.802300191339    3.001828982209   -0.223946344406
C     -0.998675903277    1.929320126690    2.007024318930
O     -1.184647731444    0.857201037312    1.382547054844
O     -0.281806081452    2.901305849732    1.633310415334
C     -1.695322528958    2.062174591093    3.372732089655
H     -1.873772641422    3.126478558375    3.577423735530
N     -2.993181028992    1.412820903200    3.286040500383
C     -4.175613399487    2.057362168615    3.502803125980
O     -4.247212904296    3.211013515614    3.904841974452
O      0.221511649000   -0.076228078235   -0.459579216268
H     -0.399245450032    0.413380486732    0.220731205093
C      3.014888526060    3.968309197772   -1.982619410486
C      3.789536625675    4.054547064690   -3.153092424891
C      3.408247118392    3.303935960902   -4.288339655962
C      2.268101847005    2.493233880951   -4.202534222016
C      1.504136910141    2.411262895238   -3.032461448117
H      3.333707812450    4.554915509366   -1.114310409703
H      1.966731158276    1.905704816390   -5.075393296757
H      0.626533197306    1.759361936238   -3.007110768116
C      5.010958805512    4.940835857387   -3.190708480092
H      5.925315063278    4.366081305770   -3.418008247562
H      4.928907378973    5.715503623094   -3.972453399767
H      5.167347391797    5.452004660519   -2.229312711963
C      4.208962298120    3.371039431312   -5.566071977143
H      4.252729553899    4.397671391001   -5.968981013547
H      5.254288505903    3.051705711060   -5.412502121442
H      3.774356301017    2.726293762668   -6.343849658708
C     -3.816239987330    4.482834815840    0.802606544246
H     -4.091346943156    3.460405936240    0.505792366921
H     -3.800015853123    4.543808657873    1.898520684645
C     -4.765112952977    5.501053242676    0.194506794251
H     -4.803325380663    5.405891348150   -0.901332608824
H     -5.781163822288    5.339345405330    0.588495546145
H     -4.459597363419    6.527310334914    0.451851683419
C     -5.422312748027    1.239769433870    3.199545281260
H     -6.141537908404    1.380421071474    4.018896529699
H     -5.890779085766    1.632666350405    2.282865167652
H     -5.224116851251    0.166631393469    3.063575312879
C     -0.816535027845    1.463588637812    4.513414386637
H     -0.698518369366    0.386980502022    4.282539645557
C      0.579214866701    2.099715579780    4.551213352325
H      1.185858598652    1.665142100625    5.359760484842
H      1.128445056915    1.953642734450    3.610516708939
H      0.510537973106    3.186365433632    4.727465851128
C     -1.540502208341    1.581830052321    5.868389479784
H     -1.632790242337    2.650983398645    6.131484651047
H     -2.570486488638    1.212540019104    5.746210529624
C     -0.881667839546    0.816788776976    7.018786672326
H      0.119385474670    1.204458078184    7.266065048738
H     -1.491204117177    0.886397794399    7.933990767647
H     -0.771090689471   -0.254117775695    6.776407723375
N      1.980286862496    1.265591431570    0.192736772501
C      1.485237222776    0.049483019190   -0.123107696186
C      2.339570579048   -1.077267141294   -0.114869766189
C      3.662366451285   -0.930940098980    0.258203318764
C      4.165375773467    0.333185567523    0.635087557056
C      3.271847481189    1.394362706903    0.570557609287
H      1.913069475705   -2.041835571657   -0.392499693624
H      4.321984002524   -1.803858000902    0.271933508462
H      3.599146462440    2.407995302515    0.814013250264
C      5.595868559823    0.526020980488    1.067493090648
H      5.810625637900    1.581674213765    1.289587331166
H      5.823785610745   -0.059720594700    1.973785923320
H      6.299191444885    0.198041034939    0.284247514055
