74

C      1.491912232654    2.969435199188    2.101881947448
H      0.980338351569    3.617748533324   -4.064899113066
C     -0.950251078737    3.984037039328    0.751165016435
H     -1.679431231636    3.691038844641   -0.007504590414
H     -1.118771258193    3.633227224593    1.771273948294
C     -0.030642474204    4.981352542103    0.492903959784
H      0.561706843580    5.413074428861    1.303667392181
C     -0.002617274480    5.812232569964   -0.756759393950
O      0.935489221758    6.512359974800   -1.059405790256
O     -1.149402914045    5.744049872661   -1.441678351981
Pd     0.945039736952    3.011933684200    0.175614111152
C     -0.372957715793    2.278459624463   -2.388615447028
O     -0.989837610347    1.449157912733   -1.680823500251
O      0.522313672810    3.066541983834   -1.949496023703
C     -0.686133897031    2.346845814440   -3.896785192794
H     -1.748038677347    2.622020356530   -4.001694778687
N      0.088371428485    3.415630867237   -4.502502582777
C     -0.448853848056    4.332014840856   -5.359039634200
O     -1.612962883780    4.297767990631   -5.732924346811
O      0.289737370892   -0.077460537433   -0.110586084036
H     -0.219482407756    0.648199203264   -0.635213838999
C      0.953523806946    2.022774080826    2.983888242772
C      1.357077774116    1.950345016490    4.327574336446
C      2.336625881760    2.852765709249    4.805252555198
C      2.872638231847    3.791125945717    3.914731367240
C      2.460517990061    3.860264021163    2.577186298884
H      0.206353508654    1.307202467818    2.626642138709
H      3.631842826696    4.492951918835    4.274017195000
H      2.908234375266    4.613342216695    1.921403278873
C      0.751603391602    0.915662912582    5.244676804594
H      1.519495712455    0.240566916174    5.659992173712
H      0.247476452498    1.382204833746    6.108439078301
H      0.010605365146    0.297060659884    4.717885751222
C      2.796695702103    2.806694897205    6.241913557114
H      1.961854698899    2.971246186920    6.944731209854
H      3.233226412499    1.826644995601    6.500807975323
H      3.558038410831    3.574571918182    6.442774868833
C     -1.263367704215    6.589587191923   -2.604698141027
H     -1.048022209677    7.626173895527   -2.298556530970
H     -0.485237180117    6.298466158629   -3.325629741975
C     -2.657514008521    6.438598296741   -3.173379972625
H     -3.417896261031    6.696760468817   -2.419972538627
H     -2.778698464380    7.114484570110   -4.033827839699
H     -2.835712806020    5.415303732414   -3.533409120638
C      0.525486018504    5.383811958368   -5.870563400898
H      0.860485655720    5.090703208203   -6.878950582901
H     -0.001425409894    6.342810838677   -5.967617515442
H      1.413371156874    5.509025772305   -5.232892040718
C     -0.500544312493    0.956678911756   -4.626862623900
C      0.854788783035    0.328376120392   -4.254539631580
H      1.029144373750   -0.587674902097   -4.841954477240
H      1.689796821652    1.017780915997   -4.462694174344
H      0.893184275124    0.050063925827   -3.189930902971
C     -1.648445145212    0.003771080960   -4.243165001122
H     -1.682980628574   -0.176186547085   -3.161880320063
H     -2.621214133864    0.424092741218   -4.548011148084
H     -1.526162727543   -0.960951679212   -4.762994391010
C     -0.550864593062    1.178313085119   -6.151596225787
H     -1.462137273101    1.717620341904   -6.449252931268
H      0.313954783958    1.757381929187   -6.508479158505
H     -0.537787149118    0.204940948288   -6.668258958570
N      2.164585700223    1.282841636488   -0.081963758583
C      1.600017974169    0.058641088016   -0.093994453894
C      2.395379655157   -1.122890185093   -0.056288451244
C      3.774736370460   -0.968024230487   -0.051229972390
C      4.352747459354    0.312252397071   -0.080282867053
C      3.511189757742    1.408092598778   -0.086051516753
H      4.412914969755   -1.855996945332   -0.032893532147
H      5.434540733095    0.451143055706   -0.084549427060
H      3.902112589322    2.427391349225   -0.077421132272
C      1.711403632099   -2.460699896181   -0.041800625199
H      1.058959468599   -2.562078442604    0.840644182134
H      1.058044777194   -2.578145489743   -0.921223272046
H      2.444190080732   -3.280211769096   -0.032656389092
