71

C      2.449444753141    3.854208888686   -1.147743941720
H     -0.462083156918    0.874151391577    0.261165300034
C     -0.136727545235    5.082041439574   -0.175828083173
H     -0.886424467076    5.017718314697    0.613431637714
H      0.678145302599    5.795478078773   -0.033776700429
C     -0.359254460050    4.524723394163   -1.421049489820
H      0.290666813755    4.772943015476   -2.263664497208
C     -1.618445616119    3.823251440707   -1.854012342583
O     -1.652853054815    3.116235052332   -2.835428779870
O     -2.661682066304    4.109278298105   -1.074548114450
Pd     0.848757333176    3.114648627647   -0.214870660600
C     -1.000518670070    2.565388820681    2.071335249698
O     -0.845907024145    2.215759874684    0.818846969236
O     -0.349521680642    3.439364684457    2.625683428892
C     -2.136412241992    1.831481730124    2.818740045379
H     -2.141799517126    2.245989646117    3.835050982669
N     -3.408570448223    2.149980903300    2.183154055590
C     -4.239352401279    3.208892670579    2.451404228997
O     -5.145224132348    3.505689474707    1.684909902226
O     -0.009690980140    0.009244783785   -0.040793683721
H     -3.559386468196    1.742773213921    1.263369396064
C      3.293515219678    4.740617981643   -0.464267488176
C      4.479998941355    5.225302925632   -1.044108449296
C      4.823918630324    4.816449008953   -2.353472847749
C      3.965950116773    3.937871532291   -3.029305229857
C      2.787737679387    3.457076576835   -2.445490193880
H      3.044491102668    5.065291942439    0.551560524133
H      4.224477881024    3.617842924966   -4.043399041419
H      2.147777844557    2.772811340632   -3.009156936759
C      5.367011079985    6.173223704414   -0.274563252931
H      6.381853695996    5.761581219764   -0.139938274271
H      5.488409284802    7.134470937258   -0.802618542203
H      4.957160562455    6.388035217243    0.722989509468
C      6.085601657597    5.316446163544   -3.013342152052
H      6.093101148845    6.416556847426   -3.099893634060
H      6.985167683273    5.042696109207   -2.435770293040
H      6.199114766119    4.901151061066   -4.025201958887
C     -3.946080438429    3.535252731525   -1.428601527428
H     -3.776787652379    2.515598884770   -1.805138862509
H     -4.503864404170    3.499961697034   -0.482843676140
C     -4.660491420165    4.386597363194   -2.464075642202
H     -4.110051071176    4.406746285761   -3.416660979265
H     -5.661155836567    3.967348768355   -2.655777744235
H     -4.789145535948    5.418349161257   -2.101599329328
C     -3.995473845345    3.978446890199    3.738293489008
H     -4.758712778795    4.762246392266    3.810675961141
H     -4.062708130351    3.321396249970    4.619960964726
H     -2.994024678223    4.436872789185    3.740603500797
C     -1.911830301990    0.302518408327    2.916908679281
H     -1.942047286949   -0.100757277522    1.887742947713
C     -0.527621513137   -0.007335479860    3.502223912735
H     -0.317823723175   -1.086465124725    3.472375930160
H      0.279980902674    0.495079683275    2.948844258240
H     -0.458992511318    0.324089292210    4.552248757157
C     -3.042259645604   -0.367963365306    3.721015213262
H     -2.985246009655   -0.020874890956    4.769800163251
H     -4.007943946549   -0.005450202479    3.334228646684
C     -3.034548876908   -1.897806115257    3.684213373417
H     -2.131946883054   -2.324521320643    4.149528199384
H     -3.903637149697   -2.306955995583    4.223471279416
H     -3.081515991072   -2.272554681827    2.647878156106
N      1.944289846261    1.245650139125    0.158515258978
C      1.287989946560    0.064697746129    0.122868832673
C      2.018728599842   -1.151040939157    0.255882925604
C      3.387756469120   -1.124155207347    0.453035599293
C      4.028419462285    0.121723196964    0.520116902995
C      3.279506417376    1.276735010871    0.364445393786
H      3.948489900544   -2.052618970569    0.566243691079
H      3.755791832802    2.256030377234    0.385857964604
Cl     1.157868164728   -2.654672977318    0.201744219165
Cl     5.746060481843    0.221533322907    0.783660424203
