72

C      2.495063097538    3.837731853134   -1.166966835466
H     -0.473132243685    0.887912664744    0.129802341590
C     -0.089216784850    5.085028210415   -0.171540907469
H     -0.859526342200    5.007565343761    0.596508947256
H      0.728176562958    5.786875029949    0.008293553019
C     -0.294210796798    4.568931266431   -1.437330318597
H      0.373409478153    4.835526664964   -2.259879793041
C     -1.552138323565    3.898351821647   -1.917746030941
O     -1.584353018500    3.258447459295   -2.944525919880
O     -2.599433936847    4.128716703438   -1.123796074954
Pd     0.878644204114    3.112047209911   -0.247520386542
C     -0.912588854681    2.544977677108    2.042746231358
O     -0.842182594130    2.252418259493    0.770064793796
O     -0.150085022130    3.303609384620    2.623037708303
C     -2.074080136020    1.856700909406    2.789875873127
H     -2.143213604163    2.352791936995    3.766300139100
N     -3.313263810632    2.079118205962    2.057171159960
C     -4.366329635807    2.892897488355    2.378282050152
O     -5.227126670143    3.165821666821    1.551752549813
O     -0.044263245965    0.033269181559   -0.194832227455
H     -3.278751403895    1.826649840241    1.072408033293
C      3.340019941004    4.718243432140   -0.476914339481
C      4.526877509509    5.207675814498   -1.051689011497
C      4.872469096156    4.809114108850   -2.363552461628
C      4.015336598295    3.935005316792   -3.046318629838
C      2.836835038119    3.450122283867   -2.466874017413
H      3.090947571101    5.033559506457    0.541889764960
H      4.274751302207    3.622798217530   -4.062768324170
H      2.197267787578    2.770002523843   -3.035849459892
C      5.412492744277    6.150777216816   -0.274084805794
H      6.428657373406    5.740908765089   -0.142788084283
H      5.531971741103    7.117247893472   -0.793216591502
H      5.002080062551    6.355929783021    0.725352087834
C      6.133925422044    5.315856278384   -3.019257548266
H      6.139622675081    6.416570487079   -3.099475819673
H      7.034379246207    5.040975141996   -2.443311402492
H      6.248899823935    4.907129947765   -4.033753024873
C     -3.879095318633    3.570161260684   -1.516603919018
H     -3.700874547218    2.586303001792   -1.974984154980
H     -4.434359478961    3.448770213796   -0.576127427591
C     -4.607454748292    4.493882823621   -2.477699901851
H     -4.061053705931    4.596151798238   -3.427446241351
H     -5.604573219337    4.080698339115   -2.698811644331
H     -4.744940841605    5.492255932595   -2.033912840455
C     -4.434493051436    3.432204762923    3.798167177481
H     -5.391326547189    3.956142518545    3.909789421500
H     -4.363651682683    2.630379447264    4.548890063329
H     -3.614321937829    4.143224287040    3.988621806360
C     -1.792990945925    0.347563475149    3.023570819713
H     -1.734078599719   -0.128937850723    2.028296522291
C     -0.448874089128    0.131231473492    3.730651444006
H     -0.266225864021   -0.943511204124    3.888494567808
H      0.398338327678    0.533787572673    3.155250875470
H     -0.436027683590    0.622745639644    4.718203345669
C     -2.936054162428   -0.312505298374    3.802065812802
H     -3.011772208160    0.103066875878    4.821996212926
H     -3.904184960576   -0.165110570749    3.301258773811
H     -2.766561651660   -1.396750847193    3.898772231755
N      1.928310207035    1.227709006212    0.087559526396
C      1.259386641298    0.067918767948   -0.015150933706
C      1.947490319809   -1.188112126017    0.056830901653
C      3.315303223520   -1.185999968120    0.286659583620
C      3.983376472688    0.043863784231    0.436696085009
C      3.267393300985    1.216031530876    0.325617765172
H      3.870254380103   -2.121443772561    0.362692037037
H      5.056758474979    0.076998530642    0.628180061654
H      3.749673195483    2.188740549794    0.407260895070
O      1.166768425048   -2.275720073019   -0.092750423975
C      1.763979812331   -3.553027246858   -0.045837325456
H      2.240349387294   -3.746404727566    0.932557124805
H      0.956232943061   -4.280175279267   -0.199767763439
H      2.519391528017   -3.680442656575   -0.842271593097
