74

C      1.492398287203    2.964047875773    2.143165973769
H      0.765155058452    3.933085729154   -3.891197677869
C     -0.924666232867    4.095098732629    0.888160940564
H     -1.702546926269    3.807524318532    0.177030885953
H     -1.052214870585    3.783900633784    1.926646231059
C      0.013103367235    5.050824772013    0.548185598584
H      0.663370979350    5.488886529390    1.309723819316
C     -0.002379960325    5.828948829382   -0.735164569616
O      0.928783706908    6.501365268148   -1.111336003507
O     -1.177300008501    5.738172999272   -1.369510308252
Pd     0.898881980999    3.039446125128    0.232381731628
C     -0.444388721684    2.370284353050   -2.348931827783
O     -1.092675363421    1.538770754974   -1.673569479762
O      0.452375984277    3.141757522387   -1.883346977487
C     -0.716580847886    2.438958410804   -3.855929209172
H     -1.797474935737    2.596173626398   -3.996666350039
N     -0.013923817197    3.573774670818   -4.432883978298
C     -0.376427214876    4.136922771726   -5.619339504057
O     -1.335320512334    3.746049450196   -6.269261138779
O      0.075534997280   -0.009501622850   -0.050321037577
H     -0.397926021601    0.724804434139   -0.598946858926
C      0.948359156318    2.031230219133    3.036366729330
C      1.386214973360    1.940772169173    4.368063106254
C      2.406514167076    2.810087866244    4.821575675844
C      2.947342217712    3.734670938861    3.919780530799
C      2.501112691130    3.822169166822    2.594208401569
H      0.168534204208    1.342117925522    2.697538923460
H      3.738137125740    4.410535684011    4.260127525747
H      2.955448725730    4.562556819144    1.928625638452
C      0.773857704257    0.921931903858    5.298205719383
H      1.531255812647    0.221284521589    5.689735556606
H      0.308940801932    1.400542137097    6.177195539766
H     -0.000592983979    0.329199218687    4.790176027992
C      2.903982624768    2.743680729466    6.244891815913
H      2.094183539430    2.931338170161    6.970810572276
H      3.316363820314    1.749364427375    6.488424781077
H      3.694274779954    3.486464117157    6.427344110723
C     -1.315427641709    6.472579335111   -2.601328786378
H     -1.048870422849    7.524998854121   -2.414069312646
H     -0.592534985850    6.071424898556   -3.326462491518
C     -2.741480391519    6.317884063278   -3.084417412456
H     -3.455289432099    6.709261961880   -2.343102668209
H     -2.879420164584    6.873390770486   -4.024810249111
H     -2.981297441760    5.261392837802   -3.277438994959
C      0.492295865913    5.295577335349   -6.089569783062
H      0.903828909612    5.045354869227   -7.079262929986
H     -0.143779030576    6.183959612056   -6.222437075167
H      1.319146809695    5.539945309192   -5.406680029912
C     -0.320252069446    1.125163632115   -4.580623527367
H     -0.466203327014    1.328007854259   -5.654736613768
H      0.763776723861    0.970282543679   -4.432508468594
C     -1.076627828739   -0.167522024982   -4.221135918227
H     -0.865836502299   -0.408954556423   -3.166416371002
C     -0.549790596056   -1.320600584209   -5.087168227045
H      0.539885024244   -1.448384854668   -4.974562642643
H     -1.029228224771   -2.274864545700   -4.814160054300
H     -0.753127891425   -1.140155621893   -6.157020857376
C     -2.596778477549   -0.021182384626   -4.364738799778
H     -3.099507584679   -0.988468976348   -4.200659794894
H     -3.002299560039    0.686154392270   -3.626280741464
H     -2.872294866729    0.334038123150   -5.372804328909
N      2.018557905359    1.249546501992   -0.065982346864
C      1.391291018026    0.055582806532   -0.069749268742
C      2.126092570325   -1.164892722523   -0.058778083995
C      3.511451595832   -1.080752074955   -0.088942017216
C      4.153304959662    0.168370760491   -0.127291693061
C      3.369268255165    1.305949933394   -0.105753949237
H      4.103643357133   -2.000218600467   -0.091862717167
H      5.240320091239    0.251803497854   -0.159649979702
H      3.812333384237    2.303745132075   -0.102918620942
C      1.375502684443   -2.466372521918   -0.034811579228
H      0.735187218396   -2.537813677134    0.859273720803
H      0.701228787036   -2.547553265955   -0.902492792754
H      2.065914108786   -3.321912623855   -0.041780479672
