35

Pd     1.135285025935    3.057048379495   -0.181759107926
C     -1.680110435120    3.421856267788   -0.102116373420
O     -0.781319710877    2.440064513952   -0.161474952486
O     -2.869193605815    3.224904453653   -0.089739001359
C     -1.104600500501    4.877899538386   -0.029289577151
H     -1.330631987643    5.222288061526    0.999762502127
N      0.326759415432    4.808516248624   -0.237604743381
C      1.407846296446    5.529282608830    0.009397587030
O      2.489568665746    4.846501815484   -0.029450009025
O      0.051880785425   -0.002292878393   -0.085375849735
H     -0.393998051239    0.896280877864   -0.114492538857
C      1.422878725611    7.005407846828    0.281819675628
H      1.523740989000    7.554661062873   -0.668671633802
H      0.497015298080    7.338566709243    0.773312272817
H      2.290760015607    7.249713830394    0.909482445353
C     -1.834445777084    5.782969656218   -1.024171227666
H     -1.536073748574    6.835154901470   -0.899863080168
H     -1.615252674321    5.477397984331   -2.058831821470
H     -2.917452348293    5.696567940715   -0.854678812370
N      2.048645381821    1.169301593906   -0.088888454976
C      1.364772224202    0.024019627927   -0.060918537065
C      2.041656321197   -1.250292473438   -0.002827433995
C      3.466340140995   -1.263992386400    0.026082882161
C      4.150248090795   -0.010742513661   -0.003363712105
C      3.422483986003    1.143706656591   -0.058763479224
C      1.318718444089   -2.467959714097    0.025370789645
C      1.995592718672   -3.672189481012    0.080668604292
C      3.409640917084   -3.693171293200    0.109445217893
C      4.132531479623   -2.515024186063    0.082872515746
H      0.229067723172   -2.432676168282    0.002495988556
H      1.438714907977   -4.611826549597    0.102268954457
H      3.933881448676   -4.651321832158    0.153130964896
H      5.225023080691   -2.532827227323    0.105212503252
H      5.240578612807    0.027685736449    0.018050449686
H      3.903104919676    2.124644760424   -0.082254900894
