69

C      1.137110503863    2.666434824722    2.296710575164
H      0.488995949214    2.111230123629   -2.086908318038
C     -1.055673184750    3.897449168437    0.880297200418
H     -1.198827809167    3.825355085534    1.959556786597
H     -1.759092228672    3.351238832134    0.241321603578
C     -0.193194097162    4.841100686989    0.360164195447
H     -0.220348860665    5.075579824521   -0.706506196308
C      0.564077608226    5.858880441821    1.156969227922
O      1.472234489284    6.511037374611    0.691869932056
O      0.117004644315    5.976317220501    2.410843900287
Pd     0.880433044657    2.887364489994    0.334446495272
C     -1.674977035823    1.875126708771   -2.035952299659
O     -0.591937001483    1.139854889767   -1.926149302547
O     -2.598544466903    1.864114037147   -1.239760899136
C     -1.707854522878    2.854310309567   -3.241938365241
H     -2.651168343572    3.402520698297   -3.096958688948
N     -0.676619777077    3.892780562192   -3.330193476717
C      0.475036986326    3.936454564430   -2.804682708381
O      1.041521683918    2.979185370406   -1.987164462548
O      0.126013663672   -0.188225115755    0.012439971011
H     -0.296596726827    0.418024030621   -0.777401122049
C      0.411267362192    1.718940216287    3.023641367525
C      0.659685409531    1.513509630751    4.391309191064
C      1.664875035165    2.273875821086    5.035705529908
C      2.385097781665    3.210751308118    4.283869475094
C      2.131758460771    3.418934081843    2.920643797073
H     -0.353630910990    1.114513281579    2.528857254208
H      3.170714659513    3.795989139077    4.771693731836
H      2.719598293036    4.159512776610    2.371077624233
C     -0.137155083137    0.484343378853    5.154630768136
H      0.515233057792   -0.291995685703    5.589426809734
H     -0.685635195809    0.939369766251    5.997007248371
H     -0.870355573000   -0.016998150966    4.507075105473
C      1.963138254625    2.074602873642    6.501524916777
H      1.076223081419    2.266826614501    7.129080835942
H      2.277987954516    1.039030333773    6.716027010017
H      2.765920757978    2.744758464663    6.841827623094
C      0.793466013137    6.919625590542    3.265569741394
H      1.853770248505    6.629895999329    3.338890243581
H      0.758891999796    7.912121306509    2.788699919638
C      0.106474013394    6.904601322003    4.614010985885
H      0.160845128509    5.904517985868    5.070228395010
H      0.596959987390    7.621814951213    5.290304525156
H     -0.953069327919    7.188227537302    4.520665961656
C      1.403734159187    5.098409036153   -3.025739146430
H      2.338948960101    4.743022903773   -3.488050356922
H      0.926281337247    5.837659071887   -3.679213569093
H      1.675386426828    5.571910308619   -2.067253738828
C     -1.816857220134    2.162757157969   -4.606534287515
C     -2.438214697590    2.869560484474   -5.649805602762
C     -2.548320944426    2.314894816727   -6.925307863170
C     -2.038647923548    1.036811845438   -7.179802865876
C     -1.419446420808    0.326613464970   -6.149577933795
C     -1.304588455542    0.884875672257   -4.870902946065
H     -2.832722206213    3.870287860235   -5.454619768539
H     -3.037176793593    2.879946954552   -7.723485264765
H     -2.127322149044    0.597330788540   -8.176846583553
H     -1.020724805673   -0.674049445764   -6.337087773469
H     -0.818616476487    0.323310055888   -4.072521255360
N      2.042425765871    1.100652894707    0.151682909524
C      1.416280879090   -0.102031268794    0.123314066938
C      2.215023817485   -1.280868440678    0.252260617690
C      3.592268421011   -1.194352326481    0.351152103758
C      4.192693030118    0.074769251053    0.325647478360
C      3.386528544043    1.196529726671    0.233579289979
H      4.197483385969   -2.097758642214    0.434948857662
H      3.819466974519    2.197821052407    0.240073946990
Cl     1.423868663170   -2.821566031733    0.261185983579
Cl     5.922019449339    0.242308795578    0.428355574618
