78

C      2.585396310793    3.916338391294   -1.251045200126
H     -0.203075174463    0.981253040229    0.035339238506
C     -0.005145482106    5.108486257314   -0.136555039774
H     -0.748658641554    5.033708006770    0.659139284299
H      0.775856197294    5.862997624112   -0.024602640433
C     -0.235734236541    4.523087714595   -1.367915163061
H      0.384057660076    4.781108896850   -2.229889935866
C     -1.490842724429    3.793702327045   -1.767619680384
O     -1.535258379819    3.065856000964   -2.731965967177
O     -2.534832782847    4.094789420213   -0.987258008037
Pd     1.063955959088    3.194091040139   -0.164479224300
C     -0.607356341314    2.511734136397    2.166286861654
O     -0.618650863349    2.292150841720    0.875723569953
O      0.294994311009    3.065245574748    2.771613532204
C     -1.899759235952    2.062283009458    2.878269279226
H     -1.852929826282    2.483900257627    3.890838116631
N     -3.014784091930    2.648055971279    2.148155679086
C     -4.206105477932    3.124273221178    2.614890659231
O     -5.058579272640    3.559511180971    1.851196367697
O      0.244732195176    0.209463140504   -0.428101300104
H     -2.883857537034    2.703876621309    1.141170341270
C      3.318672218030    5.039109142380   -0.844518741148
C      4.395850780768    5.535286044864   -1.598850070009
C      4.745029284540    4.892644426974   -2.808552767435
C      3.999633383296    3.776896680152   -3.211954724714
C      2.930396206063    3.287673275159   -2.452504919940
H      3.075642972299    5.547748274756    0.093821220647
H      4.258978523747    3.274410303117   -4.149018791031
H      2.374291676845    2.417428351470   -2.811407897176
C      5.166552690243    6.740397747730   -1.117028205242
H      6.233762700414    6.505771051264   -0.962223960266
H      5.132585316893    7.565373566709   -1.849184599510
H      4.766124082782    7.120629741913   -0.165808071165
C      5.892412116299    5.395740098709   -3.649920353758
H      5.736241960661    6.439138232197   -3.973974116746
H      6.845342924704    5.381428493390   -3.093299757286
H      6.024528024280    4.782387857053   -4.553172620287
C     -3.835353750539    3.562599240932   -1.356921653724
H     -3.699382283063    2.531261099113   -1.714463975867
H     -4.406661269254    3.563629012018   -0.417785681938
C     -4.501370355848    4.425932606490   -2.413953670272
H     -3.937168454635    4.411279024092   -3.358484832721
H     -5.514136713066    4.041502215062   -2.614595745224
H     -4.595807138744    5.466695228232   -2.067173448168
C     -4.419699105040    3.110976575483    4.120359872111
H     -5.436466369634    3.469376634147    4.320613498956
H     -4.298923061617    2.102239945458    4.545127915874
H     -3.698520282697    3.773495180082    4.625912180993
C     -2.022607604045    0.517477354105    2.967212426408
H     -3.004949047798    0.297300066094    3.417997531980
H     -2.052255961160    0.117455433320    1.941885966691
C     -0.931035693893   -0.162257215638    3.763480577143
C      0.068477109775   -0.912273481913    3.125223020301
C     -0.889620014298   -0.055042386260    5.163831713092
C      1.082071123360   -1.534061907462    3.861250265362
H      0.045067787382   -1.014039232220    2.037127201673
C      0.121613530170   -0.672502976417    5.902711321465
H     -1.663891289449    0.515980658056    5.685420588947
C      1.113213373667   -1.414692355820    5.252739669935
H      1.849528523216   -2.115081959605    3.343093258224
H      0.134308953050   -0.577171758649    6.991695242886
H      1.904406161085   -1.899803637295    5.830139564307
N      2.157089698143    1.339961789452    0.198782913760
C      1.547551611689    0.228589044321   -0.209283179739
C      2.261242149752   -0.989413639234   -0.436075992000
C      3.596727363744   -1.040398076450   -0.148744827581
C      4.249930353852    0.093657034558    0.416541945500
C      3.478492701903    1.282472229391    0.599278976352
C      5.608913014424    0.073115116755    0.821189155333
C      6.182716200192    1.179961482408    1.415016609120
C      5.404709904110    2.339806222292    1.631376877733
C      4.082001164472    2.394375148568    1.231794332987
H      1.703024369510   -1.841401522758   -0.825215966241
H      4.167420913572   -1.957527732177   -0.318555760423
H      6.188770609211   -0.840629041896    0.665909463718
H      7.227972253878    1.156917215518    1.731438514778
H      5.850358019562    3.204684913386    2.128735759216
H      3.476555169801    3.279638827168    1.422511142171
