28

N     -0.483216969840    0.730434273036    1.160358178837
C     -1.743231206507    1.215984216447    1.263943092239
O     -2.625290513529    0.904028730266    0.458577361734
H     -2.305104912900   -0.660340541249   -0.031898596839
H      0.216404847257    1.044321199539    1.823668353459
C     -0.561258240488   -1.466918723856   -0.042503129202
O     -1.885221989834   -1.561973017344   -0.086318402417
O      0.162703698766   -2.429680279588   -0.056269573172
C     -0.008292252906   -0.014982726342   -0.010283386574
H     -0.417407718746    0.492700061929   -0.903289355302
C     -2.027262350270    2.155938002360    2.413911919987
H     -1.152477122561    2.355128875999    3.048550063832
H     -2.399052873997    3.105951676714    2.001131528581
H     -2.836376257370    1.731072685105    3.026726309374
C      1.525969227777   -0.017525166278   -0.063375610207
H      1.902982955994   -0.638041318405    0.764168183728
H      1.814824189238   -0.548525440947   -0.982520498580
C      2.147475180443    1.362025691265   -0.022502328013
C      2.014485755942    2.247237410946   -1.106347576006
C      2.861965672089    1.796905237106    1.105093222455
C      2.571210515120    3.526748778519   -1.060814436681
H      1.472870186465    1.927507814557   -2.001683793525
C      3.421347321648    3.079063012875    1.155366806211
H      2.999142937479    1.114872432803    1.950261513412
C      3.275469376312    3.948755130438    0.072705020253
H      2.459647146692    4.197825002058   -1.916456765073
H      3.978362403087    3.394244297964    2.041569273517
H      3.713452169543    4.949424186661    0.107000665479
