75

C      1.488168265963    2.971214369882    2.145385251691
H      0.743689292830    3.948846187476   -3.890712622465
C     -0.914785093397    4.145079463485    0.913170847437
H     -1.705736649443    3.863052154821    0.214298287763
H     -1.033525892952    3.844608810760    1.955818370656
C      0.032939534270    5.083704037551    0.552781111946
H      0.699626205232    5.518464529203    1.301924316784
C      0.010839425358    5.850854255422   -0.737055571783
O      0.945067695905    6.508338243536   -1.131551111168
O     -1.173413795824    5.768347966454   -1.355305715799
Pd     0.882389513144    3.057591752833    0.239148359153
C     -0.476374894187    2.400574730421   -2.338155786339
O     -1.154484072306    1.599584665396   -1.655852730561
O      0.431336632392    3.161648343421   -1.875956138557
C     -0.715129535547    2.433525164381   -3.851457366764
H     -1.795198308665    2.558781045323   -4.023560413910
N     -0.025685696896    3.573034000531   -4.435284851580
C     -0.368257695889    4.101234358249   -5.643699571298
O     -1.301415113024    3.676150369520   -6.309147398815
O     -0.013897567780    0.033201547874   -0.031810757107
H     -0.481605304726    0.769993120282   -0.581110714707
C      0.943453777692    2.037891994746    3.037728650260
C      1.389082157426    1.938924882135    4.366194772560
C      2.417762412046    2.799707758681    4.817143923980
C      2.959272830276    3.724491936336    3.915992101217
C      2.505429797444    3.820642261533    2.593595877059
H      0.157297185656    1.355253890273    2.700539087002
H      3.756818394884    4.393479725440    4.254244692132
H      2.961174920812    4.560176405086    1.928085300586
C      0.775791683374    0.919858493073    5.295540141981
H      1.531439476709    0.214038575516    5.681184933029
H      0.317327913946    1.397699753457    6.178380520728
H     -0.003737384300    0.332829127476    4.788736980237
C      2.923310945138    2.724108362393    6.237186593271
H      2.119107945560    2.913855016453    6.968784290568
H      3.330727170269    1.726146788989    6.474210596425
H      3.719457103154    3.461058869128    6.417997386631
C     -1.318251276280    6.485752726525   -2.596033673190
H     -1.011527233290    7.531510461952   -2.435596931378
H     -0.629322694102    6.045856120115   -3.331893956007
C     -2.760788364566    6.370565416462   -3.039963793789
H     -3.441673061168    6.801433673703   -2.289611562359
H     -2.904045890808    6.911066209144   -3.988325758210
H     -3.041116751139    5.318939416884   -3.203034609888
C      0.486260443412    5.269814332179   -6.115774769298
H      0.911924533269    5.017813843054   -7.098890378819
H     -0.163231186816    6.146313416635   -6.262930514519
H      1.301196750049    5.534682513478   -5.426227926655
C     -0.263217607112    1.113974714267   -4.533373736511
H     -0.407938346015    1.278722988204   -5.614254171639
H      0.824822210893    1.007503148791   -4.372452674252
C     -0.969491829841   -0.196674912947   -4.137970292418
H     -0.755289435546   -0.401737721264   -3.076139049568
C     -0.391736257115   -1.352750775418   -4.966831398648
H      0.701607111903   -1.432660990757   -4.845415881734
H     -0.833729374313   -2.316761061224   -4.666433362301
H     -0.596176833308   -1.212919784964   -6.042573730857
C     -2.493390299559   -0.115991775055   -4.292821166857
H     -2.957718967850   -1.097005411484   -4.099668903407
H     -2.929322129010    0.597650161862   -3.578449382532
H     -2.777171914432    0.194976310816   -5.313245605719
N      1.961292948374    1.244836077649   -0.070174534531
C      1.296956193313    0.079724632652   -0.083228081772
C      2.020702350159   -1.159111425903   -0.122139333171
C      3.407410064861   -1.122737690229   -0.183287065594
C      4.066763224665    0.121262894042   -0.200144267055
C      3.316798407351    1.275977075855   -0.137345605241
H      3.987505651856   -2.044814159798   -0.228617059055
H      5.154929639059    0.176516294528   -0.252727452844
H      3.781057797912    2.263076187211   -0.123651551958
O      1.256971472425   -2.267016730846   -0.111699600955
C      1.885113626294   -3.529549416164   -0.161283719455
H      2.547542426471   -3.691094274132    0.708405245915
H      1.081827632122   -4.277323838816   -0.142945706160
H      2.473757127989   -3.656910849405   -1.087828145855
