62

C      1.481859991728    3.020266367906    2.226883430825
H      0.692168626365    4.026192087794   -3.791020213419
C     -0.956284653486    4.106002006342    0.990136599893
H     -1.731535773841    3.793113261470    0.286979706650
H     -1.066692395986    3.794684109860    2.030443804905
C     -0.052557317234    5.090737652559    0.639539934638
H      0.585897406562    5.554879504030    1.395139062844
C     -0.092345803064    5.852363904955   -0.653743073228
O      0.833716237537    6.516407628016   -1.056911813208
O     -1.278978904679    5.751607796686   -1.264592334771
Pd     0.892367914474    3.112371132970    0.312083209988
C     -0.448773519116    2.399713474548   -2.264625277913
O     -1.006377836280    1.477241474780   -1.636571068856
O      0.388347251026    3.229732251943   -1.784924321018
C     -0.798017794191    2.554552036310   -3.742474275720
H     -1.876644621043    2.780949982616   -3.817629974226
N      0.005086498871    3.570415983750   -4.383191796575
C     -0.054714842741    3.799320356634   -5.726874325782
O     -0.829921337680    3.201516576149   -6.455563494382
O      0.102794249389    0.135651687329    0.201936566039
H     -0.370423830555    0.775873354718   -0.456576320272
C      1.033055232418    1.981271085846    3.054538269906
C      1.442086616346    1.872708891959    4.393967107144
C      2.334286438813    2.833389473903    4.926364118780
C      2.778198649830    3.866612527619    4.092610576515
C      2.359842921302    3.972039305973    2.759141149823
H      0.350941002900    1.225094106733    2.655005323829
H      3.468658512149    4.615346761296    4.493474898979
H      2.734377333320    4.801745337150    2.152449445559
C      0.933601960163    0.737761190383    5.249259116995
H      1.760322556493    0.114895831344    5.631912544516
H      0.387384444240    1.107691437193    6.133975949325
H      0.254179174058    0.083515826717    4.684193136866
C      2.798099763710    2.749152185813    6.359970976668
H      1.952132001884    2.794623370883    7.067222388267
H      3.324330332783    1.800881134556    6.564592877474
H      3.484613038058    3.572016431400    6.607415520149
C     -1.437843341927    6.433619511223   -2.524327386063
H     -1.015073865371    7.446013212772   -2.434333465914
H     -0.853831206441    5.890120355446   -3.283145660553
C     -2.912815097513    6.453022187761   -2.865946894064
H     -3.490275014236    6.992878584805   -2.099559127512
H     -3.065211802067    6.956987297273   -3.832915866487
H     -3.314091966102    5.431172065779   -2.946891563210
C      0.899625765757    4.860834992176   -6.255497781768
H      1.504821426388    4.419737246069   -7.061716061387
H      0.308703195560    5.673502433014   -6.705454983442
H      1.566517822763    5.283085847670   -5.489467776000
H     -0.673056788459    1.573418817898   -4.231286719546
N      2.053458873200    1.345501081625   -0.056321815967
C      1.413585565027    0.159218567653    0.064007880185
C      2.139309502675   -1.049750148145    0.071067184357
C      3.511986678399   -1.008194119196   -0.103766569712
C      4.149951245329    0.225413531420   -0.294608501569
C      3.394485479455    1.395147782922   -0.262989671302
H      1.584862099878   -1.981227225555    0.187025989611
H      4.092757881975   -1.934170769949   -0.113433278338
H      5.226483973345    0.283326733231   -0.459956880346
C      4.020464725421    2.749486782675   -0.438890923174
H      3.465625126300    3.340401296454   -1.184609730759
H      3.997650510257    3.308868143334    0.510136547745
H      5.066780993816    2.663618589667   -0.762300203033
