74

C      2.458729829158    3.916634885991   -1.159298969665
H     -0.445202517914    0.803310669031   -0.171655491968
C     -0.208071277617    4.969553544112   -0.261087326364
H     -1.004832929652    4.845581578256    0.474187511957
H      0.559339312037    5.718460690566   -0.052501809121
C     -0.362467160603    4.467367748963   -1.543167639577
H      0.301174855166    4.787430015229   -2.349736202329
C     -1.580704361152    3.742496445648   -2.049171931842
O     -1.562775897146    3.084396118444   -3.064705141996
O     -2.651750062777    3.946589360814   -1.282355746301
Pd     0.849593177609    3.062147751948   -0.352254737091
C     -0.751731203990    2.296049620597    1.912911438275
O     -0.870556312848    2.087879439291    0.628533840623
O      0.234137561434    2.811433248659    2.427352222317
C     -1.963504619290    1.901992628429    2.787781128409
H     -1.922583866145    2.592745555322    3.639345366490
N     -3.195307006402    2.138368389019    2.051238654120
C     -4.190084320918    3.047290307336    2.297900327812
O     -5.056096392828    3.272528490988    1.462679505371
O     -0.026670050684   -0.015896783576   -0.587517144394
H     -3.189349632666    1.803159748111    1.091488803267
C      3.269387389754    4.704537643945   -0.331330279517
C      4.474398599055    5.261172292179   -0.796729539301
C      4.869415090150    5.028832365699   -2.134927882699
C      4.042300363764    4.247656085078   -2.953486628738
C      2.845118888320    3.693316042580   -2.484071515215
H      2.978783757565    4.889379350742    0.708221966212
H      4.341362783787    4.063765874244   -3.989991951594
H      2.231694828612    3.086389379241   -3.155289949825
C      5.328398076461    6.096411322130    0.125337427008
H      6.337420646827    5.666184578727    0.244109975886
H      5.468943387994    7.118431100219   -0.266143765543
H      4.879124753238    6.178515494598    1.125566899838
C      6.153988531831    5.609487751466   -2.673150302014
H      6.161942983583    6.711214960577   -2.611155838018
H      7.030948178053    5.258073125424   -2.103024194972
H      6.307473144790    5.332907490801   -3.726296467132
C     -3.902027894632    3.326395801666   -1.677961216180
H     -3.677963517114    2.336018438692   -2.100988458680
H     -4.461820563471    3.219124597344   -0.738647879606
C     -4.649822430480    4.190637642394   -2.678342328999
H     -4.092649583932    4.285447168863   -3.622547522434
H     -5.626177051160    3.731555899529   -2.901636659070
H     -4.833872648663    5.195476482427   -2.267453810520
C     -4.187354786717    3.761582399585    3.640191377192
H     -5.106249580281    4.356882893058    3.701167276344
H     -4.146781646239    3.059929706592    4.486097157224
H     -3.321007376805    4.437893073383    3.724683418819
C     -1.869825508953    0.448804171919    3.387956286482
C     -0.503310640679    0.250246576512    4.068854079221
H     -0.482676157269   -0.719622797984    4.591799636963
H      0.326099181977    0.260384332796    3.346589518540
H     -0.300057827738    1.040548463699    4.808561742286
C     -2.979224284176    0.296859280537    4.445565924287
H     -2.838293736748    1.003766726338    5.279819053728
H     -3.975801764369    0.467593600736    4.010689297681
H     -2.968898393328   -0.720570095829    4.868250691968
C     -2.068079140775   -0.621503480996    2.300430683230
H     -3.050229754099   -0.523259158616    1.812059671951
H     -1.293610282401   -0.574322940396    1.521775642139
H     -2.025061719182   -1.626912565464    2.749517725070
N      1.944181945593    1.158270097008   -0.265951201404
C      1.283662795070    0.000090566524   -0.484363735510
C      1.979895665452   -1.225768078543   -0.617012455453
C      3.349689372103   -1.245100385403   -0.465672207231
C      4.024451926279   -0.041240009759   -0.182082526556
C      3.283933277538    1.126359233056   -0.102123348251
H      1.398764089097   -2.125816145251   -0.818634392108
H      3.903357012580   -2.183031038817   -0.551884254334
H      3.771710981227    2.082222855076    0.085247702106
C      5.517853318318   -0.034968726150   -0.001385253555
F      5.896664112585   -0.899480280741    0.958856843838
F      6.150347377358   -0.411841559829   -1.128814468739
F      5.981908996641    1.177378427569    0.336722922687
