62

C      2.549404308703    3.911178868308   -1.260181184924
H     -0.397936802851    1.021322725426    0.213043125426
C     -0.028646722757    5.149118392062   -0.230057740160
H     -0.788370142175    5.083353876839    0.550949538114
H      0.775677555005    5.875985545154   -0.094251257250
C     -0.261333681377    4.597671699106   -1.477629526688
H      0.379527589789    4.857875330696   -2.323228191748
C     -1.520795933849    3.901157702811   -1.921242963372
O     -1.560040408303    3.251889344611   -2.941018430838
O     -2.561462795074    4.122969071792   -1.112836619638
Pd     0.964545359894    3.196319663037   -0.283254243508
C     -0.634079171226    2.565522031093    2.116537664569
O     -0.741899126536    2.424486412684    0.817209089284
O      0.389833429726    2.865824799868    2.704680518588
C     -1.939765129074    2.314384759814    2.882473104278
H     -1.901986529001    2.919987189369    3.801040044946
N     -3.081258518342    2.631445021801    2.052923869599
C     -4.397450895142    2.687656079025    2.402263624924
O     -5.265379075662    2.959685976852    1.582142640289
O     -0.012836852698    0.131776859621   -0.069399297132
H     -2.865119092771    2.789929639576    1.071632239404
C      3.440722693467    4.743308975020   -0.569363830802
C      4.624662392969    5.211573582474   -1.167309756893
C      4.915258263737    4.842616361610   -2.501448764421
C      4.008577408608    4.019638965914   -3.183446695478
C      2.833020073543    3.553963138451   -2.581893094021
H      3.233761934097    5.033401917986    0.466201780621
H      4.226070664934    3.731079462590   -4.216390791555
H      2.153688826201    2.912863556069   -3.150144020869
C      5.567342734362    6.096548755886   -0.389386069090
H      6.568240067908    5.641329957611   -0.298410592913
H      5.711673235362    7.071439460743   -0.885595435838
H      5.193134082220    6.288640547106    0.626574907614
C      6.174400443914    5.324138949484   -3.179421312593
H      6.220161881225    6.425872942143   -3.221545928654
H      7.079250936906    4.994102466360   -2.640991386517
H      6.242813316821    4.947091749297   -4.210099956941
C     -3.853248640837    3.583347733489   -1.510926925881
H     -3.686605506761    2.608247669367   -1.990402337959
H     -4.403416057786    3.444161733928   -0.569237115661
C     -4.576467265876    4.538128964226   -2.443764101339
H     -4.036047324597    4.657429501014   -3.395035817278
H     -5.578799133253    4.139767343782   -2.667771149129
H     -4.701121896524    5.526783490845   -1.975335015974
C     -4.726350599204    2.403704391147    3.858447064115
H     -5.814175752337    2.457901830478    3.984621776742
H     -4.370602993856    1.405916759757    4.162506919997
H     -4.246080761446    3.139534494853    4.523928637732
H     -1.929689563102    1.251561222597    3.199348612685
N      2.000210842617    1.285994382797   -0.026347150408
C      1.298896271417    0.128669796213   -0.029806301715
C      1.959655838484   -1.124283891838   -0.003267947434
C      3.333943946587   -1.165666578772    0.083066388228
C      4.052358686836    0.045002330639    0.141180525946
C      3.346165109974    1.233875882753    0.074705726250
H      1.345737166290   -2.024698496620   -0.032746910798
H      3.858515287744   -2.123432480112    0.117941341834
H      3.867874821203    2.189777485646    0.087877119449
C      5.552772708120    0.030878334824    0.246603728890
F      5.960384277704   -0.673428645745    1.319075036893
F      6.114799544871   -0.550049443602   -0.830531318209
F      6.064812488788    1.266351980925    0.352913531005
