65

C      2.544713921946    3.969994434486   -0.899871269023
H     -0.956712087829   -0.901311185557    1.134516306170
C      0.124415374404    5.141240373845    0.577416013691
H      0.938227214475    5.858564182046    0.711280851193
H     -0.443745727041    4.790135633875    1.447196227509
C     -0.348493977061    4.908456168788   -0.698367214653
H     -1.284111810626    4.364683533390   -0.857039345096
C      0.161172474497    5.689830705739   -1.874532178682
O      0.859780276130    6.670543154762   -1.803224745520
O     -0.298460863375    5.171318653478   -3.025570904689
Pd     0.904473367813    3.174959079056   -0.099202260868
C     -1.629753220108    2.302395652808    1.680972125586
O     -0.885589403394    2.167298844247    0.602285985218
O     -1.695784445699    3.320332038115    2.342605257558
C     -2.445304760540    1.037169159627    2.051610762465
H     -2.502213052497    0.399571263588    1.145866653895
N     -1.800306125507    0.377532901548    3.175883591479
C     -1.143225888870   -0.707283977609    3.074036035140
O     -0.848749224673   -1.417779334269    1.954170888212
O     -0.091126862285    0.069693200353   -0.335242380032
H     -0.525798531207    0.970442362907    0.010637181661
C      3.431975726169    4.752416073840   -0.150169145326
C      4.617131059282    5.263328609073   -0.706864664575
C      4.921367247946    4.984471377867   -2.059351958466
C      4.026587720225    4.199828888520   -2.798891658336
C      2.849171839043    3.692128208375   -2.236393241037
H      3.214230182760    4.983087999614    0.897059106370
H      4.256929008011    3.974284489229   -3.844989242047
H      2.182166199585    3.079905593906   -2.849379973039
C      5.542700293398    6.110889776992    0.131181119292
H      6.556255293832    5.678086687047    0.186250443043
H      5.657699879039    7.123083062490   -0.292915122603
H      5.167497302104    6.220548470512    1.159011826021
C      6.178324675833    5.523735683264   -2.696822535914
H      6.204887862874    6.626765472795   -2.675610729561
H      7.085626717113    5.179678839134   -2.171074862146
H      6.261180444988    5.208319570885   -3.747198051535
C      0.099739657270    5.838042765606   -4.237312197933
H     -0.192685402610    6.898432303222   -4.170305403058
H      1.199203994982    5.809787621484   -4.307913374834
C     -0.566601211584    5.135636711615   -5.401505721051
H     -1.663012486013    5.170287305592   -5.308453304164
H     -0.284592670474    5.626345448386   -6.346043527943
H     -0.259132911247    4.079901919140   -5.456188756682
C     -0.596851246738   -1.393323103412    4.295857435273
H      0.500217528701   -1.475227088200    4.228030307978
H     -0.876428926331   -0.832174119329    5.194656844420
H     -0.993225436596   -2.420162897170    4.356196194027
C     -3.865922661889    1.431645555880    2.463421157035
H     -3.814356673229    2.122940153355    3.315722195323
H     -4.396263109786    1.927835116949    1.634772120469
H     -4.434280698149    0.537658748945    2.761553343425
N      1.895503319573    1.230855239422   -0.011603041281
C      1.217308873536    0.067491832773   -0.164792102007
C      1.886685309668   -1.176914992973   -0.151269485761
C      3.256406658476   -1.244120913159    0.052919552146
C      3.940386174398   -0.022723714123    0.241912388594
C      3.235321652300    1.162697048859    0.196585057761
H      1.279245076242   -2.073370061464   -0.281636028010
H      5.017827350772    0.000848963328    0.416135740791
H      3.746653656894    2.116917661254    0.318864344644
C      3.992643674091   -2.555730309495    0.083126418036
H      4.512994358520   -2.688658543813    1.045905820924
H      3.314924470017   -3.408310793824   -0.062891161086
H      4.763647147768   -2.587557815260   -0.704495922022
