65

C      1.895859042015    3.454894751486   -1.870962446668
H     -3.330947513653    2.043796772819    3.935292563331
C     -0.253378299064    4.926497862251    0.040129885598
H     -0.758865999956    4.806870205569    1.002213947803
H      0.478392325968    5.734603125492   -0.045111940609
C     -0.706953680118    4.308348006078   -1.105463622321
H     -0.336186590894    4.622118832125   -2.082307595489
C     -1.900419411550    3.413606944958   -1.239607865881
O     -2.291734307642    3.028510313392   -2.316795247356
O     -2.474702281028    3.089568568733   -0.069438074825
Pd     0.899840789427    3.017912590305   -0.205929335408
C     -0.695679148299    2.030588066146    2.436762537736
O     -1.212825467180    0.942873573928    1.963645394595
O      0.177934861791    2.705302258450    1.887529523705
C     -1.247279543087    2.465321418229    3.794448043474
H     -0.693225665852    3.357504754005    4.110821967498
N     -2.660872944895    2.780773811901    3.757009004947
C     -3.099587233313    4.028396498257    3.394847388196
O     -2.330786418586    4.920267887134    3.077920089203
O      0.038371702037    0.166431109055   -0.018394391034
H     -0.710097884944    0.633481611951    1.078445034468
C      2.907329505445    4.419317087085   -1.796938865347
C      3.696164621129    4.741268636797   -2.916165026459
C      3.454062861650    4.081198097074   -4.142171009999
C      2.431560389888    3.123881179022   -4.199172681991
C      1.652651603056    2.802551415394   -3.081740389905
H      3.110924684241    4.937646961842   -0.854336402836
H      2.237038074243    2.609509200899   -5.145353732497
H      0.862712825379    2.052801887596   -3.168795089817
C      4.787787954907    5.776766284633   -2.799599214263
H      5.777728068842    5.349226548153   -3.033616067781
H      4.633440959502    6.613048667265   -3.502894940871
H      4.837731802815    6.196188492682   -1.784247511417
C      4.279024181285    4.396744997904   -5.365994658530
H      4.201527337176    5.460524596107   -5.649683653436
H      5.351175647060    4.195457972451   -5.198784915816
H      3.957570684808    3.796782855414   -6.229839862685
C     -3.574584055822    2.155423876530   -0.119186206119
H     -3.333043102256    1.370646734303   -0.850760597619
H     -3.592293048866    1.709446513796    0.884036885677
C     -4.889574704352    2.834496667430   -0.462764479894
H     -4.863605200260    3.247362282805   -1.481254644907
H     -5.709330603188    2.099663597313   -0.412415102793
H     -5.114663010647    3.648187998710    0.244190248980
C     -4.602697607073    4.238742665725    3.453008057513
H     -4.824167149716    4.962229452863    4.253042154963
H     -4.929346518931    4.692774855683    2.506583949911
H     -5.177183012145    3.318846044157    3.635845811209
H     -1.080150654637    1.649160890088    4.514451158506
N      2.051867691659    1.263885983322   -0.087558310983
C      1.304298346699    0.101443967262   -0.018178587852
C      2.016340716457   -1.142726080312    0.039447899469
C      3.390928038306   -1.171600583683    0.046680348623
C      4.120101749678    0.042129179764   -0.010385303332
C      3.391944771984    1.225489636370   -0.089381747157
H      1.416029758316   -2.052864957576    0.078889243994
H      3.930831867477   -2.119020353737    0.095760147479
H      3.922884736826    2.176542199083   -0.167134396567
C      5.597586018865    0.126185821722   -0.005725958998
O      6.236933003935    1.154726601928   -0.045259959527
O      6.178266205829   -1.093599224018    0.050713970338
C      7.602800550710   -1.109854546444    0.059665459090
H      7.997668065892   -0.563464093906    0.930057890037
H      7.897702775842   -2.165680806362    0.108496911561
H      8.007699740271   -0.643358125070   -0.851606755116
