68

C      1.505486956976    2.974394366750    2.163472304889
H      0.879384985924    3.835820535571   -3.869982780702
C     -0.946135757556    3.975280824901    0.832693947822
H     -1.679283479429    3.661984267984    0.085933043580
H     -1.099234513781    3.637677482571    1.859574912719
C     -0.044214186949    4.981975535201    0.549625404699
H      0.550720097134    5.435515471925    1.346410040880
C     -0.035069188082    5.782245246088   -0.720148221070
O      0.886605836087    6.495198327053   -1.041658649605
O     -1.175611620238    5.661247119522   -1.408950066789
Pd     0.955247436986    3.022640548356    0.238967701570
C     -0.347573491156    2.304187016041   -2.349251481868
O     -0.924361809100    1.414632927834   -1.684324572919
O      0.523544130581    3.104316933119   -1.881752318445
C     -0.695706735150    2.440449730062   -3.839725660535
H     -1.760901237910    2.724690626234   -3.899883506653
N      0.096124682095    3.509271759542   -4.425952836280
C     -0.283024336944    4.167055888787   -5.558009187046
O     -1.303999405565    3.891413486832   -6.171406746561
O      0.358919569757   -0.077744242710   -0.094475882380
H     -0.159474155839    0.631694909659   -0.635688329602
C      0.991480732296    2.004914374122    3.035133427358
C      1.397378440754    1.928853019519    4.377857932088
C      2.353733434579    2.851219440771    4.864764667112
C      2.865350491190    3.812193454079    3.984165307421
C      2.451165067021    3.884845996945    2.647325388753
H      0.262677643701    1.274449227063    2.670276830327
H      3.606621761053    4.529265415033    4.350653734386
H      2.879934763930    4.655516224607    1.999376364839
C      0.819280590197    0.869230206130    5.283947415217
H      1.604806486479    0.210512766278    5.692409713314
H      0.303080944855    1.313544035916    6.152260490621
H      0.095167208619    0.236638745703    4.750477158363
C      2.815412060968    2.801842028292    6.300763092056
H      1.976866366555    2.937676071485    7.005253507158
H      3.276679084713    1.830493513030    6.549195650048
H      3.557064981691    3.586639513604    6.509618411480
C     -1.283248524895    6.420891958335   -2.629307322729
H     -1.083412488000    7.479821605785   -2.399893204226
H     -0.497602117518    6.080582405852   -3.319683119365
C     -2.669170824448    6.209410563793   -3.199316591318
H     -3.443159508609    6.538744373309   -2.488921628855
H     -2.781876379202    6.788749343147   -4.128489250091
H     -2.842047032467    5.150563645124   -3.442654377008
C      0.659185401500    5.269041173914   -6.022986735556
H      1.043077179029    5.003493898983   -7.020123678592
H      0.085670237175    6.200993101226   -6.138260687131
H      1.509155666061    5.444219164241   -5.347311908177
C     -0.542161285957    1.106074960110   -4.633820162639
H     -0.640965849490    1.419917972051   -5.685761368892
C      0.842259348783    0.476214102406   -4.446776868189
H      0.983028388416   -0.369099171089   -5.139289621069
H      1.646513566491    1.203604777467   -4.642279393436
H      0.969953342630    0.086619109212   -3.422831803025
C     -1.672221361921    0.109867145190   -4.353597499272
H     -1.653972640522   -0.239230219671   -3.311885500532
H     -2.657430847465    0.568341894314   -4.538639832250
H     -1.582547325912   -0.763538170992   -5.020323234252
N      2.206827250556    1.320949882022   -0.039031514287
C      1.662171816570    0.083281149347   -0.076768961324
C      2.496337995853   -1.059900349117   -0.063001039587
C      3.870754523845   -0.904362656086   -0.048064462801
C      4.420844557030    0.388952565111   -0.048258286262
C      3.550928947213    1.465135830255   -0.035688721166
H      2.015754197948   -2.038596246160   -0.081271005410
H      4.521347859240   -1.782687885575   -0.045470199900
H      5.498458102260    0.556403883588   -0.044804083341
H      3.923769905989    2.491086892383   -0.005194927347
