74

C      1.878932668219    3.143902491238   -1.819918952542
H     -3.036332011151    0.546814689744    2.859862796143
C      0.235560030612    5.144498172291   -0.203783220155
H     -0.075899178636    5.384367924464    0.815371932885
H      1.124003278155    5.639301622073   -0.601891225189
C     -0.629262556749    4.479822589769   -1.049637210914
H     -0.415613604754    4.404105172522   -2.118460508553
C     -2.048357587488    4.112180759598   -0.719759904487
O     -2.703713208925    3.376262059598   -1.421146183321
O     -2.495736240158    4.721555784097    0.382349069095
Pd     0.783403212095    3.009062460490   -0.149257964139
C     -1.040551294142    1.957472514760    2.075056476884
O     -1.202638479749    0.869690281990    1.469504855394
O     -0.331358325821    2.930602828938    1.692197576566
C     -1.760080948958    2.107163860363    3.426681386639
H     -1.950102562733    3.173286846597    3.610234341167
N     -3.051427421567    1.446183609294    3.330982890865
C     -4.242175403624    2.085006828739    3.517844002566
O     -4.328871291486    3.245428819736    3.896470707408
O      0.236640313169   -0.073566387370   -0.330925126590
H     -0.399676040328    0.424800902388    0.335074472683
C      3.016144458405    3.958899720807   -1.890950139431
C      3.806554333650    4.030883555339   -3.051753393364
C      3.444045823488    3.261854569899   -4.180841002306
C      2.306052833440    2.447824966288   -4.098787940071
C      1.526377203113    2.379968209126   -2.938178967594
H      3.320723526556    4.559383122074   -1.027081611801
H      2.019064972708    1.846429659154   -4.967058374539
H      0.650664272673    1.725414628323   -2.915332925613
C      5.025311414228    4.920892406145   -3.085391834085
H      5.944675822042    4.345634302698   -3.289937299891
H      4.952231385571    5.682814545657   -3.880422212349
H      5.165860457699    5.447487037453   -2.129934004450
C      4.262480401659    3.312938257520   -5.448009724456
H      4.308727679087    4.333695420436   -5.865273077666
H      5.306472661745    2.999383706366   -5.274865945603
H      3.841008766478    2.655382291382   -6.222291339357
C     -3.862091278450    4.472041813504    0.785802284167
H     -4.123913897839    3.441308694893    0.506335082282
H     -3.861016276955    4.555100566267    1.880358971987
C     -4.811947562460    5.468763061368    0.144613450933
H     -4.834767742820    5.350928606491   -0.949462657129
H     -5.831644911534    5.305730031672    0.528508091577
H     -4.519111277879    6.502848296078    0.384700465578
C     -5.477717119639    1.251413562536    3.212524158461
H     -6.207930796036    1.398070062549    4.021065593483
H     -5.938792114249    1.625992416563    2.284503952086
H     -5.268448841621    0.178103951176    3.095744131707
C     -0.894721014425    1.535123058265    4.590915918800
H     -0.768362674256    0.454851432474    4.382595102302
C      0.497380977705    2.178762139469    4.635923049041
H      1.093427459629    1.765128838304    5.463059610552
H      1.062268628903    2.014172568672    3.707556942442
H      0.421216942365    3.268713753401    4.786835990778
C     -1.638618628103    1.676063838489    5.932868142030
H     -1.737170960337    2.749604300382    6.175009203265
H     -2.665909937594    1.301929254456    5.802735359888
C     -0.994592899977    0.933904554255    7.106385034436
H      0.002458611031    1.327688466512    7.359863391430
H     -1.616631928855    1.019839028675    8.011700084656
H     -0.879318827369   -0.141169640063    6.885815944283
N      1.972992904146    1.292804329474    0.316909499041
C      1.497559566268    0.065874990168    0.015349428471
C      2.343681327887   -1.079552082690    0.040928161142
C      3.662287012535   -0.896728341675    0.435866864176
C      4.132089617900    0.377786313895    0.794605347117
C      3.257112497322    1.444649641364    0.710078264713
H      4.334369301672   -1.758691712799    0.476811778277
H      5.161925480359    0.537008953393    1.116977441623
H      3.576074608712    2.462468056888    0.942541119581
C      1.768152828357   -2.414940317484   -0.337544736406
H      0.901696903596   -2.661844017611    0.296578381725
H      1.396185125881   -2.405317440429   -1.374978636946
H      2.518539099259   -3.212806208535   -0.241286945555
