72

C      1.385706666470    2.898746579495   -2.168819680884
H     -0.015588445823    1.816298513318    2.153407653077
C      0.517669802420    5.248234223564   -0.432147945872
H      0.597714725923    5.653731164662    0.582143121569
H      1.222954758528    5.595884174055   -1.190336306017
C     -0.601076594548    4.533147377044   -0.814503702733
H     -0.777485971149    4.284742793739   -1.864473008338
C     -1.815662010809    4.320762872110    0.052938961313
O     -2.568597966243    3.381099211940   -0.077974791771
O     -1.971090846715    5.311681589893    0.925909194178
Pd     0.985186824680    3.096164838235   -0.217922786243
C      0.316383114753    3.966917285689    2.832615398444
O      0.581330359766    5.156609180939    2.799240108345
O      0.667715749194    3.087556574933    1.929629686557
C     -0.483557623892    3.362663339200    4.027909589130
H     -0.797712164402    4.247664943802    4.603614923072
N     -1.709341551571    2.661279905338    3.661717843825
C     -1.792529855370    1.671496647523    2.859180669345
O     -0.767500012111    1.110824817564    2.172305965221
O     -0.136606040937    0.138084984077   -0.249869370219
H     -0.537893735504    0.583511998756    0.544142394561
C      2.429431056456    3.625459637253   -2.758263479276
C      2.762570845328    3.476329901876   -4.116426056642
C      2.019006812731    2.577039905267   -4.913482930855
C      0.973831378409    1.860396425628   -4.314987715705
C      0.650998657602    2.009251161579   -2.961061017334
H      3.017599448154    4.331912098146   -2.163923083791
H      0.392019369775    1.161385228699   -4.923932954216
H     -0.164956002790    1.422942582150   -2.532383090806
C      3.898862996125    4.273608551713   -4.709525478212
H      4.683034461669    3.617786332208   -5.125306986016
H      3.556747922503    4.914483289221   -5.540206015998
H      4.370249241109    4.923876283866   -3.958035633890
C      2.339505159236    2.391676896975   -6.376560513740
H      2.246133966344    3.336514057993   -6.939281674932
H      3.374608637474    2.039785179461   -6.527746531800
H      1.666143974203    1.657917600345   -6.843095813453
C     -3.095702575534    5.265232033061    1.835315960558
H     -4.015925461479    5.132986612208    1.243874391597
H     -2.977285852449    4.387597372132    2.489934260084
C     -3.087811865476    6.557532207362    2.623997343099
H     -3.221416017126    7.430078712181    1.965491054336
H     -3.906057883220    6.549842259947    3.360774593865
H     -2.133005007022    6.668758553652    3.159804674576
C     -3.113534834643    1.018114673724    2.565843325115
H     -3.866789842265    1.336024118573    3.296255365078
H     -3.439133690992    1.315597083907    1.554990511157
H     -3.010097091210   -0.078086491419    2.578717581007
C      0.462999620451    2.570297178155    4.942067796300
C      0.128164503120    1.314815703752    5.463739878633
C      1.003231019119    0.642145955245    6.324600837156
C      2.224083619542    1.216971527913    6.682315719970
C      2.562672163259    2.476762309986    6.175653561075
C      1.689623786266    3.146932127265    5.317518409442
H     -0.829652100554    0.861649234760    5.205697755426
H      0.722371987316   -0.337867746445    6.720024325262
H      2.906608299301    0.690916525305    7.354972239533
H      3.512274504457    2.942588248807    6.453243853442
H      1.957340081083    4.134890817525    4.932946336475
N      1.920495475462    1.157392932529    0.074070058162
C      1.188945487126    0.041029775157   -0.121649277452
C      1.797129771962   -1.220086623031   -0.227469186648
C      3.171556621108   -1.313710565288   -0.065124865499
C      3.910393903787   -0.159472773886    0.215188037939
C      3.259214431523    1.072529199320    0.280177946294
H      1.161534486018   -2.087630162862   -0.405497000230
H      3.669194160703   -2.284469917023   -0.131665832139
H      4.987658146775   -0.207127855584    0.379413078529
C      4.000598953887    2.345029953033    0.574873536863
H      4.003898224925    3.003822952868   -0.308334642990
H      3.509707554425    2.889548829401    1.396492810662
H      5.043091744240    2.140414022066    0.853982777180
