74

C      2.551293046474    3.940241533659   -0.860122407816
H     -0.894339874377   -0.781843973710    1.329453117944
C      0.144337378418    5.094177179784    0.635310900059
H      0.953661502272    5.820725471202    0.744075996676
H     -0.395792826426    4.742758009665    1.522423135475
C     -0.352876776728    4.844793664429   -0.628007213341
H     -1.284859334446    4.288977878198   -0.764438979091
C      0.125119984213    5.620011867911   -1.821511094791
O      0.812181925270    6.610170349738   -1.773388583494
O     -0.348631713163    5.082983992376   -2.958232822499
Pd     0.927919645579    3.127919984679   -0.039952929437
C     -1.580238301018    2.251663735294    1.753062291682
O     -0.851504981557    2.105941941104    0.667728386357
O     -1.559604166893    3.237451561605    2.466436078767
C     -2.509561254457    1.050671134342    2.065037515686
H     -2.509493343800    0.381459492535    1.178275523320
N     -2.025649087534    0.395027531375    3.267981474727
C     -1.258915019197   -0.619209985514    3.248176628845
O     -0.735746366171   -1.254017171507    2.165821210865
O     -0.032742392478    0.023297762034   -0.322167734824
H     -0.471920373460    0.906073438573    0.030108018168
C      3.438597749425    4.732714216673   -0.121075347058
C      4.612246865480    5.255258637472   -0.691183431278
C      4.904404368669    4.978245134028   -2.046679965296
C      4.009696809512    4.183691143457   -2.775575695884
C      2.843968327123    3.664308829345   -2.199588687699
H      3.230381399353    4.961990787268    0.928451694411
H      4.230913301680    3.959321120121   -3.823880322525
H      2.176972572455    3.044272552697   -2.804753683203
C      5.538552873799    6.112559946054    0.136070724334
H      6.556538316540    5.689092434287    0.181080491784
H      5.639882313344    7.125196544906   -0.290438787421
H      5.173166961455    6.220068209312    1.167668321061
C      6.148833252357    5.529466379313   -2.698320027206
H      6.164701126775    6.632724617035   -2.678194265505
H      7.065165792837    5.194764832766   -2.182300721700
H      6.223303586980    5.213972920042   -3.749292026465
C      0.019051395783    5.741212652387   -4.184325032184
H     -0.286863415937    6.798179483268   -4.123936258274
H      1.117388719137    5.727246543437   -4.273904826096
C     -0.657717198536    5.016584835614   -5.328675180096
H     -1.752695662127    5.037130559322   -5.216628758219
H     -0.399211816234    5.500519114783   -6.283370638182
H     -0.336433048434    3.964680478871   -5.377243013386
C     -0.824558505075   -1.292280778067    4.519797584413
H      0.274898501668   -1.288120536291    4.595308318604
H     -1.259939857376   -0.774071856368    5.381540408205
H     -1.144298467477   -2.347185621799    4.515146292333
C     -3.963334517694    1.541906983011    2.279065437809
H     -3.910599895313    2.236397103150    3.135119125765
C     -4.471263066079    2.309024565764    1.052201328809
H     -5.497383579605    2.674982050038    1.206584484114
H     -3.846609910864    3.189972102087    0.838527798739
H     -4.480095300107    1.667917666965    0.153110963349
C     -4.881533558957    0.367873819608    2.660431162834
H     -4.967644988845   -0.320204174463    1.797288450073
H     -4.384953686072   -0.200979210583    3.462114954022
C     -6.278992531761    0.773401617289    3.134911055928
H     -6.863364109094    1.275976223633    2.347385200768
H     -6.857441633761   -0.108035064893    3.455846264711
H     -6.220981682730    1.462249571961    3.994406634983
N      1.942884746811    1.190810029346    0.031932830206
C      1.280348830257    0.027401240872   -0.161671890346
C      1.954154825800   -1.226491002189   -0.213516319516
C      3.326244711820   -1.224706582755   -0.010086975921
C      4.006729877418   -0.022616399992    0.237297432418
C      3.282814605656    1.153464368492    0.241374873185
H      3.872918488878   -2.171564615686   -0.035718949220
H      5.083261050423    0.000143556104    0.411416271206
H      3.770778322620    2.114235594759    0.399103715783
C      1.159898092378   -2.480353829850   -0.451807477300
H      0.485716593003   -2.679272953018    0.397355967813
H      0.527147039714   -2.387562063554   -1.348394740794
H      1.824900068746   -3.346886014812   -0.576999498351
