77

C      1.100903115729    2.610693000748    2.251370596971
H      0.512292208139    2.163719855142   -2.154877811243
C     -1.035516164253    3.940656047611    0.843260911715
H     -1.178096555429    3.865020552660    1.922261065888
H     -1.746987042197    3.408895767362    0.201220250061
C     -0.156704171351    4.870018334592    0.327585366932
H     -0.177623251459    5.109570493164   -0.737806104971
C      0.623238001334    5.866241626299    1.127436997727
O      1.531973678307    6.516362456273    0.659968858002
O      0.196929150644    5.970404879234    2.390719458850
Pd     0.881664593497    2.889596567712    0.291542749519
C     -1.637475490095    1.943493314664   -2.099260025231
O     -0.569723657218    1.180104686600   -2.062061850443
O     -2.534122935101    1.909730369138   -1.270128045528
C     -1.706349827580    2.962749321331   -3.267646512054
H     -2.618343028098    3.540644380246   -3.046556547650
N     -0.645791711664    3.954134938562   -3.388992576204
C      0.501804270260    3.991796473648   -2.854609908985
O      1.050743345646    3.035859041746   -2.023342650409
O      0.156013084036   -0.197555189164   -0.165292063908
H     -0.264483149415    0.441438167050   -0.935740237222
C      0.343634287866    1.658342764751    2.939815330032
C      0.550137590263    1.420312778371    4.308863973869
C      1.546732632025    2.152145252182    4.997748395788
C      2.300556537311    3.093819694217    4.286123562897
C      2.088380133078    3.333162932343    2.921192513361
H     -0.415835120545    1.075681479961    2.411597440460
H      3.080485437825    3.657029650317    4.808103101125
H      2.703821122018    4.074467814886    2.403858908071
C     -0.281592058383    0.386392072735    5.027561231525
H      0.347551786403   -0.409156639532    5.462129643439
H     -0.846868040163    0.830285964005    5.864870243306
H     -1.003847784001   -0.089556088784    4.349130460386
C      1.800769533310    1.917429703714    6.466773561077
H      0.899933185842    2.110503208725    7.074106915203
H      2.093957471542    0.872791636106    6.668083690641
H      2.603822239772    2.567763896746    6.843328961342
C      0.899484226017    6.890487029233    3.248067416486
H      1.957940879418    6.588629820850    3.297065729842
H      0.868000378099    7.891847334831    2.789598848883
C      0.237335045377    6.859816400934    4.608812664303
H      0.288199740748    5.851082877258    5.046008857945
H      0.748245266304    7.559516529450    5.288406468429
H     -0.820438058112    7.156867694797    4.539766397743
C      1.449118774505    5.138808576974   -3.078303985685
H      2.385386306901    4.768612533314   -3.526594703155
H      0.988695710635    5.881760717189   -3.739898930910
H      1.716866376918    5.614028350531   -2.119466442508
C     -1.977448546757    2.274249375361   -4.659153318405
C     -3.105574571291    1.238805229442   -4.494390547453
H     -3.394108434067    0.835944570446   -5.478813479694
H     -2.795709372732    0.389344217401   -3.866191022247
H     -4.001303695836    1.686272245348   -4.034874266466
C     -2.432036463027    3.362160633338   -5.650649184618
H     -3.374046096282    3.830523985759   -5.320673449618
H     -1.675660938709    4.154317459826   -5.741749938065
H     -2.604994219198    2.925121058417   -6.647801276524
C     -0.715769311255    1.580357873573   -5.201323632653
H      0.098181428875    2.304370194071   -5.363550059787
H     -0.356481911038    0.804979508438   -4.509829043847
H     -0.934639518591    1.104214691278   -6.171232491536
N      2.031259402337    1.117646817673    0.085808323218
C      1.441202482207   -0.084952544096    0.004690145852
C      2.231175995388   -1.292065161825    0.133879610353
C      3.641236777115   -1.184683720964    0.306916745191
C      4.212806482034    0.123506752039    0.337992545381
C      3.393398490517    1.211285852730    0.232587033028
C      1.618803227677   -2.567167032135    0.077847172177
C      2.386683083919   -3.710424500411    0.203551985222
C      3.786191858575   -3.610168292546    0.381033426054
C      4.404200448735   -2.373916697329    0.429818223373
H      0.538724905729   -2.618173863061   -0.064684429943
H      1.914401040477   -4.694755852066    0.161932968941
H      4.384187515821   -4.520220258251    0.477153568987
H      5.486402713471   -2.298804298488    0.563106998590
H      5.289781403605    0.257431076356    0.452301327934
H      3.794990895526    2.225481371690    0.269659830134
