65

C      1.372858753463    2.943611128423    2.158588198474
H     -1.741307791620    0.431552052377   -2.780642656049
C     -0.822909029692    4.484255918288    0.744327147107
H     -1.547858153072    4.381995488754   -0.065659148187
H     -1.138276635602    4.187329291187    1.746948137961
C      0.322835564435    5.233364657841    0.565903426843
H      0.937898548846    5.513341260344    1.423668609852
C      0.692693839325    5.973106281121   -0.686785366337
O      1.820736451952    6.350720390269   -0.905630810856
O     -0.350496455932    6.189889813432   -1.492588075353
Pd     0.815960238876    3.097238614425    0.235847033930
C     -0.605432317739    2.456713786718   -2.332659145471
O     -1.163971741962    1.521666524478   -1.683370567322
O      0.245295905012    3.249424907180   -1.844939779128
C     -1.002979924243    2.662809321415   -3.807239074197
H     -0.420764323788    3.536306601756   -4.137106696932
N     -0.647066093187    1.567827777600   -4.702029577713
C     -1.062771758690    0.365478146789   -4.574986527930
O     -1.782439979314   -0.168549225182   -3.571877760490
O     -0.148076079773    0.156119398600    0.227939205746
H     -0.573226194233    0.808715143100   -0.431393520725
C      0.714025607835    2.022876710816    2.985588037969
C      1.064011871132    1.858405439678    4.336451115730
C      2.113014606265    2.636267886830    4.880206474671
C      2.768644811720    3.549422482006    4.045621898495
C      2.409053810504    3.712946135128    2.701321037925
H     -0.084486754357    1.397593755582    2.576040314456
H      3.582842760592    4.155775719780    4.454861140848
H      2.949962061574    4.445899795224    2.095865305887
C      0.327257582221    0.855437728805    5.190631410303
H      1.009966206053    0.092320826135    5.602255029428
H     -0.159153323833    1.337173501816    6.056305542977
H     -0.451047153313    0.333862020668    4.615152439277
C      2.519280222415    2.486725463905    6.325924171484
H      1.682696446995    2.707063377165    7.011174674387
H      2.846229701094    1.457736311244    6.554621956340
H      3.347081319408    3.164446963585    6.581058445778
C     -0.071369391116    6.818966811248   -2.759118590882
H      0.568133899251    7.697747364700   -2.584054751206
H      0.504545354146    6.107922289577   -3.373262401569
C     -1.389095363858    7.190713215175   -3.404716261620
H     -1.954421047829    7.893522464272   -2.773248608795
H     -1.204006134119    7.673168527504   -4.377009011902
H     -2.012892855966    6.300783317855   -3.577988013126
C     -0.768191419744   -0.650158751600   -5.647111780726
H     -0.207863681035   -0.185164775030   -6.466236591684
H     -0.194654136630   -1.491597852744   -5.225350998172
H     -1.713813173765   -1.068412692734   -6.029458807409
C     -2.497411246846    3.022147023965   -3.904871944692
H     -2.728578081750    3.917372061927   -3.305079042735
H     -2.754126065380    3.228423431886   -4.954868649879
H     -3.129792338172    2.195815797142   -3.549270421749
N      1.851829236539    1.249917414564   -0.127338672153
C      1.162292594738    0.103068339295    0.059664826577
C      1.822174088461   -1.140161041844    0.096383598257
C      3.189286443842   -1.174878117371   -0.123082792655
C      3.879233684338    0.015484586712   -0.388529795013
C      3.185502748264    1.223911280607   -0.383092763260
H      1.225665455746   -2.036641672219    0.266303791332
H      3.723219726192   -2.128554338136   -0.111887884952
H      4.950436108103    0.011378597268   -0.593608270861
C      3.872347496884    2.533729963423   -0.644430093205
H      3.323492355827    3.118491043932   -1.398960145399
H      3.912891190981    3.138317501023    0.275522510830
H      4.900930535079    2.376539136195   -0.996392336842
