75

C      2.530077724454    3.968221542016   -0.922868600602
H     -0.963827000399   -0.855602786448    1.181298713324
C      0.109450690155    5.152217045147    0.544211112345
H      0.922672106672    5.871661085342    0.670118776766
H     -0.454503574527    4.807778075685    1.419346725969
C     -0.364583518566    4.907482859381   -0.728903513831
H     -1.299461139803    4.361052164662   -0.882516363110
C      0.144140511395    5.678586144721   -1.912459026370
O      0.842823230065    6.659812909373   -1.849965648053
O     -0.316103284740    5.149613372809   -3.058229401060
Pd     0.889670054361    3.179895324125   -0.115226087870
C     -1.629402085472    2.317247866187    1.680108793948
O     -0.904163292284    2.181096012396    0.590882420397
O     -1.671233940045    3.327416260179    2.356484506246
C     -2.465688397055    1.064400922787    2.045225697251
H     -2.514617285406    0.414026221561    1.148748114493
N     -1.863305661329    0.415572426853    3.194250849874
C     -1.170109036419   -0.649645352206    3.117262463421
O     -0.808647185207   -1.343778207434    2.009879227923
O     -0.107351348176    0.077433564424   -0.357594413986
H     -0.541226144108    0.971053825512   -0.016744582479
C      3.415050656978    4.761116090851   -0.181578226072
C      4.600028419684    5.267290728809   -0.743033126988
C      4.906427970285    4.972421564181   -2.091655932247
C      4.013811315153    4.177371070103   -2.822700626968
C      2.836464190191    3.674674063780   -2.255535907963
H      3.195573377908    5.004438891463    0.862421788214
H      4.245666751005    3.939668706535   -3.865752985375
H      2.171226113575    3.054068860226   -2.862004400094
C      5.522459375378    6.127729489971    0.085347838493
H      6.537567153574    5.699334430907    0.145873851834
H      5.634125409128    7.135193268673   -0.350713181334
H      5.146437199024    6.248437684943    1.111641559376
C      6.162815170984    5.506719222304   -2.734439361969
H      6.186319208580    6.609993876530   -2.727407316977
H      7.070421652288    5.172060673837   -2.203202493984
H      6.247872203412    5.178061706708   -3.780554319745
C      0.081073948029    5.805305280421   -4.276549415648
H     -0.211471733706    6.866183004883   -4.218854702489
H      1.180477804937    5.776475521678   -4.347613673613
C     -0.586084531385    5.092200665854   -5.433692576525
H     -1.682414259570    5.127616818347   -5.340161874935
H     -0.304860326547    5.574360557321   -6.382840068978
H     -0.278488115078    4.036077033505   -5.479071135955
C     -0.652071618035   -1.323624107575    4.357210639362
H      0.444798078909   -1.417824028693    4.309998792607
H     -0.942375016583   -0.749054430746    5.243932912431
H     -1.062136161127   -2.344659084536    4.423243373175
C     -3.907570527551    1.501896599031    2.396105547835
H     -3.829394568572    2.176824441294    3.260535451693
H     -4.301137909181    2.093325660896    1.553216655677
C     -4.839091941905    0.348919741315    2.686209764177
C     -5.635020339363   -0.206614240384    1.671005708387
C     -4.914644814011   -0.214091675266    3.971582519737
C     -6.481021827027   -1.289795942760    1.926964288473
H     -5.596254090245    0.221560892068    0.664423085558
C     -5.759650048653   -1.296266064306    4.231835742552
H     -4.298413024463    0.205285304057    4.769864153256
C     -6.545955186496   -1.839200580382    3.210563530607
H     -7.095192795311   -1.702451263281    1.121858914675
H     -5.806896295034   -1.717056696484    5.240080501948
H     -7.209404194969   -2.683647582981    3.415412510195
N      1.881462527167    1.233479199461   -0.009151826947
C      1.200783582633    0.076204320490   -0.172109709822
C      1.876397347639   -1.165003954975   -0.152227886473
C      3.238185869152   -1.197913269430    0.068481232785
C      3.953142878820    0.000824895655    0.274719622722
C      3.219203661711    1.176861496836    0.217255265919
H      1.285242152344   -2.070067119058   -0.293252909405
H      3.761410681867   -2.158414002599    0.092686636083
H      3.716564237787    2.138312773010    0.344488872198
C      5.437172528040    0.009537399160    0.536432749869
H      5.820709344837    1.035029805157    0.639136293451
H      5.684289909869   -0.536710604484    1.462152040862
H      5.991456779160   -0.475900828468   -0.283896032096
