38

Pd     1.152081784021    3.145244004423   -0.209006786890
C     -1.630551807343    3.480260463013    0.070732209744
O     -0.761879460310    2.520737111180   -0.255128538707
O     -2.756947666201    3.238490824030    0.428660305495
C     -1.112204688658    4.953513064005   -0.086070418206
H     -1.426346446640    5.492966446016    0.825901647370
N      0.334849739614    4.901258518616   -0.187728633234
C      1.386885396668    5.560221746677    0.276711205298
O      2.473388635484    4.882447736726    0.216549293655
O      0.078104550712    0.082854180966   -0.000550302609
H     -0.365320218753    0.980134860645   -0.060083437897
C      1.384149258217    6.954706259445    0.830339326586
H      1.684524227466    7.666119138410    0.044429264596
H      0.393281851508    7.250258629833    1.201530339853
H      2.124714323035    7.016020999883    1.640027067909
C     -1.795970267811    5.660827371307   -1.318697717482
C     -1.602220045096    4.822149775465   -2.595292442938
H     -2.019404283001    5.353760850365   -3.465543330855
H     -0.535194070476    4.635102767576   -2.792816769426
H     -2.112475793392    3.849146476510   -2.525256384737
C     -3.297365220572    5.852831713488   -1.034212996421
H     -3.807981771277    4.896885490827   -0.862101021411
H     -3.455479020825    6.480476784918   -0.141224991023
H     -3.775190428411    6.360802413852   -1.887547344070
C     -1.157685992924    7.046465582756   -1.524029183701
H     -1.263824220565    7.679080841432   -0.627514718743
H     -0.089139132038    6.972395728129   -1.775275034959
H     -1.658106805262    7.568915976555   -2.354869351804
N      2.080542550154    1.266081570201   -0.120977047771
C      1.391619284071    0.105420639659   -0.028967140383
C      2.078499503250   -1.130561946807    0.041884898896
C      3.460275935137   -1.146108202169    0.018018900290
C      4.166395206029    0.066967881916   -0.074650261802
C      3.434893333688    1.238350749937   -0.139902753942
H      1.481215868349   -2.040025391718    0.114445406030
H      3.997072295429   -2.096623308631    0.072073309827
H      5.256249857456    0.099154646413   -0.094165254690
H      3.923846773998    2.213912761533   -0.208607883759
