65

C      1.202388587145    2.706667418235    2.372616610315
H      0.323388505408    2.168858258990   -2.224462386652
C     -1.189459183585    3.768818781886    1.052142479982
H     -1.289511171086    3.673707501640    2.134603804555
H     -1.879690143371    3.196366593900    0.423748422596
C     -0.414078220591    4.773695884074    0.511324183823
H     -0.499950896245    5.015146614301   -0.550361024078
C      0.312109744079    5.829942182490    1.281239981952
O      1.134324018819    6.561123860442    0.773166930120
O     -0.054517889364    5.888219182488    2.564981466446
Pd     0.766400570032    2.871193460502    0.443514136040
C     -1.878012293718    2.035711403733   -2.397975168109
O     -0.952153653273    1.072847406065   -2.543742905779
O     -2.626231377724    2.113664152416   -1.452640740941
C     -1.830948052796    3.079360059260   -3.527150131903
H     -2.768440329151    3.647027063208   -3.414410682446
N     -0.762249795787    4.069209298795   -3.443053181178
C      0.310646331473    4.044731922806   -2.774108516034
O      0.743781467654    3.016971508889   -1.941633230076
O     -0.001684539485    0.163256853527   -0.402736614260
H     -0.772847073922    0.561626927974   -1.673167659656
C      0.573676641544    1.754913228285    3.179810499863
C      0.934865187158    1.598989840632    4.528432844356
C      1.957197032662    2.413657742441    5.071707327419
C      2.580027387519    3.353438987021    4.240861292666
C      2.214725613119    3.510865835262    2.896402655428
H     -0.203179892862    1.108865839784    2.762196398035
H      3.378530476150    3.980506271791    4.649373594792
H      2.729230210601    4.255409902843    2.282489854602
C      0.243718068206    0.561603984533    5.378923496233
H      0.959293583240   -0.179070511684    5.774871412399
H     -0.250800451973    1.017116999660    6.253862592874
H     -0.520316763252    0.016868783899    4.806134955355
C      2.378872121563    2.265232035139    6.513123970709
H      1.538450815698    2.441285578804    7.206150459304
H      2.750700315425    1.248335832488    6.725848987585
H      3.179638676160    2.973526432407    6.770985002690
C      0.613758013282    6.856598341564    3.397181386225
H      1.694051620906    6.641852727546    3.387819022842
H      0.475189729263    7.855621254618    2.953846565888
C      0.028827875352    6.759050883307    4.789623420442
H      0.187561398281    5.754872256956    5.211072025616
H      0.514769330172    7.493657395088    5.450417152000
H     -1.052250902427    6.966746991887    4.779578549593
C      1.294831318950    5.178525184234   -2.793622222497
H      2.277987553477    4.814051984770   -3.132012231267
H      0.936575588932    5.965457585536   -3.467066075311
H      1.433031731719    5.597878730085   -1.782891646722
C     -1.817782940729    2.429454626494   -4.917235384754
H     -0.914724587401    1.816784223284   -5.052770462740
H     -2.698308187683    1.782584278876   -5.052072729652
H     -1.831707252259    3.214106751314   -5.687311992654
N      1.966246722097    1.166575975183    0.174303830143
C      1.246168431649    0.063156954674   -0.251176286054
C      1.984936110062   -1.148514998579   -0.489578906813
C      3.342796010283   -1.197216504618   -0.290451755392
C      4.031643229510   -0.043254517164    0.158510864287
C      3.293173149386    1.105325839744    0.383195520136
H      1.417952789096   -2.018053398293   -0.825170285545
H      3.894144524404   -2.123593771071   -0.472860014690
H      3.775358108065    2.013841395451    0.748648793973
C      5.510924697924   -0.082757502439    0.389487945448
F      5.849901054357   -0.999263433930    1.319965766850
F      6.183712529665   -0.419611556274   -0.730829566029
F      5.993596105986    1.102978913247    0.803274634176
