62

C      1.109845877060    2.666353675791    2.244342644640
H      0.290829668120    2.286486466433   -2.119544704034
C     -1.115292582626    3.973761027695    0.944251738364
H     -1.221499082214    3.863823580188    2.024557698061
H     -1.846178347520    3.458246482595    0.310297682121
C     -0.262443362629    4.927548001918    0.428315216780
H     -0.324093938127    5.198784600469   -0.628032151090
C      0.531198651404    5.908339805135    1.234132069295
O      1.428669054903    6.572183728175    0.764037120125
O      0.129481311080    5.983018331917    2.507555927829
Pd     0.793768348169    2.962318428890    0.300390740047
C     -1.847066859645    2.105994985762   -2.002034501331
O     -0.779458342168    1.351750729509   -1.934856095228
O     -2.774754552315    2.078287207917   -1.208616416488
C     -1.854732936084    3.102375844798   -3.188316034104
H     -2.841856388895    3.587640366633   -3.190639071257
N     -0.847739309014    4.150397071755   -3.270466294008
C      0.317616563040    4.150198108121   -2.770673068228
O      0.883266879561    3.144015667634   -2.019696856292
O      0.018651778449   -0.118080817291   -0.085263478493
H     -0.423331974747    0.532301447399   -0.785905399652
C      0.399175776068    1.699390041476    2.961578272332
C      0.678437027626    1.451281556479    4.315904734922
C      1.702013437669    2.186979594799    4.959597857219
C      2.409246639085    3.142452482637    4.218947812138
C      2.124069312784    3.392500741212    2.869255236172
H     -0.378735856083    1.112060551346    2.466570905787
H      3.209234119506    3.709250502287    4.705544870101
H      2.702949608909    4.146363450872    2.328282881391
C     -0.105463707017    0.402591191599    5.066366846923
H      0.552565610302   -0.390124091628    5.461675749940
H     -0.631964723371    0.833378965637    5.935197979642
H     -0.856453155325   -0.074846606063    4.421014684308
C      2.032821344459    1.942802339406    6.411752911604
H      1.162324260310    2.122420696739    7.065662981214
H      2.345355022983    0.899465766559    6.589496957103
H      2.847900527537    2.597889264916    6.752555100044
C      0.844276347500    6.887963171196    3.370721351698
H      1.903720881591    6.586938227186    3.397147575321
H      0.803632984374    7.897801771593    2.932064887957
C      0.204317362201    6.830104817040    4.741169612985
H      0.264471917790    5.813550636463    5.158609620685
H      0.724674856995    7.518099257274    5.425545412021
H     -0.855085198130    7.125714075408    4.694866055881
C      1.258970183608    5.308409713360   -2.958416355537
H      2.182896524823    4.961558766042   -3.449247038268
H      0.780878394345    6.080413354479   -3.572691697132
H      1.551288023243    5.739396462859   -1.986020700339
H     -1.792795564865    2.504984042552   -4.117596327046
N      1.929324224250    1.189623555887    0.017936682285
C      1.323333735095   -0.023457320924   -0.027620399735
C      2.105265996346   -1.202626187959    0.018436948611
C      3.490598623647   -1.143208754872    0.067303612261
C      4.089263946110    0.137942616902    0.067722647963
C      3.280498927270    1.256207667184    0.050591893420
H      1.569312983786   -2.152684848556   -0.008571978761
H      5.174183655294    0.255650168371    0.093463272546
H      3.711952014044    2.259333254263    0.076125274891
C      4.337464664544   -2.386887020138    0.104556271141
H      4.963379657680   -2.405331548249    1.012108498612
H      3.723947027286   -3.298486231417    0.090782355210
H      5.023201138667   -2.419077284973   -0.758183389797
