77

C      1.139286965836    2.605536506542    2.220444087893
H      0.503837125530    2.157215213582   -2.183483864668
C     -1.033120020460    3.909187629008    0.849548827967
H     -1.155223375618    3.834589091591    1.931088888219
H     -1.749188794347    3.368024953354    0.220533328945
C     -0.174251445427    4.847229037167    0.316000663743
H     -0.218659792936    5.084131534329   -0.749332431474
C      0.608920835917    5.855826939650    1.097960734493
O      1.489103885634    6.525818137565    0.605393750601
O      0.219372345784    5.945119052733    2.373836772033
Pd     0.887874324732    2.881860616191    0.264014487491
C     -1.643320539087    1.915050997162   -2.100501417028
O     -0.570093359861    1.156158648520   -2.085638470552
O     -2.522447194480    1.874315676101   -1.253980403963
C     -1.737443836800    2.936862192405   -3.264308672968
H     -2.651257365181    3.505765225621   -3.028025900421
N     -0.687552732986    3.938159117319   -3.395606428941
C      0.464954469409    3.987378403759   -2.873636776879
O      1.031007549970    3.033031982575   -2.049067470531
O      0.182655970332   -0.217515084513   -0.210192701219
H     -0.253236839145    0.426724106748   -0.983266197421
C      0.389916936717    1.659354699010    2.925428927087
C      0.627200059317    1.419463244374    4.289331463133
C      1.646406806307    2.142773823168    4.953770329424
C      2.391569623714    3.077809098677    4.224303515615
C      2.149138634616    3.319652666715    2.864811718630
H     -0.387622713011    1.083958952051    2.415767899255
H      3.189589850404    3.633273293281    4.726577738903
H      2.760049599695    4.054202060750    2.332672211698
C     -0.196690983954    0.393483807533    5.028105639015
H      0.435371447806   -0.406629290633    5.449848083909
H     -0.738915393244    0.843380654135    5.877338233537
H     -0.938278599628   -0.077309796568    4.367144138137
C      1.933277998231    1.906276349190    6.416445538025
H      1.048955101052    2.108134113895    7.044788369302
H      2.221324127556    0.859030342623    6.611423263603
H      2.751149050015    2.549169097059    6.773153952401
C      0.930478398945    6.874995483204    3.214346267680
H      1.995014700117    6.591711729810    3.230564468666
H      0.867559978851    7.877037109558    2.760812338577
C      0.309298248712    6.827846800327    4.593704263903
H      0.390741457202    5.818803408797    5.025488170834
H      0.827866204692    7.534133093771    5.260536470801
H     -0.755039634322    7.106651759202    4.557117748603
C      1.399154805022    5.143452503949   -3.102222451427
H      2.337056009334    4.783142447683   -3.554937598928
H      0.927390045576    5.881605071889   -3.761157484727
H      1.666677507355    5.621627978829   -2.144768131670
C     -2.021828734586    2.251651645039   -4.654732873290
C     -3.136801197375    1.204059708940   -4.477641992991
H     -3.435608877304    0.802180870066   -5.459348218603
H     -2.809226627779    0.355127887076   -3.857718411147
H     -4.030365398150    1.640555797306   -4.003545233233
C     -2.502070235318    3.339470953125   -5.634129735767
H     -3.443649546289    3.796857454964   -5.287991036719
H     -1.755042017174    4.139513130724   -5.733081452328
H     -2.685597152633    2.905095872928   -6.630500339273
C     -0.761301116568    1.573384269010   -5.218919137902
H      0.042989534696    2.306347875848   -5.388937127158
H     -0.384414055211    0.797387124667   -4.537566567260
H     -0.989705343925    1.100613970391   -6.188228896472
N      2.058728596933    1.116136537014    0.044381351627
C      1.463213967803   -0.110819943218   -0.044699950509
C      2.263251544723   -1.280228303202    0.071799315103
C      3.629874273443   -1.178232144735    0.217266914709
C      4.230007324513    0.099965382239    0.254735878320
C      3.394365614967    1.207860804357    0.175339185929
H      1.751522868320   -2.241576131506    0.016626053657
H      4.254256955876   -2.069917323626    0.292661803981
H      3.828459381510    2.208032266086    0.235223433911
C      5.691434258514    0.331607459402    0.394618657141
O      6.212940549779    1.422593017689    0.435817585705
O      6.381764837017   -0.822288582227    0.472060322430
C      7.797918213424   -0.702488616175    0.606411624698
H      8.058320910394   -0.152631854441    1.523466867611
H      8.188420683309   -1.726479788349    0.651874772984
H      8.228005754527   -0.166854479006   -0.253345422281
