38

Pd     1.153885717004    3.108113916138   -0.121529496886
C     -1.676443628782    3.373169466162   -0.231389826453
O     -0.730828320136    2.444315442146   -0.384293854320
O     -2.849533100999    3.096570741879   -0.174378001897
C     -1.177176020039    4.851692295051   -0.149506024754
H     -1.580742513772    5.251526081190    0.799869022724
N      0.269858430866    4.825959408979   -0.120552314674
C      1.256567868531    5.576487035953    0.338319363501
O      2.374991135085    4.961849060972    0.400433528693
O      0.102975016174    0.108707080765    0.332886056218
H     -0.335618683618    0.969803136530    0.072721392984
C      1.132945873079    7.018079687268    0.739015125358
H      1.471826891430    7.659995967192   -0.090493355374
H      0.097512235596    7.290748501127    0.988300359023
H      1.789332143317    7.210070290738    1.599614164233
C     -1.735119171112    5.724432788322   -1.313092124081
H     -1.194518279330    6.684990787489   -1.226632663009
C     -1.413535199729    5.130398995411   -2.689019443361
H     -1.702755937074    5.830031567059   -3.489138651073
H     -0.338070428361    4.919915024112   -2.795496339323
H     -1.965187428946    4.190546359628   -2.854642066115
C     -3.230826232353    6.016387176227   -1.145252306301
H     -3.822182731684    5.090898224595   -1.183285645570
H     -3.439482705420    6.505318965632   -0.179190599744
H     -3.578669497835    6.690621030960   -1.944236155989
N      2.123240048850    1.216524745151   -0.034431993399
C      1.414958814048    0.093470329704    0.234599441713
C      2.061405136504   -1.148552779993    0.429439976303
C      3.435450798489   -1.215028649446    0.317137040581
C      4.159349235686   -0.054097653188    0.005534676751
C      3.480667299250    1.146817155769   -0.167192864429
H      1.440623592482   -2.016208729187    0.653371936523
H      3.953778591450   -2.166592490140    0.460185771171
H      5.243927704360   -0.079315861981   -0.105091426150
C      4.213992675840    2.411339355463   -0.516638593311
H      3.841675608563    2.828109958270   -1.466814329159
H      4.070517806636    3.191417672616    0.246384950362
H      5.289952367839    2.217532625084   -0.622916740232
