74

C      1.326305152749    2.806330992109    2.133115831883
H     -1.791691018410    0.380079841748   -2.809737005652
C     -0.780886251489    4.478841499462    0.727545504755
H     -1.496324797765    4.436496041165   -0.095981417317
H     -1.129075939628    4.184367605751    1.719950318531
C      0.408952353369    5.163530362018    0.581276106223
H      1.028832330350    5.391847239290    1.451368172000
C      0.844835546903    5.886570564646   -0.660854900855
O      2.000799752760    6.177138739497   -0.869805693876
O     -0.171206237573    6.184329631770   -1.473302692563
Pd     0.792557115275    3.015782808307    0.212593169749
C     -0.650159771228    2.406650923454   -2.345306818961
O     -1.146919111996    1.425946249023   -1.708074709157
O      0.191487219451    3.208659758710   -1.862836175413
C     -1.130113881702    2.661801483936   -3.787122944891
H     -0.566515210909    3.547924992780   -4.115690049750
N     -0.834568658444    1.605442881007   -4.746357224883
C     -1.237102738787    0.396597012296   -4.645479429030
O     -1.886910151707   -0.185347491640   -3.621050627122
O     -0.012230077470   -0.002841971682    0.047866515945
H     -0.470837522443    0.689622276133   -0.561216419427
C      0.531225482537    2.009085909907    2.967470551132
C      0.854189231980    1.803317911220    4.319678481770
C      2.011596081829    2.415502616149    4.854264266849
C      2.800945861744    3.206128396874    4.009633092561
C      2.472309055923    3.407371028660    2.662990123817
H     -0.357520748624    1.512101173932    2.566557030414
H      3.701633571028    3.679956974835    4.412395128370
H      3.125277850566    4.026281459715    2.042073770916
C     -0.026161514050    0.933484258288    5.183784299200
H      0.531178695175    0.076157224420    5.598748209920
H     -0.428398926488    1.490858845577    6.047255659681
H     -0.878577409814    0.534690656988    4.614918742571
C      2.392788077205    2.219436155916    6.301369931445
H      1.601489574274    2.572192552547    6.985117202689
H      2.558964981689    1.154774647834    6.540078647011
H      3.315325802697    2.764623952030    6.549024767729
C      0.166191978762    6.778664418546   -2.742739704860
H      0.820273371529    7.646291219282   -2.564097298161
H      0.744542627371    6.041305601585   -3.322016482122
C     -1.120700868507    7.166338101193   -3.438847156492
H     -1.690886704296    7.893991506890   -2.840756720154
H     -0.893149839478    7.624338846019   -4.413912440629
H     -1.757385933909    6.285913826251   -3.614382327127
C     -1.011192372330   -0.569550806458   -5.778245760149
H     -0.511015555444   -0.065097611743   -6.612778322391
H     -0.404592215035   -1.422748744937   -5.433393521493
H     -1.978334135604   -0.979677846504   -6.112588797171
C     -2.626814427327    3.027710962346   -3.780759902097
H     -3.239587315042    2.189947555478   -3.417129840892
H     -2.817687917401    3.902458900385   -3.137866565167
H     -2.945287691868    3.270971914136   -4.805603156421
N      1.906309969340    1.221489566779   -0.171453519049
C      1.298466078765    0.060948269533   -0.023481686473
C      2.037282101918   -1.183620012301    0.100502921713
C      3.453315453420   -1.153448866568    0.014334894806
C      4.102371434609    0.124773903017   -0.244071419992
C      3.288208756217    1.287620970219   -0.338857785721
C      1.351346939459   -2.400785805635    0.307003769222
C      2.060354996970   -3.581877852475    0.449205434260
C      3.466770179531   -3.562662406338    0.379658640129
C      4.149800646718   -2.374981124946    0.164177577514
C      5.498052340706    0.267598805472   -0.416820064508
C      6.071395518687    1.502230549232   -0.678159450813
C      5.257141584872    2.644193036354   -0.780626466557
C      3.885671627579    2.537642513577   -0.612672208192
H      0.262169395591   -2.383910037612    0.352844946855
H      1.532419195953   -4.524250638856    0.612090127235
H      4.028373094139   -4.493564194810    0.492541845615
H      5.238736414087   -2.391857658098    0.110584015984
H      6.140602055910   -0.611364478878   -0.350794660175
H      7.152601508182    1.584586772094   -0.810762244158
H      5.699720157910    3.618977998100   -0.998307101947
H      3.249438179384    3.421118032171   -0.704702445211
