77

C      1.275031116100    2.794446181322    2.088274987539
H     -1.748061315349    0.065246989857   -2.783189522899
C     -0.940197542875    4.296145830258    0.608613211581
H     -1.631367480814    4.200829911977   -0.230991959455
H     -1.296858200363    3.997292263370    1.596968351179
C      0.215696487519    5.038893063461    0.483012297738
H      0.797224750366    5.307659534272    1.367793700886
C      0.654843443181    5.780318230922   -0.747158258621
O      1.804760420632    6.110357943417   -0.923389381685
O     -0.355111056855    6.063556970384   -1.575140136647
Pd     0.716917084420    2.902500958006    0.167341894358
C     -0.644145810351    2.141155594550   -2.420353863021
O     -1.085125918820    1.136560373325   -1.782421873621
O      0.123137070397    3.005218346995   -1.914326808847
C     -1.076109931843    2.407682965282   -3.879881073306
H     -0.272481282688    3.063872917023   -4.251857851923
N     -1.184624495610    1.329246378037   -4.837644765377
C     -1.588761304611    0.128342281388   -4.688047512324
O     -1.958678282450   -0.509759816137   -3.567188741327
O      0.099772356582   -0.217061731955    0.003517921942
H     -0.395048069370    0.445805619443   -0.603460445703
C      0.556585888103    1.967977204316    2.962210877034
C      0.919456908885    1.828140839393    4.312726389734
C      2.040818724828    2.536700850832    4.803952937107
C      2.755195262376    3.355177217449    3.919955678238
C      2.385527547560    3.491505347428    2.575682295173
H     -0.301422464764    1.396447190945    2.594815659665
H      3.626113343518    3.905330875387    4.289895094030
H      2.974915205109    4.143599591626    1.924273348124
C      0.120554408707    0.925600374245    5.221132179284
H      0.745671836808    0.123301398558    5.649301289320
H     -0.303377257526    1.480055123769    6.076018631126
H     -0.712174344972    0.449979420939    4.683057249333
C      2.462788442744    2.412836846020    6.247701963571
H      1.661859665765    2.730605240879    6.937317374589
H      2.707929563747    1.370291356630    6.514219506433
H      3.349184704707    3.028544682118    6.459432183173
C     -0.022600148986    6.735531380043   -2.807920242100
H      0.750465531746    7.490093453962   -2.599782927098
H      0.416034256433    5.989536979531   -3.490584356222
C     -1.285377921711    7.350214064262   -3.373332030931
H     -1.714895056592    8.083067978527   -2.672840994402
H     -1.054431037122    7.869722443918   -4.316393582768
H     -2.045307713315    6.583107278453   -3.584055832014
C     -1.701371932463   -0.776471051747   -5.890028587867
H     -1.403798963292   -0.242492425687   -6.799582072563
H     -1.066466982557   -1.666591139153   -5.750555026424
H     -2.738311988594   -1.137607827662   -5.987898521693
C     -2.360215850216    3.308246473840   -3.877580870573
H     -2.138708892220    4.126465149242   -3.167284818803
C     -2.564818009951    3.927604103099   -5.266457529549
H     -3.412879173280    4.629685142402   -5.274727516679
H     -1.669282363214    4.483113186285   -5.588373446218
H     -2.752546181078    3.144335706715   -6.015682714855
C     -3.615094055687    2.571375262156   -3.370768925769
H     -3.896117361728    1.794391411868   -4.102245998319
H     -3.366259626286    2.033463725205   -2.442193444544
C     -4.819313097635    3.479161178815   -3.103497597114
H     -5.185825409339    3.970640336969   -4.018635739627
H     -5.660098739780    2.902780324771   -2.685341937631
H     -4.571519864917    4.273985813680   -2.378811893163
N      1.924716190075    1.169496938635   -0.139032231706
C      1.403476193549   -0.052898067816   -0.046574629233
C      2.245476504709   -1.220407714888    0.023965959508
C      3.658869182265   -1.044311138706   -0.041204363613
C      4.161759421794    0.283403817858   -0.186074018782
C      3.284763325385    1.331224554067   -0.226303931720
C      1.694799039384   -2.520171101493    0.142620117956
C      2.529867290625   -3.619421062564    0.210386574229
C      3.933847792040   -3.451477612500    0.154265030937
C      4.489803094357   -2.192117569287    0.028315326276
H      0.610068178594   -2.627632391016    0.177295957762
H      2.107445742751   -4.622696512470    0.302733368016
H      4.583671880553   -4.328868424903    0.206960972360
H      5.574237066266   -2.065656860389   -0.020173882259
H      5.235371194510    0.465243157373   -0.257989950239
H      3.632605555391    2.360914196835   -0.322616999156
