83

C      1.788738875524    2.996767088356   -2.082991778993
H     -3.097906210441    0.189428799629    2.618206496298
C      0.392578435281    5.080762101275   -0.493304112847
H      0.274330899893    5.452098961571    0.527963045982
H      1.230539143009    5.466268889650   -1.076103314575
C     -0.659602149778    4.429432465806   -1.111631544397
H     -0.645646842823    4.242852606206   -2.189226779371
C     -2.024578171945    4.271534489676   -0.503139271050
O     -2.825378962015    3.442002410783   -0.868379081088
O     -2.265183376950    5.196939113848    0.432514048564
Pd     0.779619603459    2.919163046877   -0.364103003423
C     -1.113453567905    1.756975871227    1.863270685416
O     -1.217950221004    0.623168156346    1.253254799576
O     -0.419678113643    2.715586576787    1.494453377975
C     -1.928413262159    1.862385843095    3.153270960138
H     -2.205502501528    2.918193576683    3.268036914294
N     -3.169403789320    1.122716563008    3.007557983948
C     -4.393364789478    1.735816981366    3.015988543242
O     -4.539428799286    2.918695407074    3.288560236046
O      0.320269669644    0.082761549773   -0.581989641330
H     -0.576127695020    0.471148997891    0.401047528091
C      2.967711698381    3.727767727823   -2.263488516594
C      3.646411400002    3.734237623421   -3.494531948911
C      3.125855438011    2.986474865516   -4.575205882334
C      1.948084237002    2.254015216403   -4.376848886476
C      1.277458160832    2.248205151908   -3.147807059780
H      3.397242723097    4.299309251179   -1.436394364385
H      1.541614518475    1.664406114305   -5.204434365009
H      0.374050984473    1.645110118080   -3.026715645394
C      4.919985565165    4.529294305898   -3.650991781161
H      5.770393471872    3.883210969592   -3.928776676429
H      4.832137160432    5.288742180649   -4.446979739619
H      5.186590400210    5.048849691769   -2.719073211109
C      3.824989077121    2.969131083195   -5.912691043229
H      3.908534784617    3.981211530019   -6.345042955542
H      4.854109308690    2.578680120712   -5.831446770813
H      3.286252811875    2.340507739402   -6.636693118104
C     -3.586575163961    5.231885150659    1.018717861535
H     -4.327193482179    5.164383101406    0.206424526356
H     -3.725048866972    4.355550668853    1.669019960898
C     -3.713258176327    6.520465919281    1.803171607415
H     -3.592872475989    7.401129507889    1.152774645615
H     -4.706777023289    6.567056081216    2.274918359689
H     -2.956545712914    6.571973693033    2.601319534227
C     -5.565823385149    0.845295946572    2.644821193928
H     -6.427407933199    1.117535646320    3.269508042746
H     -5.839470137465    1.042430255037    1.595446882662
H     -5.350780697341   -0.227622365731    2.756097645862
C     -1.108325397603    1.450936956782    4.433473946302
C      0.166012671029    2.308843579667    4.538014177826
H      0.685119590988    2.090077366182    5.484825560452
H      0.872205335989    2.113390827019    3.717766540147
H     -0.071978397851    3.384458514457    4.524914769891
C     -1.995782072820    1.722650342776    5.662555070375
H     -2.289752856612    2.782427974930    5.718943200191
H     -2.915978512851    1.120404550248    5.636219680432
H     -1.451375195075    1.468622077953    6.586176884379
C     -0.727198032492   -0.040198678223    4.395197348401
H     -1.619748065424   -0.684301674904    4.346070676913
H     -0.086100621005   -0.282924538130    3.534263975512
H     -0.177870975386   -0.313041972178    5.310405787078
N      2.067357256519    1.305523500972    0.163298854385
C      1.541188223340    0.134747684987   -0.214044614892
C      2.374541506154   -1.072858723989   -0.206958579115
C      3.720435459195   -1.001103296278    0.233539934647
C      4.231667715889    0.284955715127    0.697819652634
C      3.362137514074    1.412240046298    0.642808839400
C      1.825645025060   -2.293426440021   -0.648922340817
C      2.599709347154   -3.443582527167   -0.665236947179
C      3.938193392951   -3.384292838279   -0.234767048310
C      4.487976113611   -2.188591136838    0.206227910848
C      5.536610435388    0.467452667094    1.206395233412
C      5.978797682191    1.705575868773    1.650194282677
C      5.112050062426    2.811289109897    1.601443789409
C      3.825624337989    2.664642622362    1.105620966593
H      0.785203928663   -2.296451161623   -0.977140837518
H      2.176001521958   -4.389704222884   -1.010579080778
H      4.553882354973   -4.287578619408   -0.247081959595
H      5.528650828673   -2.173518556346    0.532571151784
H      6.215714605962   -0.385024765755    1.258334407750
H      6.993081087914    1.816849218863    2.040329956056
H      5.448051853961    3.788177730279    1.958470128681
H      3.137673110429    3.512491981240    1.073339458542
