81

C      1.149073580455    2.606087462133    2.191303219781
H      0.442597475316    2.183662866779   -2.174271718291
C     -0.992920224498    3.967945636109    0.793882055441
H     -1.154271027176    3.848927499179    1.866363451679
H     -1.711636125377    3.482932663541    0.124657914978
C     -0.086461719608    4.900315276823    0.333595306891
H     -0.081556315301    5.186419424442   -0.720266366451
C      0.699514419226    5.844180122653    1.190170278637
O      1.641763282311    6.479322646021    0.771070474690
O      0.237333838949    5.919777098171    2.442037220253
Pd     0.912091667222    2.907473510045    0.234850883078
C     -1.727826512744    1.937234875106   -2.062392194590
O     -0.634674874845    1.217996706534   -1.967909594095
O     -2.643463625398    1.910481235614   -1.256584447199
C     -1.791583472573    2.918734887898   -3.266148656210
H     -2.737177072740    3.457768127194   -3.103459023410
N     -0.771324252507    3.965676360366   -3.375677134126
C      0.398028996004    4.008512181373   -2.889239074180
O      1.000053912488    3.051526234770   -2.103150617330
O      0.133008639387   -0.146660659618   -0.062532291940
H     -0.297234978812    0.487632003656   -0.814098972220
C      0.351170237707    1.684919833661    2.876288809266
C      0.550593089874    1.429727826239    4.243534620025
C      1.579469287226    2.113541926766    4.933618585732
C      2.372198127447    3.024914486619    4.224680128972
C      2.169311143475    3.280421485969    2.861494928668
H     -0.433665923436    1.137920122298    2.347495967036
H      3.178680563100    3.549229023644    4.746737667894
H      2.819069161079    3.991543677225    2.345770665013
C     -0.323886959105    0.428652433706    4.958145411557
H      0.270982177336   -0.396247009140    5.386295629335
H     -0.867443272518    0.891426960642    5.799617856750
H     -1.067839855442   -0.011170372255    4.278740457888
C      1.827067140773    1.859366386118    6.400518911246
H      0.936991144008    2.087085820458    7.011721931306
H      2.075754755369    0.801894155899    6.594615248569
H      2.658387628806    2.472279765419    6.778443879073
C      0.943431303645    6.783969409182    3.353370418150
H      1.986822692703    6.438669423833    3.427831148687
H      0.965013193333    7.800158000720    2.928266398797
C      0.233535773767    6.733801631146    4.689163002109
H      0.232337024889    5.710000962811    5.092946996851
H      0.746214358729    7.390548747110    5.409097686547
H     -0.809524003608    7.073074458271    4.595171637326
C      1.314798619687    5.174253692729   -3.143695488975
H      2.212083259815    4.826392334095   -3.681274817788
H      0.798026695741    5.932795654181   -3.742866378053
H      1.660544319074    5.619093610088   -2.195747729818
C     -1.920469136164    2.224797195006   -4.627716483053
C     -2.593702137801    2.910863696294   -5.652345084012
C     -2.721339715968    2.353434010137   -6.925197894623
C     -2.176912782962    1.093227566865   -7.195801015630
C     -1.505777387203    0.403440252823   -6.184157325945
C     -1.374002226848    0.964488341893   -4.908488168988
H     -3.015617323460    3.897850314896   -5.444747084725
H     -3.250849757181    2.902429273354   -7.708571192205
H     -2.278736612534    0.651627865390   -8.190694412307
H     -1.079257669268   -0.583253510702   -6.384407677642
H     -0.848775145832    0.419194250809   -4.123669683898
N      2.050677325592    1.112003060496   -0.008712608245
C      1.428118531503   -0.058573591337    0.046681017171
C      2.167865430773   -1.295355906332    0.269867917652
C      3.581079993691   -1.254924741091    0.378913061480
C      4.248026739887    0.030686741750    0.220804979134
C      3.442328720457    1.185620954351    0.022560490267
C      1.471861108433   -2.519167178351    0.376676637176
C      2.164570513181   -3.695950195396    0.609940701055
C      3.566746156715   -3.665733180595    0.732344985766
C      4.262025817188   -2.470919746359    0.617016057989
C      5.652360993256    0.187179503568    0.246904884414
C      6.246569474701    1.428883553706    0.082012921141
C      5.443573465863    2.564801843089   -0.121180025129
C      4.063445374945    2.442069763130   -0.150626665420
H      0.386428595636   -2.508448412608    0.274412472387
H      1.626929592973   -4.642994948929    0.696347156340
H      4.116028043727   -4.592586397616    0.916761057323
H      5.348234715684   -2.478464201862    0.712641728517
H      6.287115742180   -0.687536763687    0.394534635639
H      7.334782346191    1.521258336124    0.104113685652
H      5.903034033269    3.545939852306   -0.262467743949
H      3.435488338814    3.319287529433   -0.324076925928
