65

C      2.538924824710    3.936063820075   -1.301528638289
H     -0.378325539897    1.031101057473    0.170823555748
C     -0.026248576295    5.162489541474   -0.217414009375
H     -0.777370184902    5.084746077888    0.570747804041
H      0.780169537948    5.886613132327   -0.079079405820
C     -0.271256689245    4.629072068179   -1.470194044248
H      0.361762615091    4.901399438542   -2.317772230768
C     -1.534414623863    3.940005637537   -1.913349556421
O     -1.584796657400    3.312093704344   -2.946050068877
O     -2.567332753440    4.143143935076   -1.089532266413
Pd     0.968793545775    3.211628925543   -0.308190298512
C     -0.612274679839    2.544202502194    2.103344208795
O     -0.726172288286    2.424687928714    0.802912687542
O      0.412091664379    2.838120142325    2.693741827762
C     -1.913692199210    2.274318243102    2.871199735694
H     -1.874673444608    2.865518737938    3.799067971207
N     -3.061070605390    2.598411277099    2.052456811798
C     -4.375394751627    2.640059047865    2.409300374551
O     -5.250099317475    2.921889137198    1.599503944233
O      0.008095458790    0.147302749545   -0.125343995996
H     -2.849698021563    2.776795089416    1.073438807121
C      3.446144763839    4.751767757290   -0.612715277543
C      4.621039528424    5.224623441120   -1.223783453122
C      4.883957888771    4.880032896195   -2.569932564732
C      3.960305442671    4.075087867211   -3.250239374124
C      2.794769097611    3.602348767746   -2.634818594059
H      3.261597302101    5.021084248671    0.432606296532
H      4.156681973860    3.805334871159   -4.292545313447
H      2.101525199318    2.974876472568   -3.201508720739
C      5.587284921530    6.082289182494   -0.444641688169
H      6.578664057804    5.604085697146   -0.368702618944
H      5.746229676463    7.060648544662   -0.929368000445
H      5.226738690720    6.267227110027    0.577546336768
C      6.135064525959    5.364320290549   -3.260622440346
H      6.191636851279    6.466225007334   -3.280156792356
H      7.045569953035    5.013335046285   -2.745434806522
H      6.180929798959    5.008847350990   -4.300300888669
C     -3.861720514896    3.610008546119   -1.486567071147
H     -3.698563498281    2.644892859209   -1.987019356243
H     -4.403610585366    3.451151526194   -0.543204362738
C     -4.594564619982    4.582139205398   -2.393778066969
H     -4.062733399116    4.721049877188   -3.347230757418
H     -5.598465629072    4.187067264539   -2.616701738127
H     -4.716030006449    5.561175985181   -1.904704106769
C     -4.694781433025    2.326861986470    3.861785681549
H     -5.782291514074    2.371362005354    3.994428574054
H     -4.330674706085    1.326098218035    4.145460943372
H     -4.215910828593    3.053428684495    4.538346883466
H     -1.896921716461    1.206672225611    3.170921925398
N      2.016955826427    1.309635922677   -0.066675310911
C      1.320247864416    0.145520878246   -0.080797685166
C      1.985391507702   -1.103006766009   -0.060563834278
C      3.360775991654   -1.140645796508    0.035165795715
C      4.077912490613    0.071238668165    0.107911778145
C      3.358546524586    1.260154791217    0.042247920540
H      1.374010698355   -2.004927079232   -0.100025030072
H      3.895698183445   -2.090907469655    0.066487602990
H      3.892568814514    2.210130551803    0.064371614430
C      5.558292876184    0.150962546328    0.236441690675
O      6.187934649238    1.180788527031    0.306269365163
O      6.127677623694   -1.069392420221    0.267806698123
C      7.549554259709   -1.099211222870    0.393372750110
H      7.869611228043   -0.607802123764    1.324557115690
H      7.833402800298   -2.158631176079    0.404124268128
H      8.027211682489   -0.583757152633   -0.453516208686
