72

C      1.143564294636    2.647355213451    2.277617876719
H      0.416152565494    2.096073366917   -2.080394552778
C     -1.057390962079    3.886942558957    0.867906641967
H     -1.196512207038    3.811857810982    1.947483324272
H     -1.767113083349    3.346913823973    0.230501540139
C     -0.193381536113    4.828618697566    0.347614940984
H     -0.222781797044    5.066060731399   -0.718280434567
C      0.570496241772    5.839294412898    1.145790246918
O      1.481916175355    6.489124694520    0.683298807478
O      0.125547252417    5.956007693818    2.401359691623
Pd     0.872992166481    2.866675195083    0.316401610839
C     -1.731718456438    1.906403694750   -2.031155379980
O     -0.653603519135    1.175416939006   -1.892933675054
O     -2.679244105234    1.895283467878   -1.261378142481
C     -1.740868342831    2.883309067234   -3.241771904952
H     -2.680308859444    3.441856231870   -3.111943421634
N     -0.696557737009    3.909495494677   -3.327440212688
C      0.460000101145    3.924781761969   -2.807816093445
O      1.011451711121    2.954445983785   -2.003328453235
O      0.115032140438   -0.228370053650    0.045245655136
H     -0.314433239434    0.385528410939   -0.679975490712
C      0.418476386088    1.706446839033    3.014687435470
C      0.666681647240    1.511633690461    4.383769122790
C      1.673156060908    2.275057672200    5.022125349269
C      2.395003795085    3.203889852716    4.261862865422
C      2.140886858142    3.400912678367    2.897252751096
H     -0.346127003044    1.097743528122    2.524862418720
H      3.181633073941    3.792047937318    4.744860329343
H      2.729609702634    4.136186589725    2.341494976402
C     -0.132268234892    0.490310730897    5.155742081266
H      0.518101452176   -0.283570351029    5.598145996962
H     -0.681174944311    0.953181203564    5.993645081047
H     -0.865851075612   -0.015112388053    4.511715696099
C      1.970787003349    2.087940024093    6.489829292243
H      1.084511327061    2.288092730644    7.115961913030
H      2.283077917304    1.053571757671    6.714318949493
H      2.775154626132    2.759336359509    6.824282948359
C      0.809162215840    6.891610913511    3.257346684794
H      1.867774072726    6.595102417958    3.328615090412
H      0.780488372994    7.886214424830    2.784311567395
C      0.124304469354    6.876559416226    4.607032927847
H      0.173196075100    5.874486646075    5.059503712282
H      0.620077068507    7.588476658032    5.285145073425
H     -0.933698060400    7.166760154278    4.516164909969
C      1.406900385965    5.072891671870   -3.030186970782
H      2.336048525096    4.702856672759   -3.493340847358
H      0.940584064588    5.819718690804   -3.683212911907
H      1.686369071465    5.542437838093   -2.071965115804
C     -1.840561914968    2.182461603576   -4.602280427175
C     -2.436970737198    2.887439256517   -5.661260664693
C     -2.536170682062    2.322418511478   -6.933219485589
C     -2.040143466083    1.035352028119   -7.168763225930
C     -1.445567719246    0.326711873140   -6.122935525858
C     -1.341939922747    0.895366321192   -4.847902033368
H     -2.820450027390    3.895174009236   -5.480717282992
H     -3.005797969467    2.886504657491   -7.743639796279
H     -2.120296504846    0.587825121987   -8.163015669578
H     -1.057716199047   -0.680980617945   -6.295573046381
H     -0.875357116764    0.335992620122   -4.036291280375
N      2.024048283756    1.088242469612    0.125497098704
C      1.421697318887   -0.123650357481    0.113128824375
C      2.214670031294   -1.292060590994    0.209092333290
C      3.590699842776   -1.188420924653    0.270199729456
C      4.217486766630    0.076568357489    0.233754367736
C      3.374043182956    1.176556683553    0.168483654674
H      1.699791920647   -2.253448006275    0.212154247541
H      4.200367642395   -2.094696875789    0.334865662941
H      3.785943941146    2.188820973555    0.163163989688
C      5.716090691512    0.226549126381    0.273472084060
H      6.015353650600    1.284915352231    0.272832204185
H      6.142151953781   -0.242939114740    1.175502337186
H      6.189892869155   -0.255690458468   -0.597850797187
