74

C      2.549877684530    3.929258078303   -0.841285500503
H     -0.841402090388   -0.755464615967    1.461890782279
C      0.133384560302    5.106717846689    0.620549862548
H      0.944836682598    5.829745350924    0.736135959050
H     -0.428763112330    4.770192854485    1.499500513019
C     -0.346236642363    4.848305029099   -0.647689314530
H     -1.280368836478    4.297818535728   -0.791248568408
C      0.151337641744    5.610249376981   -1.841723052961
O      0.840512958886    6.598904143403   -1.793234366043
O     -0.308315526774    5.064074848815   -2.979909461381
Pd     0.918530827858    3.130993320200   -0.026179355433
C     -1.640591467021    2.285144336632    1.742553265980
O     -0.868478063360    2.114585198402    0.688506578202
O     -1.690009619215    3.311898736324    2.392147108782
C     -2.512894771780    1.056767575756    2.103865849870
H     -2.476932727568    0.348490537639    1.248079205129
N     -2.003790145005    0.482816758545    3.337626604466
C     -1.199150729687   -0.502297041352    3.366883253755
O     -0.653585683421   -1.173184370177    2.319861845848
O     -0.056567605250    0.029981487023   -0.249630560422
H     -0.500782134671    0.930036973329    0.106847640072
C      3.432791048538    4.726594836816   -0.102626877053
C      4.612314881453    5.240031415880   -0.668695142973
C      4.914459072712    4.948468516184   -2.018973983912
C      4.023485240274    4.149038244732   -2.747037618354
C      2.851677489323    3.638660885421   -2.175400944582
H      3.217019353976    4.966201830103    0.942965456746
H      4.252591849021    3.913136184488   -3.791086533386
H      2.187912705545    3.014005042811   -2.779193055034
C      5.534629248978    6.102782921370    0.157319968242
H      6.550775805452    5.676455839747    0.214939546655
H      5.642712458857    7.110678725769   -0.278652909303
H      5.161245154789    6.221907645106    1.184759385052
C      6.165760776260    5.489425387866   -2.666017391160
H      6.184952915683    6.592775248368   -2.656630101855
H      7.076834338755    5.156972370604   -2.139350575861
H      6.247647911302    5.163275896940   -3.713174420527
C      0.078367078915    5.709784591889   -4.206789895073
H     -0.224710911137    6.768270814490   -4.160274115707
H      1.177763530249    5.691267899918   -4.281167439080
C     -0.585187414130    4.976905289946   -5.353632143149
H     -1.681524636778    5.002079564304   -5.256780072253
H     -0.312025896667    5.451190945602   -6.309090040897
H     -0.266838283728    3.923555348634   -5.388210035986
C     -0.737760777921   -1.089511211379    4.671199548686
H      0.360625487802   -1.036252802625    4.743203369220
H     -1.194030555332   -0.545575006892    5.505881940125
H     -1.012847566779   -2.155674816844    4.721414600366
C     -3.988563665356    1.481972327411    2.294120685350
H     -3.973563454907    2.224115335921    3.109525867246
C     -4.550211882445    2.148462908798    1.033094870515
H     -5.600296981095    2.444899894879    1.185887419420
H     -3.989532146187    3.057613660386    0.765493753347
H     -4.524723926036    1.461822348413    0.168595710634
C     -4.850331823624    0.292409527109    2.725956867326
H     -4.885881650317   -0.482586645391    1.939427289275
H     -4.453299887205   -0.168170401093    3.642013754966
H     -5.886603847706    0.611460676055    2.923218638939
N      1.918332691747    1.189523637853    0.055970422004
C      1.252514791357    0.043229366684   -0.132759200835
C      1.937977051190   -1.225585826296   -0.219724698470
C      3.349949980084   -1.253503734297   -0.040631748970
C      4.008656813082   -0.015158469963    0.215213909339
C      3.281666920705    1.140760466336    0.243838168811
C      1.233010919949   -2.427932513887   -0.473082124765
C      1.915292369643   -3.627462562683   -0.549374557450
C      3.318244873436   -3.660882170565   -0.370619690861
C      4.023971466825   -2.499133451648   -0.120138545562
H      0.151851815357   -2.387917014022   -0.606769985489
H      1.371224776991   -4.554314100383   -0.745095837539
H      3.846672595699   -4.615901382811   -0.430433537994
H      5.107648670888   -2.525238077850    0.018805005140
H      5.087600075596    0.017089709276    0.376122238919
H      3.765065208108    2.101451076210    0.410914061814
