75

C      1.283531497339    2.823038275923    2.109245508231
H     -1.678006552835    0.048968504088   -2.795010035581
C     -0.956812224454    4.297755543189    0.637968879681
H     -1.649125258866    4.194712319412   -0.199791140057
H     -1.307349603109    3.994931593982    1.627318995035
C      0.190448351250    5.053734170388    0.508909011582
H      0.771199137164    5.329736203157    1.391936870169
C      0.616355320189    5.800601624591   -0.722593308907
O      1.761748631358    6.143519516449   -0.903881826824
O     -0.400440472059    6.073628986532   -1.545642647431
Pd     0.712527093329    2.924208532335    0.191384375693
C     -0.624697225130    2.144195310135   -2.407974864403
O     -1.054241133413    1.129020054470   -1.782572838693
O      0.117817455290    3.023140568953   -1.887640853640
C     -1.039352758906    2.411634542124   -3.872881892415
H     -0.240934447044    3.081981597981   -4.230686979319
N     -1.119583197897    1.337392638590   -4.838098653352
C     -1.502940590072    0.128286694506   -4.698760788762
O     -1.869843241912   -0.524138959044   -3.586057299050
O      0.095455883787   -0.167841615419    0.094259911441
H     -0.394968662239    0.454097929898   -0.548527592925
C      0.585112237743    1.982747443205    2.986267043299
C      0.958197960214    1.849214852338    4.334700527077
C      2.069498504607    2.577349661255    4.820095384630
C      2.764908790981    3.408161207578    3.932400442136
C      2.384919515297    3.538805698654    2.590456858395
H     -0.262627335942    1.394388113388    2.622102354717
H      3.628330330179    3.973136002435    4.297650579251
H      2.959085597784    4.201146962630    1.935790771435
C      0.180114618264    0.932567887100    5.247168073408
H      0.822306232184    0.144008467616    5.675672881847
H     -0.252634846237    1.480252628799    6.102069078030
H     -0.644070047479    0.439118759504    4.712121703443
C      2.500864596511    2.461350621992    6.261782882398
H      1.698367294717    2.766494462382    6.955283429472
H      2.764207468721    1.423160234601    6.528078947097
H      3.378127037151    3.091653360413    6.468682483167
C     -0.081148020862    6.749103220340   -2.779758201770
H      0.684400339552    7.512335875338   -2.575353060932
H      0.362496626975    6.008014400726   -3.464529076171
C     -1.353452822777    7.349462473586   -3.339221862448
H     -1.787634818338    8.077813955357   -2.636899537403
H     -1.133121706643    7.870960399923   -4.283734376191
H     -2.105745623018    6.573695650014   -3.545623975732
C     -1.589598339895   -0.770107582551   -5.908024485797
H     -1.291572259600   -0.225468679414   -6.811131631391
H     -0.942796574480   -1.651593226098   -5.768121610966
H     -2.619907048347   -1.146346419166   -6.018512655782
C     -2.337207358408    3.292148784075   -3.883118151653
H     -2.138909181574    4.108456119900   -3.163861330916
C     -2.532154638419    3.918122393267   -5.270393383014
H     -3.393275297322    4.604038861598   -5.286936451498
H     -1.642489678202    4.492963807785   -5.574311106362
H     -2.693189609159    3.136925101457   -6.027949057311
C     -3.587027787408    2.531475248211   -3.399551590183
H     -3.847765028681    1.758765760300   -4.142989354197
H     -3.341250335305    1.986800068953   -2.474167215515
C     -4.807518288252    3.418588817378   -3.136884398679
H     -5.169095760730    3.916522659545   -4.050555385313
H     -5.645360269270    2.825185214705   -2.737003594159
H     -4.580524078872    4.207528876017   -2.399080063302
N      1.938041504442    1.203455820484   -0.125223564722
C      1.399361455190   -0.017163695074   -0.008872647419
C      2.238355538313   -1.177298210872    0.028860444119
C      3.610869564300   -1.009421185213   -0.109881769889
C      4.136835346012    0.285438953915   -0.275904006277
C      3.277136592912    1.363908441308   -0.272734411803
H      4.280270963337   -1.870029725863   -0.104580497507
H      5.209765916019    0.440904271700   -0.396883171024
H      3.635895859931    2.388913508974   -0.376703038084
O      1.593723521261   -2.348001933538    0.182832792167
C      2.344132955226   -3.542728396453    0.207865244135
H      3.060613103057   -3.558129266988    1.049113743721
H      1.622872499801   -4.359936600365    0.337029811353
H      2.897047907137   -3.697207448130   -0.736351156648
