74

C      1.121686392542    2.652311774646    2.250468682894
H      0.370458194499    2.185399534330   -2.127322212744
C     -1.098566573326    3.919925321264    0.909011395978
H     -1.211118093147    3.832634646371    1.990739935850
H     -1.815926181158    3.381435986847    0.278045623924
C     -0.250641925100    4.870221228464    0.378709598809
H     -0.307694609903    5.117567886876   -0.683692502318
C      0.528490066031    5.875979908226    1.167468124277
O      1.422244743470    6.538478170607    0.688169946806
O      0.119346957118    5.974008618796    2.436968168409
Pd     0.825145173428    2.913449535179    0.298485974630
C     -1.757815837192    2.011121266563   -2.065408753598
O     -0.703061968249    1.239479106249   -1.974928594210
O     -2.665745551213    2.046442451232   -1.248140564676
C     -1.778388988249    2.947672813353   -3.302436327944
H     -2.749813763262    3.466065876292   -3.243515965141
N     -0.767779846254    4.001927569750   -3.349390831090
C      0.380092149235    4.032173068561   -2.811554218996
O      0.941211353290    3.053016820429   -2.020482643215
O      0.057790826703   -0.160033057659   -0.055858423029
H     -0.370809634135    0.461704329302   -0.791223991225
C      0.413806719813    1.688020262635    2.974080655072
C      0.680131123422    1.463566361722    4.335106127766
C      1.687596552129    2.220786442310    4.979305707513
C      2.392222889195    3.173389839583    4.232504194055
C      2.119844504584    3.399875853253    2.876001673268
H     -0.351640672393    1.084727078100    2.478815793115
H      3.179641877947    3.756977070398    4.719776334334
H      2.696049176852    4.152514978797    2.330480697705
C     -0.100467819563    0.417315604802    5.092392227831
H      0.561858342998   -0.361457321180    5.507713734454
H     -0.642362698848    0.855200981201    5.948118702670
H     -0.838060863509   -0.078730305608    4.445631896231
C      2.004232435688    2.002360833471    6.438701217715
H      1.124070667697    2.181261737205    7.079732574756
H      2.326993873268    0.965630858958    6.635771429962
H      2.807437061105    2.672224901333    6.778984031006
C      0.820923384001    6.903854412740    3.284275372109
H      1.883122657797    6.613809802818    3.322399011669
H      0.772987753549    7.903777862166    2.824150190326
C      0.174404081575    6.868801248958    4.652454605544
H      0.241783274097    5.861845913188    5.091478250381
H      0.684711508989    7.575897523172    5.324815348132
H     -0.887448799116    7.153355452472    4.594561954124
C      1.309395322459    5.202385553081   -2.990585217858
H      2.249435087675    4.862834783012   -3.455338941755
H      0.836532679941    5.961393554951   -3.624699083030
H      1.573204437893    5.648272201399   -2.016838202455
C     -1.766669986389    2.132658530072   -4.629783485255
H     -0.758218040771    1.687009366090   -4.714689116183
C     -2.790637052819    0.991014765817   -4.577823060393
H     -2.814191280268    0.438140032251   -5.529068488409
H     -2.552648691464    0.265904222472   -3.785598993988
H     -3.806097655057    1.378692389972   -4.389505042253
C     -1.991438593009    3.058379710069   -5.841688769379
H     -3.040971918126    3.407104044800   -5.828695339651
H     -1.371687793148    3.958101291103   -5.710341035040
C     -1.676214082869    2.422900832961   -7.197733853712
H     -2.315455334583    1.552192832680   -7.415683542385
H     -1.823598840104    3.146704156834   -8.015610393436
H     -0.627861541904    2.081916376495   -7.244125520379
N      1.973732191780    1.141188005843    0.057809101142
C      1.363084731543   -0.067119649497    0.013339073045
C      2.152076084141   -1.241513134298    0.076257690247
C      3.528506178286   -1.146601020254    0.138232842397
C      4.161956469545    0.115813222010    0.136193049376
C      3.324088453369    1.221331955590    0.102394005417
H      1.632507581927   -2.200146090586    0.054124083779
H      4.133713120691   -2.057392354317    0.177308995377
H      3.741175543150    2.231255945124    0.125678838560
C      5.661385952493    0.256863785378    0.179473534512
H      5.966163303951    1.313394986236    0.204755681285
H      6.085104989979   -0.236535535678    1.069839923543
H      6.133117438823   -0.206403719835   -0.703247101790
