76

C      1.374128095606    2.967592033245    2.307524645714
H      1.105700248593    3.757402122967   -3.880397819617
C     -1.009303416764    3.980720259677    0.835560122399
H     -1.680104750862    3.692121549021    0.023516011964
H     -1.238257827338    3.601876489514    1.833655398549
C     -0.097442447446    5.002785750006    0.664680768383
H      0.428521048514    5.426420782366    1.523784570121
C      0.022504373640    5.847290398910   -0.570380592673
O      0.973478475412    6.562697553110   -0.783207214982
O     -1.052759580218    5.760189892403   -1.361333982818
Pd     0.942752433141    3.064199877970    0.355020273658
C     -0.253875265054    2.380713489450   -2.280017234668
O     -0.811695136237    1.448648312205   -1.658846385586
O      0.594642937853    3.183970469205   -1.783560525197
C     -0.640179980458    2.587429435549   -3.752947269078
H     -1.657909759627    3.018094659279   -3.741452787114
N      0.246697841270    3.549273910041   -4.377210782408
C     -0.110200231544    4.262114235875   -5.481819020283
O     -1.192564631089    4.121588391715   -6.034161378830
O      0.545472834564   -0.056617506316   -0.140748900922
H     -0.007239953804    0.654803000172   -0.640620121903
C      0.825326862339    1.955966529528    3.107144966309
C      1.137732354577    1.841617825290    4.472045680727
C      2.033494161210    2.767918479182    5.056620181116
C      2.581425919552    3.770775177706    4.247397162129
C      2.260719392417    3.881064016548    2.887778700744
H      0.143470304149    1.221647732283    2.666999037299
H      3.277122792731    4.490903703075    4.689518828561
H      2.715220500776    4.682923088196    2.297934128306
C      0.524758223214    0.737283373266    5.298425181810
H      1.296331022930    0.083638506223    5.740368147199
H     -0.063503067406    1.138281078592    6.141686268372
H     -0.142525460137    0.106576326505    4.693387278533
C      2.393814625769    2.678557183318    6.519500818448
H      1.504537742640    2.770628251114    7.166588842692
H      2.860586321083    1.709771606404    6.767801630377
H      3.099026088654    3.472132140103    6.806838583413
C     -1.037446200235    6.552807515431   -2.565898391614
H     -0.788347378541    7.591390961469   -2.296721865784
H     -0.230191413560    6.178285443332   -3.213367366505
C     -2.393913264391    6.442795133070   -3.228254650397
H     -3.190821996550    6.795377608281   -2.555276133444
H     -2.412178278737    7.059195691586   -4.140129611976
H     -2.613415122170    5.406794706923   -3.525434953081
C      0.932342164742    5.244500789290   -5.995579170339
H      1.211452361554    4.955939673035   -7.020531295206
H      0.476960391924    6.244343290217   -6.056697398885
H      1.840528525440    5.294373347886   -5.377534486569
C     -0.755573721728    1.249353909245   -4.530268271138
H     -1.472358590028    0.623896710333   -3.979488146040
H     -1.200144562054    1.494697074374   -5.505828850903
C      0.545738623287    0.504420765581   -4.726442364578
C      1.338109426520    0.734464109549   -5.864145684903
C      1.000668620596   -0.430885008128   -3.780201188353
C      2.548019563038    0.059551848768   -6.050619381571
H      0.991136345977    1.442464527498   -6.621900551159
C      2.208781537579   -1.109470296575   -3.966208352643
H      0.403250568162   -0.630799896990   -2.888064249458
C      2.989192506351   -0.866102618757   -5.100293276882
H      3.144688456784    0.251511745571   -6.946670845491
H      2.532487100109   -1.837255064644   -3.217628793790
H      3.932032129125   -1.399733189283   -5.247613137382
N      2.297587927440    1.445510235469    0.089710375006
C      1.830096951287    0.197216619331   -0.054135411723
C      2.741908823848   -0.910790967246   -0.082231641597
C      4.103252093464   -0.662397867971    0.020174369980
C      4.556526358441    0.664920039567    0.142119798218
C      3.631336099828    1.685369512378    0.175506156873
H      4.822643570392   -1.481205735465   -0.007116559193
H      5.621679425308    0.887960704683    0.216114512212
H      3.930287680518    2.728241266058    0.288523560358
O      2.167277880057   -2.120881716681   -0.228732819955
C      2.986101716194   -3.270592612927   -0.211079938052
H      3.542423642364   -3.359387217993    0.739413934257
H      2.314255250919   -4.132199079070   -0.316051306350
H      3.706462082694   -3.273313588577   -1.049102598909
