72

C      1.463164902952    2.978472068523    2.176120981661
H      0.886034676885    3.934393961593   -3.952373787589
C     -0.911983041162    4.105389237555    0.840911202881
H     -1.655282376484    3.820785790083    0.092754165227
H     -1.081221817585    3.774566623955    1.867353812967
C      0.029332150507    5.077323304555    0.559374508300
H      0.635977633003    5.510651548984    1.358174138113
C      0.069346669797    5.876754078381   -0.709817326524
O      1.018372351435    6.552506200598   -1.033340096465
O     -1.074956697460    5.799784126035   -1.398967366261
Pd     0.947920366194    3.085275910245    0.240584521068
C     -0.356502330014    2.412079486905   -2.342382663794
O     -0.994652083576    1.569109747728   -1.681097765445
O      0.534804012752    3.195459311252   -1.884151854442
C     -0.650345676438    2.495552118156   -3.850992619240
H     -1.729334075584    2.685294019363   -3.959087505655
N      0.069101560823    3.603873350780   -4.454285339547
C     -0.361057258229    4.206708269982   -5.599835422637
O     -1.394354926274    3.881233577361   -6.164355649718
O      0.059724517918    0.128042089686    0.126354489488
H     -0.381248737431    0.802821071867   -0.514783325461
C      0.950176636662    1.959552038170    2.991131668795
C      1.309785431828    1.842612721023    4.344064011929
C      2.216988218601    2.773498721803    4.903211717123
C      2.725149996821    3.786761397889    4.081640241180
C      2.355837341433    3.901226010537    2.734543503884
H      0.256347687331    1.225522087701    2.571127961667
H      3.427419836062    4.512715250151    4.503339839673
H      2.778226308344    4.715460004810    2.138397462935
C      0.732860381199    0.730118931319    5.185293967492
H      1.523600875618    0.079743503733    5.597128326302
H      0.171231433236    1.123061816259    6.050205142704
H      0.049518012348    0.098185917798    4.599933173168
C      2.628689989268    2.679542636321    6.352050115615
H      1.761386377865    2.758401253440    7.029908763004
H      3.113519673435    1.714152569706    6.577813380326
H      3.335316890659    3.478681126488    6.619811488215
C     -1.152908045986    6.557943318391   -2.621815260607
H     -0.918056165953    7.610479955334   -2.395980181458
H     -0.378332607033    6.188247992453   -3.309730064328
C     -2.543958418463    6.390959388183   -3.194426652795
H     -3.308300192138    6.742185827881   -2.484081086832
H     -2.638047543071    6.976902802530   -4.121644382312
H     -2.749417639929    5.338425349773   -3.440386970555
C      0.536838496701    5.311302242225   -6.137374769583
H      0.933443646647    4.992937657819   -7.114101109505
H     -0.071989313060    6.210183166052   -6.314416985082
H      1.379558706797    5.562461051081   -5.476584925585
C     -0.346830982003    1.162477896106   -4.534550334674
C     -1.293337148325    0.563031134855   -5.373846998120
C     -1.003946309706   -0.639355413755   -6.026699899357
C      0.239264766583   -1.252549248577   -5.852138272096
C      1.194646231916   -0.655175947146   -5.022620023875
C      0.903043030146    0.545252983715   -4.371756388993
H     -2.257165187101    1.053308591695   -5.527463201705
H     -1.753155941720   -1.095583271408   -6.679081320255
H      0.465581789794   -2.192473622804   -6.362440720984
H      2.170464305324   -1.127706466882   -4.881390631145
H      1.656910412025    1.006978798838   -3.727042233363
N      2.055480422466    1.275573849363   -0.083674268825
C      1.373340097493    0.111768951253    0.021760328377
C      2.057842696585   -1.121087777164    0.051415996351
C      3.435143629187   -1.125967821450   -0.084474048215
C      4.119850229733    0.085311808559   -0.258393748580
C      3.403299043608    1.279401225185   -0.250465814272
H      1.469104482120   -2.032983068009    0.152555352055
H      3.984383258111   -2.071000350903   -0.076064035795
H      5.202180820217    0.106789880195   -0.391581716196
C      4.078942269618    2.612223920394   -0.407153621549
H      3.566482350361    3.221481772290   -1.168349807753
H      4.046623928484    3.172170757934    0.541297181778
H      5.131058085031    2.491820041439   -0.699324251093
