36

Pd     1.181875484696    3.036949938554   -0.231997097401
C     -1.540634098677    3.698830194300    0.232983317905
O     -0.758045300376    2.628598136946    0.120725049552
O     -2.697741901544    3.642438979950    0.558569334342
C     -0.852005545367    5.089643954866   -0.067204632371
H     -0.915256045784    5.635349130730    0.893047744685
N      0.523723976393    4.837983084525   -0.427682427929
C      1.684608094741    5.472281463887   -0.436268470626
O      2.687478736462    4.679976484799   -0.511442306957
O     -0.109620454447    0.142235302842    0.517755375986
H     -0.479936639378    1.063776581463    0.402197300442
C      1.862673280183    6.958449652074   -0.356395902471
H      0.912229282432    7.492383444427   -0.490165211259
H      2.294243795805    7.219876789615    0.623452602597
H      2.580066386451    7.279435320994   -1.126356504183
C     -1.650946943139    5.862715043106   -1.109082711259
C     -2.826947230326    6.522629043948   -0.721157634843
C     -3.599941334137    7.203563023182   -1.663639545365
C     -3.207468791118    7.235343820539   -3.005882178400
C     -2.038911025925    6.577811752154   -3.398842001717
C     -1.265238068933    5.893123485513   -2.456269451798
H     -3.144644101448    6.487901423244    0.323367682007
H     -4.513807626470    7.713252886575   -1.347649293399
H     -3.811317968252    7.771524057097   -3.742474982804
H     -1.725944581513    6.594286473357   -4.446120701720
H     -0.354141693565    5.377250481954   -2.766489155895
N      1.953231475380    1.100007795684    0.013589749040
C      1.187816140567    0.032508858723    0.335493869766
C      1.771868999040   -1.247989772889    0.487038536815
C      3.133116402785   -1.402938533290    0.304641399777
C      3.920262044732   -0.285663419369   -0.028245187130
C      3.286845518883    0.936007765307   -0.160935281810
H      1.114834645615   -2.078730553134    0.746436110164
H      3.591110464462   -2.388596482694    0.419607102647
H      4.997299730363   -0.364361825795   -0.179881476663
H      3.842316688951    1.842518730571   -0.416717009827
