70

C      1.360205061284    2.934718490621   -2.083962855760
H      0.051056173547    1.868878165212    2.208939074400
C      0.476682806541    5.274892629794   -0.338666530582
H      0.540071096545    5.664536791831    0.683725819902
H      1.192638831284    5.633060460689   -1.082751178596
C     -0.629894342108    4.555117684997   -0.747943714502
H     -0.786177777024    4.323141587131   -1.804842367532
C     -1.853392895417    4.302095846452    0.096914582584
O     -2.557092996872    3.325270817539   -0.040062012131
O     -2.070117077898    5.292807604412    0.952955804624
Pd     0.958776018567    3.126147106031   -0.135290038854
C      0.251561918928    3.987580300547    2.905916064112
O      0.418083133642    5.191741651850    2.838772355670
O      0.699357809257    3.118421765287    2.022526598604
C     -0.532074043696    3.346793882400    4.080913034490
H     -0.881995158847    4.207648156499    4.672101640935
N     -1.731752441213    2.615480477088    3.663853758786
C     -1.748519115479    1.620672725025    2.867565144205
O     -0.663855956958    1.107726645524    2.219580895647
O      0.014505118485   -0.058196694634    0.002189239881
H     -0.380756007369    0.489410295305    0.752232115232
C      2.500482336800    3.551877516239   -2.613180157603
C      2.871712618315    3.384383495824   -3.959424927011
C      2.069641054161    2.578519027280   -4.799970629641
C      0.929745934960    1.969819971308   -4.257469159667
C      0.566751311180    2.138164388391   -2.915509004910
H      3.136791633879    4.177915598119   -1.978954335719
H      0.303684784901    1.344284396153   -4.901205692117
H     -0.328791162409    1.641549700745   -2.532741413822
C      4.110551239058    4.061044354413   -4.492939627442
H      4.835206646552    3.328808735041   -4.888061670726
H      3.873047877911    4.744952457276   -5.325645756809
H      4.618248083399    4.646128411972   -3.712519535549
C      2.430274589478    2.377286790971   -6.251436044841
H      2.461261502177    3.333627631081   -6.801112047190
H      3.428029834315    1.919847952025   -6.365175119638
H      1.703799215942    1.724908512955   -6.757277317749
C     -3.197934936151    5.195804145858    1.856501684422
H     -4.108231934190    5.029141214980    1.258450471630
H     -3.045564743929    4.319414185513    2.505835112452
C     -3.246592489442    6.482846807434    2.651669855558
H     -3.411185118903    7.353023919825    1.997123050319
H     -4.068744378012    6.437942469069    3.382707342136
H     -2.300310730052    6.628136170986    3.194220540048
C     -3.023749002480    0.905114169227    2.524944939604
H     -3.819406518332    1.192185039715    3.222458119046
H     -3.324301634101    1.180306629375    1.500145872530
H     -2.871333825506   -0.185237790158    2.553744287109
C      0.392902862167    2.508150341791    5.011068508401
H      0.716309516056    1.616470072646    4.445984705008
C      1.644757267435    3.297489671723    5.414312657501
H      2.263595565254    2.708801758510    6.110544940039
H      2.271979440219    3.555358064022    4.547295892120
H      1.374301835673    4.239114419623    5.920946744797
C     -0.376714470709    2.034092805659    6.250559014863
H     -0.689931852916    2.893681782629    6.867539219012
H     -1.281743257794    1.472824315802    5.977952455983
H      0.256220428842    1.385650569280    6.877961615163
N      1.962246596971    1.199593741556    0.089987735870
C      1.325203413094    0.012929623550   -0.063678814601
C      2.052681230741   -1.172224150758   -0.330611990140
C      3.431557090996   -1.136487889894   -0.372998103796
C      4.062694589792    0.094524090486   -0.145045592580
C      3.305359002952    1.234627007916    0.073483068592
H      1.489511789586   -2.095291624339   -0.469297112581
H      4.034711545312   -2.025667444684   -0.558768873807
H      3.798711440074    2.196229961320    0.217707623217
N      5.526966210301    0.193676899314   -0.160149322419
O      6.019946975977    1.291293041566    0.043620080185
O      6.150876504234   -0.832038156144   -0.377495675469
