74

C      1.304509014639    2.812238439214    2.124967581502
H     -1.736168497169    0.098819114880   -2.763357146775
C     -0.890269771250    4.313262817371    0.625810265883
H     -1.578272788990    4.219148674342   -0.216597674069
H     -1.253064770228    4.019752047670    1.613544573633
C      0.269571388108    5.050756397090    0.502803050629
H      0.849073121497    5.320256094967    1.388832272515
C      0.714822644181    5.788390879598   -0.728086060247
O      1.864462976023    6.120896418423   -0.897656819354
O     -0.290965261056    6.065453681929   -1.563435542547
Pd     0.760405741101    2.909951620428    0.199628854653
C     -0.588406818935    2.155148432041   -2.394183734278
O     -1.046205648948    1.157613865102   -1.757121151273
O      0.190370330957    3.007963566854   -1.886481793284
C     -1.018667514986    2.425035091596   -3.852125089158
H     -0.225830044149    3.095812554312   -4.221025789560
N     -1.105978311684    1.344724784745   -4.810185038946
C     -1.531572479392    0.150530827401   -4.664344098824
O     -1.943056454443   -0.473470173835   -3.549663711303
O      0.095901407635   -0.204638389347    0.042654922623
H     -0.377927884864    0.465876801124   -0.575917375211
C      0.554691201689    2.027564021217    3.010670177404
C      0.914422378197    1.893222068879    4.362779583308
C      2.063582165251    2.564622462901    4.841831217078
C      2.808068293870    3.341808520238    3.945278319686
C      2.442039480916    3.473287426083    2.599490795295
H     -0.326667220953    1.486086955618    2.652972103525
H      3.700563142189    3.862708882810    4.305653701001
H      3.055468515256    4.092293883444    1.938069153108
C      0.081817118433    1.036916920639    5.285516848376
H      0.675420862276    0.217578338747    5.726052139840
H     -0.318866785531    1.620950288329    6.131827698795
H     -0.769673637212    0.585975673799    4.755625658657
C      2.482716982820    2.446135664274    6.286851542390
H      1.696046857062    2.805999263049    6.972130382645
H      2.686675850902    1.398910755116    6.569170129844
H      3.393103961010    3.029379949744    6.488088643728
C      0.049104746522    6.736874071985   -2.794801922186
H      0.809589969823    7.502159001543   -2.579427540388
H      0.506912078636    5.994470145120   -3.468690672564
C     -1.213746656553    7.333284467775   -3.379146973838
H     -1.662978300208    8.061677846168   -2.686422435346
H     -0.976311993899    7.854092968902   -4.319862447490
H     -1.960389852994    6.555791143459   -3.599398223749
C     -1.622075590175   -0.761500650458   -5.862494368647
H     -1.291704502562   -0.237905619415   -6.766732752018
H     -1.003550436034   -1.659019475382   -5.698933173499
H     -2.660529064542   -1.109591203596   -5.987452587144
C     -2.317577345781    3.302156811973   -3.842002900623
H     -2.094949833235    4.137639516596   -3.153734094439
C     -2.575778576431    3.892352169531   -5.233628692185
H     -3.449175397787    4.564903699050   -5.215677602177
H     -1.708854801160    4.469269938521   -5.594164297083
H     -2.768242841385    3.094190079935   -5.965659855728
C     -3.555684396535    2.567029131401   -3.314431127407
H     -3.828556749185    1.723852065096   -3.968444339968
H     -3.400954205731    2.166736563014   -2.301414959036
H     -4.419419202443    3.251068998951   -3.280305054514
N      1.956596345914    1.154201577327   -0.082250361635
C      1.399910067638   -0.077522827417    0.015864270665
C      2.217449684899   -1.227384270065    0.113981982299
C      3.590715589100   -1.094428025989    0.058765028737
C      4.157048954149    0.188132701538   -0.095348614536
C      3.293783101866    1.277969534499   -0.151182389544
H      1.725309315641   -2.195788955546    0.207662597706
H      4.241270178693   -1.968102071538    0.119487110561
H      3.703890163409    2.285839287188   -0.240677816038
C      5.620611136917    0.445562398736   -0.182165398879
O      6.116298828105    1.541227842270   -0.305944637314
O      6.338542563582   -0.690440475480   -0.106194259354
C      7.757451134823   -0.546294529515   -0.182452776655
H      8.130302249798    0.082613888251    0.639988729863
H      8.171833452467   -1.558971915309   -0.106851839767
H      8.051505990432   -0.082246293029   -1.135894493324
