62

C      2.547225999026    3.868373082541   -1.225910047534
H     -0.415871388202    0.937901517931    0.116358109778
C     -0.034363332260    5.104834019801   -0.207746527979
H     -0.802596385951    5.030064735957    0.563610299564
H      0.776905904647    5.817912986871   -0.044617484736
C     -0.254871725092    4.579430402147   -1.467985932679
H      0.398861488091    4.846040494174   -2.301625860531
C     -1.518219664066    3.904343057472   -1.930680080951
O     -1.560704484766    3.263137555377   -2.955862735483
O     -2.558233302792    4.134684212398   -1.125665248490
Pd     0.944418629034    3.143191861714   -0.283129512603
C     -0.730032729514    2.524321425892    2.058136415101
O     -0.774993291070    2.328671144944    0.764428756239
O      0.202007166949    3.041605917110    2.652536014350
C     -1.974975860872    2.020022994871    2.814614146046
H     -2.016564811780    2.599768552592    3.746910012723
N     -3.156226388228    2.294467586517    2.009775610355
C     -4.389457498884    2.726451692614    2.401485379928
O     -5.248868937261    3.024918893190    1.581273139894
O     -0.010833072833    0.068107521670   -0.186280614564
H     -2.996066759647    2.281972015895    1.005719451437
C      3.407972569472    4.733415785828   -0.535758568436
C      4.589046086493    5.223601807365   -1.121776812810
C      4.911880375780    4.841519418238   -2.444489512333
C      4.038837027175    3.982785590858   -3.126542617988
C      2.865849306298    3.497165073639   -2.536321289496
H      3.176194790754    5.035451610316    0.491141844602
H      4.280723082211    3.683514435941   -4.151120003376
H      2.213172944230    2.829558347085   -3.105221857058
C      5.492444852955    6.149983009321   -0.344684614017
H      6.507817256017    5.731963552970   -0.235176447068
H      5.609968256053    7.122850576764   -0.852089903915
H      5.098937935571    6.343371594854    0.663819614860
C      6.166520545843    5.349493898846   -3.112059940213
H      6.178051142336    6.451151382537   -3.176509824451
H      7.073581829581    5.060659115174   -2.553673142610
H      6.263521757755    4.954647075505   -4.133853456452
C     -3.848641940831    3.593846206966   -1.515221292573
H     -3.683967144263    2.617932746852   -1.994556067832
H     -4.395286831559    3.456416578454   -0.571270540423
C     -4.578608801995    4.544092352655   -2.448227393877
H     -4.041928550631    4.660951130616   -3.401906159426
H     -5.581637793734    4.144182615342   -2.666542007669
H     -4.701941358265    5.534301257880   -1.982671341383
C     -4.648299816058    2.833861438451    3.896401519981
H     -5.712076413144    3.058096988070    4.040033683684
H     -4.390916349980    1.907191308328    4.431881671743
H     -4.052060903702    3.649833091391    4.337197737067
C     -1.809223490884    0.528404635587    3.155821571298
H     -2.684189713163    0.159271942441    3.712838981225
H     -1.709123661779   -0.071563208542    2.238023411376
H     -0.911628279116    0.373923502365    3.774801855216
N      1.982704526068    1.246848081437    0.008296235127
C      1.302175765940    0.079254869998   -0.057584447992
C      1.976238862693   -1.161629695299   -0.004758926751
C      3.348136381945   -1.183013873738    0.167681652120
C      4.043086963822    0.031205313917    0.288044015304
C      3.323475054676    1.209773172030    0.194562213126
H      1.377770765684   -2.069623962747   -0.085392088184
H      3.879933879250   -2.136515105942    0.219447657999
H      5.122758584971    0.063852840103    0.438545939965
H      3.822672455859    2.176906297221    0.252595905272
