75

C      2.623505005144    3.935322050406   -1.192696505697
H     -0.130039259514    1.014216189071   -0.045957951835
C      0.001533798813    5.134504406120   -0.147881157024
H     -0.756069938226    5.070720537118    0.635774777567
H      0.774833209390    5.897257823646   -0.039699563794
C     -0.205914138182    4.520202196470   -1.368726146821
H      0.425505371797    4.761267690362   -2.227129780981
C     -1.453851424825    3.778223655441   -1.768583330964
O     -1.486981255614    3.036302490532   -2.722300748798
O     -2.505449765479    4.086365529506   -1.001092919165
Pd     1.087036849423    3.228889515554   -0.113655660230
C     -0.584698491449    2.489900700615    2.191353374471
O     -0.602360762320    2.324464517813    0.895087985904
O      0.339716290347    2.973693124791    2.825674943323
C     -1.896598287222    2.062109802190    2.881160130397
H     -1.851892063025    2.462329668407    3.902677948917
N     -2.989440227196    2.685195221197    2.149051784777
C     -4.188757824060    3.150456926061    2.605847204284
O     -5.028448515753    3.602856143785    1.837860822832
O      0.363418600246    0.274527570039   -0.498282572070
H     -2.840965473133    2.761156914965    1.145627988708
C      3.317776264607    5.100707688974   -0.836382400622
C      4.396790383658    5.586285682622   -1.595929289474
C      4.790719001753    4.887589589685   -2.760202479172
C      4.087138843684    3.728532682120   -3.113465894738
C      3.016301168883    3.250611866043   -2.348720893806
H      3.041611078797    5.652809531624    0.067382608175
H      4.381339428001    3.181683162587   -4.014685420392
H      2.494356500819    2.345151004868   -2.669835033363
C      5.120423151623    6.840235507215   -1.168577945225
H      6.191769305373    6.650167697456   -0.984440677640
H      5.072585871037    7.622291913202   -1.945680052338
H      4.691415503717    7.258321509866   -0.246191037830
C      5.939759550884    5.378011610577   -3.606723170515
H      5.757723989742    6.395345358835   -3.993889568830
H      6.880588747288    5.427069516151   -3.031843815608
H      6.110123707443    4.718315799974   -4.469989892249
C     -3.800922157182    3.542211019065   -1.371262777711
H     -3.658287158604    2.504276897215   -1.706448923163
H     -4.379308521174    3.560604517069   -0.436665102489
C     -4.461233066175    4.381489384741   -2.450952766189
H     -3.889297809959    4.349876768871   -3.390367154986
H     -5.470868068613    3.989111021393   -2.651977895379
H     -4.562470692248    5.428644521614   -2.126026433677
C     -4.427243350130    3.104783813059    4.107019761029
H     -5.442967037775    3.470383297227    4.299393863309
H     -4.325847362120    2.084633318725    4.509077095169
H     -3.706287906488    3.745466293607    4.640224422114
C     -2.052930552666    0.518024585465    2.938063253849
H     -3.046706114520    0.309049417550    3.368351477137
H     -2.072854038074    0.140064320216    1.904137703575
C     -0.989060438704   -0.199314681281    3.738279957108
C      0.017690441305   -0.940354487260    3.100999409706
C     -0.980606532613   -0.136103663198    5.141907602241
C      1.006245776427   -1.596304279342    3.841371668984
H      0.020820884421   -1.008581377891    2.009976895966
C      0.005414720147   -0.787991942150    5.885316284532
H     -1.761386289603    0.427286877994    5.662121005355
C      1.004474674135   -1.521081910622    5.236362768880
H      1.779463013760   -2.169503419760    3.323203963406
H     -0.007878632183   -0.727262061717    6.976780037454
H      1.775309877257   -2.034057609806    5.817286856142
N      2.187393713317    1.409738010786    0.361740463904
C      1.632371383497    0.272463666861   -0.106392885393
C      2.362458894297   -0.927970095854   -0.180480604693
C      3.648950311408   -0.946790192938    0.333100056587
C      4.167792207470    0.203873588304    0.940258485920
C      3.413034178906    1.376169639350    0.950024259059
H      1.879618569228   -1.807267821313   -0.607525441079
H      4.240162768873   -1.865513413102    0.298553800581
H      5.151769197646    0.196008109039    1.410563182577
C      3.899270526220    2.617440659669    1.638174966959
H      4.226224874899    3.373013011693    0.908346537849
H      3.082149129899    3.051963800821    2.235399050904
H      4.745206453187    2.386015823406    2.299937630735
