77

C      2.489952181167    3.835267008172   -1.111169834265
H     -0.428277865344    0.784058237263   -0.068268763318
C     -0.181755597614    4.936168658701   -0.240871163599
H     -0.988622570730    4.829544213890    0.485724185103
H      0.587350291929    5.683720625586   -0.034314924950
C     -0.317444450890    4.409166970568   -1.513978962725
H      0.361594457933    4.708523375075   -2.315543377458
C     -1.529468595043    3.681246937274   -2.028559839653
O     -1.500794068678    3.017578690498   -3.040364355545
O     -2.611223640027    3.889122873164   -1.276575659216
Pd     0.872582354960    3.019012557355   -0.277850709544
C     -0.786066657863    2.345116491891    1.991014728202
O     -0.864538277181    2.087247835347    0.713447375154
O      0.168500645320    2.905549771539    2.516448741109
C     -2.011595597797    1.948976264896    2.847000437310
H     -2.005083525016    2.662771863407    3.680195722513
N     -3.230052868556    2.140985696303    2.075485353364
C     -4.247807101233    3.034951421844    2.276229662948
O     -5.097866497837    3.223899163785    1.415617485320
O      0.002390355643   -0.034814536260   -0.467225489581
H     -3.191926970316    1.785231182095    1.123819008305
C      3.277895008060    4.695566402376   -0.334551672738
C      4.471740038088    5.250238012467   -0.829913333495
C      4.881538479248    4.939434625673   -2.147268508969
C      4.079675549617    4.083781553524   -2.915100322978
C      2.893439694891    3.533129369263   -2.415346708392
H      2.977126081917    4.941606243861    0.689302801692
H      4.389805458663    3.838568108460   -3.935657905917
H      2.299033246084    2.868240661512   -3.047496663010
C      5.296830187135    6.169265814404    0.037806336017
H      6.318824320596    5.780567137623    0.186430863360
H      5.407325136164    7.168127369659   -0.418125155161
H      4.841227738663    6.302143411370    1.029785184256
C      6.152903537822    5.518269860109   -2.718597519729
H      6.128680421297    6.621507345112   -2.735336689029
H      7.036701639847    5.235156642750   -2.121319683731
H      6.321616127133    5.172803115969   -3.748944144184
C     -3.854839254969    3.267166162516   -1.688174691573
H     -3.624696487745    2.274747391716   -2.103108721196
H     -4.430485924466    3.163988505324   -0.758021815481
C     -4.587093581420    4.126294363378   -2.704578225556
H     -4.014984365529    4.216510827309   -3.640270687593
H     -5.559946826742    3.666209044402   -2.940919676685
H     -4.777422197203    5.133215826657   -2.301603488019
C     -4.291704108124    3.780900777132    3.600658044688
H     -5.224370400145    4.357103694396    3.626021465783
H     -4.255349088025    3.101107789805    4.464372540009
H     -3.442218658902    4.477962090790    3.687654755982
C     -1.903450492587    0.514714320222    3.487785716237
C     -0.547794551271    0.361926460096    4.201532619525
H     -0.518952037868   -0.592980734075    4.751109836620
H      0.295817880270    0.369407839357    3.495920553683
H     -0.375789970774    1.176102670610    4.923085016730
C     -3.031953088032    0.368115284195    4.525740290091
H     -2.922527104229    1.099184957403    5.343781572213
H     -4.022185983686    0.507813450655    4.065842328688
H     -3.011190316630   -0.637639009875    4.975333697582
C     -2.057181691393   -0.587898083446    2.425715355357
H     -3.030605314861   -0.522440716145    1.914767361986
H     -1.267271791813   -0.543821456051    1.662754166237
H     -2.002799621297   -1.580093222405    2.902217356082
N      1.953570317004    1.134156102883   -0.087521872855
C      1.311624090761   -0.012453035525   -0.308370519466
C      2.007126817631   -1.272145144073   -0.390584809488
C      3.415039527017   -1.282070419144   -0.172112221751
C      4.050868968548   -0.039389755549    0.120100025097
C      3.307676435193    1.107654094388    0.143650324953
C      1.321992097217   -2.479919983681   -0.673300050895
C      2.022091847752   -3.669429141856   -0.744408492201
C      3.420900069538   -3.686329885127   -0.529890939728
C      4.105605044874   -2.519317576331   -0.247826820586
H      0.243970108045   -2.448068300824   -0.834734713151
H      1.496369363466   -4.601274518245   -0.965237861799
H      3.963024444040   -4.633793771533   -0.587204275981
H      5.185507719417   -2.534687074428   -0.080769731994
H      5.124182539667    0.002308315738    0.313156475433
H      3.767653673413    2.075189024565    0.339758857324
