77

C      1.487751314770    2.933553538047    2.124833250023
H      0.990997908351    3.545959337595   -4.104444635029
C     -0.918785071471    3.985703630586    0.735573667659
H     -1.630534545606    3.715906824722   -0.047482700079
H     -1.117014058360    3.614813919958    1.743159276501
C      0.015418826407    4.980496496172    0.523835250468
H      0.586809758112    5.391770723863    1.359784105239
C      0.095052739757    5.826708567872   -0.713200865036
O      1.063412687240    6.496812550312   -0.989185477930
O     -1.037758490491    5.803964383158   -1.422585157213
Pd     0.985293173619    3.016365630474    0.184739285167
C     -0.329570213784    2.246759861132   -2.351434114683
O     -0.908804117917    1.407958924618   -1.621639533820
O      0.544915269951    3.070818300330   -1.939182972691
C     -0.676102697772    2.285602295586   -3.853532303495
H     -1.740535085132    2.558806835946   -3.937681169094
N      0.078155759330    3.346467154341   -4.497198035278
C     -0.489425406190    4.257114594599   -5.339687273849
O     -1.668663641540    4.226371127435   -5.663409688546
O      0.353856197404   -0.055327943327    0.013749800379
H     -0.154783566644    0.649469089150   -0.545185782707
C      0.925371236487    1.952902751894    2.953700297115
C      1.268636030657    1.845639242775    4.311895303185
C      2.209199689057    2.748455009610    4.860716101723
C      2.768639702545    3.721549395428    4.023496701233
C      2.418050804483    3.824301559980    2.671017538227
H      0.206645044933    1.237330199813    2.542694422047
H      3.499887781203    4.423115422401    4.437125511430
H      2.887053044312    4.600223520336    2.059554177805
C      0.639424788760    0.773953647242    5.168634676518
H      1.398989285742    0.099133810578    5.599503111314
H      0.087486838804    1.205721322403    6.021223115868
H     -0.065089477436    0.159541778893    4.589505446275
C      2.604365570091    2.666137370934    6.314964531691
H      1.735836488996    2.795794929703    6.983477764900
H      3.045672542603    1.685749749733    6.564375693337
H      3.342486607938    3.439569742189    6.573117024748
C     -1.094202741147    6.653845595556   -2.586552343935
H     -0.827166621570    7.677634448080   -2.278557288803
H     -0.324804813136    6.320132222263   -3.298974797390
C     -2.488474589099    6.576253273258   -3.170201611254
H     -3.242111706167    6.868234380976   -2.422408822442
H     -2.567303822533    7.264480461311   -4.026019427191
H     -2.715144340510    5.565725061740   -3.539241214505
C      0.467532730450    5.297678620471   -5.904113269361
H      0.737893358939    5.003569378323   -6.931361148262
H     -0.051033719010    6.264070674905   -5.968091181083
H      1.393347319686    5.409002225015   -5.320062634017
C     -0.506004034861    0.885539333847   -4.567277107618
C      0.859048517938    0.264331466396   -4.219431833746
H      1.019481147780   -0.661131939809   -4.795914342932
H      1.688065800287    0.950483427579   -4.460217434674
H      0.924486087108    0.003517891767   -3.151841323049
C     -1.642864495753   -0.063718295780   -4.143379361067
H     -1.649279244456   -0.231592432891   -3.059737693539
H     -2.623502216714    0.352348513697   -4.428352721395
H     -1.532689971439   -1.034250523409   -4.654939681404
C     -0.594486471708    1.086282370122   -6.093314016382
H     -1.513985656328    1.620331389274   -6.375448538202
H      0.260275324162    1.661129126446   -6.480004594977
H     -0.593634306140    0.106005937468   -6.596863160798
N      2.223950556505    1.290646074281   -0.098369200024
C      1.658472178861    0.087804003589    0.008834457202
C      2.453727208050   -1.096181828534    0.147266502230
C      3.816172926946   -1.000924742166    0.111612155359
C      4.441533160537    0.267396670563   -0.076432768439
C      3.594862613769    1.412555136618   -0.182773702184
C      5.847184181615    0.430461781691   -0.160953197236
C      6.402753214274    1.681205631096   -0.350612281817
C      5.561853224938    2.811395990575   -0.463528461969
C      4.186998530568    2.683730175036   -0.380211406877
H      1.928072345687   -2.044848087736    0.259175387390
H      4.438862965133   -1.894398612584    0.209690696074
H      6.483616946783   -0.454454385842   -0.076106103240
H      7.486623374104    1.799162472784   -0.416927182889
H      6.000720137348    3.799574086752   -0.621496686025
H      3.539414177103    3.558478728780   -0.477638484494
