74

C      1.356155691667    2.890819375617    2.117507859966
H     -1.832624788823    0.382860669049   -2.778638733154
C     -0.813126268713    4.514150969832    0.721934721190
H     -1.538384254397    4.454622742529   -0.091944535603
H     -1.145556376495    4.226124875960    1.721778270667
C      0.368440920664    5.206350959332    0.552038430025
H      0.997806219433    5.448446345403    1.411297429899
C      0.778977057711    5.928744401843   -0.698729387528
O      1.925195646842    6.246976092089   -0.915858330021
O     -0.252709927557    6.200877789945   -1.502181542579
Pd     0.759143966238    3.049700295851    0.211747001209
C     -0.686675837450    2.404174029265   -2.346203446919
O     -1.216754349337    1.451323034870   -1.697503076875
O      0.150774301425    3.210563816415   -1.860105444046
C     -1.110334421753    2.615183896946   -3.812833305816
H     -0.532748276410    3.490968779697   -4.147133278861
N     -0.751758431652    1.517740898044   -4.704751687992
C     -1.160333075131    0.312924435889   -4.572134716667
O     -1.885477568599   -0.216362079133   -3.571440507825
O     -0.092206921685   -0.011180400239    0.069005200665
H     -0.551783909115    0.680852329065   -0.523046886998
C      0.624137391005    2.087341991335    3.001705345382
C      1.014605120149    1.917065202925    4.340928459985
C      2.179269852332    2.568799093801    4.809758966052
C      2.907680474465    3.363187292715    3.915305800156
C      2.509757027987    3.531092160541    2.582623799950
H     -0.266857863148    1.558146095653    2.650031356452
H      3.811961380821    3.869286861068    4.267766878170
H      3.111681785261    4.162917614758    1.922571521505
C      0.198338340555    1.042388061635    5.261153104709
H      0.796941521082    0.209208351519    5.667758497584
H     -0.179910177948    1.607230832128    6.130576578911
H     -0.667347031775    0.609309483786    4.739488951954
C      2.631468344230    2.411254231330    6.241063968208
H      1.863689330627    2.758420820679    6.953807332394
H      2.835059220676    1.356032969038    6.492348702870
H      3.550239174355    2.983732213482    6.435445792028
C      0.051720558186    6.811760362431   -2.771520558385
H      0.772859629308    7.627148566249   -2.608543486597
H      0.544041377387    6.054422999973   -3.402963454395
C     -1.243240907530    7.304924618152   -3.380705375344
H     -1.721251321161    8.059122675993   -2.736513765921
H     -1.042858502910    7.765382772530   -4.360603641410
H     -1.952481185058    6.476802735958   -3.530157767985
C     -0.859589929669   -0.706902658756   -5.638668665680
H     -0.255994487310   -0.259134985352   -6.436392584251
H     -0.331286100615   -1.569394982240   -5.201229511036
H     -1.804735222610   -1.090555839769   -6.057502144967
C     -2.613234902208    3.003687151719   -3.857285562422
H     -3.228614052355    2.099191247734   -3.715173871071
H     -2.816458735407    3.650856822696   -2.985421680844
C     -3.074799388812    3.764782116161   -5.116115265300
H     -2.410077937142    4.643823915307   -5.224288800119
C     -4.504329921833    4.288141608997   -4.914545747656
H     -4.582455899045    4.934692421544   -4.024674519929
H     -4.841956342346    4.872891993430   -5.785679041550
H     -5.213592419594    3.453104353737   -4.781014651501
C     -2.974211031097    2.947882935069   -6.410759274890
H     -3.307161424047    3.547230690790   -7.274609540467
H     -1.946371128541    2.605546740521   -6.593534753482
H     -3.618234554410    2.052589452466   -6.359474141502
N      1.834839452648    1.242533087356   -0.142572078777
C      1.220235888825    0.045478388610   -0.042620933666
C      1.970845062632   -1.149471755566   -0.030648161688
C      3.353422208493   -1.116495241606   -0.161884297367
C      3.964692794732    0.148790177782   -0.310865337498
C      3.178507052459    1.284400303226   -0.288839174456
H      1.421105296456   -2.087266852328    0.062595340305
H      5.045468857673    0.243058340013   -0.431703313024
H      3.622068997147    2.278279345103   -0.378164641244
C      4.179397798551   -2.374604269653   -0.162885895877
H      4.914868528637   -2.358382018992    0.658357374322
H      3.555689008941   -3.272135578090   -0.048790194701
H      4.749342906625   -2.467223215589   -1.102028173902
