77

C      1.923930236666    3.395427488331   -1.817841185544
H     -3.386047858599    1.948985782195    3.727468914040
C     -0.214570746510    4.882657908500    0.093900915207
H     -0.735979355856    4.756567630799    1.046207248200
H      0.536206152454    5.675456101233    0.035664096020
C     -0.664369060525    4.297389215387   -1.070227377683
H     -0.271918825738    4.621620948336   -2.035122682252
C     -1.877786896364    3.436715234866   -1.239970536282
O     -2.265716805991    3.086880209300   -2.330241267352
O     -2.475755285040    3.099851113902   -0.084702773256
Pd     0.897228094543    2.950498968355   -0.172528918748
C     -0.744297709426    1.924192701720    2.427841702852
O     -1.262952238903    0.854159892938    1.915055443303
O      0.122838516861    2.620664976205    1.893902002579
C     -1.291715470655    2.320691258475    3.803745061400
H     -0.752198841399    3.234699534204    4.088133033716
N     -2.694753416485    2.688493321594    3.683761755550
C     -3.094485154803    3.969448037968    3.399754786996
O     -2.302735630356    4.879247186443    3.218868929719
O     -0.000794495298    0.097312914106   -0.062726161095
H     -0.749722375857    0.562704189408    1.025485463859
C      2.875434791866    4.420911330467   -1.753593017864
C      3.666368410847    4.761315505633   -2.865927803511
C      3.490330908778    4.056344787473   -4.077982234486
C      2.529761063774    3.036368644137   -4.126935840108
C      1.749291369973    2.698130871969   -3.015929014964
H      3.026112598843    4.978105736142   -0.823203742548
H      2.386633032282    2.485763842967   -5.061850363014
H      1.011567068098    1.896463070404   -3.096479187792
C      4.686363950876    5.868954938670   -2.758993659127
H      5.705918567940    5.506122817006   -2.975369495516
H      4.485156724945    6.679544009489   -3.480428467918
H      4.695641230207    6.311757275815   -1.752205054837
C      4.316349998626    4.392310577489   -5.295812606247
H      4.176319542497    5.441116833680   -5.609871750913
H      5.396273427338    4.264967398428   -5.106514842973
H      4.049623079881    3.750743710202   -6.148311167338
C     -3.592917871530    2.189824898335   -0.171937079041
H     -3.357915833914    1.419510553534   -0.920784281777
H     -3.632134728069    1.718020886787    0.818807119538
C     -4.890085102243    2.903324839663   -0.513600430696
H     -4.842440915797    3.342207079875   -1.520366876582
H     -5.724513299735    2.183662701166   -0.493409667421
H     -5.108725728715    3.701954017793    0.212118465505
C     -4.597411929085    4.193035654839    3.368257917311
H     -4.877512388843    4.808339498259    4.237727684116
H     -4.846873825587    4.771290318511    2.467490293307
H     -5.188650819599    3.265673457508    3.385737786935
C     -1.073668333164    1.216563327084    4.865604525587
H     -1.710984475547    0.359739984411    4.573572943058
C      0.384779125304    0.738782077226    4.859421962366
H      0.549357977965   -0.036736124089    5.621505082277
H      0.669615243029    0.300853562717    3.891028986854
H      1.075051351539    1.572099630935    5.072452394713
C     -1.520016869316    1.706892813097    6.257106571144
H     -0.824424949459    2.497706003994    6.592454487383
H     -2.503811915700    2.194911834952    6.162414900512
C     -1.613107624617    0.612292319794    7.322375107511
H     -0.638108110533    0.143408889965    7.528096988433
H     -1.983770906149    1.022950307961    8.274885711636
H     -2.306655241975   -0.188510863190    7.014573907115
N      2.011770409597    1.181156618708   -0.062836639298
C      1.269591053045    0.043598068018   -0.043120855953
C      1.967871462503   -1.240755383546   -0.008014810312
C      3.391059597594   -1.275123919117    0.021050708093
C      4.093832705148   -0.029865098507    0.004668656763
C      3.379866377775    1.134768480991   -0.047461868178
C      1.231644908288   -2.446586889950   -0.000968307396
C      1.886349622693   -3.666162358971    0.036819377525
C      3.298352849947   -3.707217081175    0.068281013780
C      4.037703628518   -2.537194619927    0.060256055091
H      0.142761714686   -2.381570356538   -0.029671452450
H      1.314863911699   -4.597645984786    0.040967797784
H      3.810595973768   -4.672833036675    0.097525528452
H      5.130238027035   -2.572468533122    0.082104551448
H      5.184765280054   -0.005695248485    0.020696493645
H      3.882738346781    2.102690137547   -0.087233725435
