75

C      2.501984365860    3.980079167225   -1.011558239150
H     -0.802327990719   -0.868901133643    1.377256078328
C      0.128834786558    5.131684269085    0.534001347130
H      0.938220272508    5.861491748729    0.619382825626
H     -0.382270347771    4.781861986673    1.438403165376
C     -0.402509389964    4.877427626011   -0.714981158589
H     -1.337268574387    4.320056877279   -0.823903827813
C      0.040758895326    5.654150577688   -1.921381210202
O      0.722035119357    6.648735974703   -1.890436464465
O     -0.456639837916    5.112003782948   -3.045198811842
Pd     0.900572741661    3.169836415280   -0.155001658822
C     -1.515475050232    2.250734480671    1.740435677792
O     -0.871629133528    2.142487176158    0.593727695013
O     -1.459492586869    3.218610820233    2.469196685322
C     -2.386917079874    1.007360697312    2.092716044690
H     -2.364000728833    0.329944872058    1.217612996654
N     -1.865100443149    0.402302869653    3.304165147815
C     -1.124286247117   -0.632313888078    3.296335817303
O     -0.653467025025   -1.322555992952    2.226232217360
O     -0.030851105018    0.025968065267   -0.221429985559
H     -0.486438734365    0.951634921311    0.072568950066
C      3.424564002043    4.739951178914   -0.283389851879
C      4.597757683946    5.236468003264   -0.876480227515
C      4.846794104037    4.970713605585   -2.242875398980
C      3.911807964347    4.213674760877   -2.960550532027
C      2.747605888552    3.716119469533   -2.362089085047
H      3.250499977373    4.956025905774    0.774942055554
H      4.100055815080    3.999118122750   -4.017248070743
H      2.047373245894    3.124263830559   -2.957929741039
C      5.575720523769    6.042734607634   -0.058610027640
H      6.567641727144    5.560822307545   -0.025732946678
H      5.727014182283    7.049306332459   -0.484192628837
H      5.228503108723    6.165006510345    0.977452154347
C      6.094196241212    5.488272450341   -2.915394787844
H      6.152207496485    6.589494596563   -2.875221948755
H      7.007825617703    5.108335194170   -2.427023534761
H      6.131534875230    5.190106852707   -3.973372691586
C     -0.125900483260    5.772998553025   -4.280747053742
H     -0.437307233730    6.827760509490   -4.211623518361
H      0.969765114854    5.766471059591   -4.399116506668
C     -0.827887751076    5.044068844356   -5.406958887710
H     -1.919617799147    5.057337554129   -5.265961026320
H     -0.597955795465    5.530059520515   -6.367875308468
H     -0.500945645641    3.994359380066   -5.464793221244
C     -0.665738760570   -1.264988805429    4.580019850830
H      0.435314288553   -1.276701626727    4.625294221315
H     -1.069850535878   -0.710419620382    5.434255276817
H     -1.002124454591   -2.313761029899    4.620621390852
C     -3.834222718943    1.441344893117    2.285877608899
C     -4.755913367937    1.314403406803    1.238193913190
C     -6.076823506439    1.747412714055    1.394281724247
C     -6.487133772873    2.312693078792    2.604350416971
C     -5.570510689109    2.440966765540    3.654326355003
C     -4.251982521428    2.009063165986    3.498157421955
H     -4.440534721422    0.866618776191    0.290590219320
H     -6.786766356512    1.636676028764    0.570212007243
H     -7.519549751683    2.649332296895    2.731306366151
H     -5.887129535031    2.881427914398    4.603748892998
H     -3.529397580416    2.098644927290    4.309693209055
N      1.942644776928    1.237118954821   -0.042818333264
C      1.276408272160    0.052844934109   -0.119046275175
C      1.975298041662   -1.178834075269   -0.092450835650
C      3.345617100131   -1.187187663047    0.052867974059
C      4.029507569974    0.040498598108    0.170056744493
C      3.283623340780    1.212158819744    0.107260671483
H      1.390155527054   -2.095564831915   -0.166611089521
H      3.901495303136   -2.125217310855    0.087795251017
H      3.795644301882    2.172013090263    0.170822704098
C      5.502401716802    0.153895123590    0.351383504525
O      6.102204786609    1.196738703629    0.472277385164
O      6.101718617408   -1.052126564724    0.368042587737
C      7.518799510103   -1.050468857334    0.543047451740
H      7.793532518042   -0.579386621706    1.498886510250
H      7.829269551355   -2.102386136697    0.533117266074
H      8.011970510227   -0.498130186875   -0.271042295304
