72

C      1.469921921934    2.942740899471    2.221041967860
H     -1.930524633152    0.554783741356   -2.616801665334
C     -0.782271665200    4.446868890417    0.892276730744
H     -1.537537719900    4.334647602881    0.111358196632
H     -1.048205629452    4.135247792283    1.904674732539
C      0.336469842232    5.224700203949    0.669711884899
H      0.982438860718    5.516295374298    1.500604187652
C      0.617207474873    5.987523152504   -0.593245936440
O      1.719038836191    6.403114220829   -0.869011521239
O     -0.478905298147    6.176924160243   -1.330517622728
Pd     0.869124406962    3.102428420158    0.312827694105
C     -0.567629091379    2.464156530705   -2.251091101267
O     -1.151094718505    1.555910528490   -1.585423177069
O      0.283939568504    3.256390845604   -1.766660370560
C     -0.900599547660    2.636155707404   -3.746722823685
H     -0.151346347588    3.358973997106   -4.101197379900
N     -0.742778895509    1.455137667904   -4.595389255386
C     -1.346085493684    0.340054656464   -4.422836957473
O     -2.110897646634   -0.042961909836   -3.390716149571
O     -0.115891535752    0.163052093907    0.315490038443
H     -0.547216786983    0.823731003819   -0.324762690535
C      0.846084713606    2.010575149818    3.062133952044
C      1.236928143298    1.844325500973    4.401502855568
C      2.291633223658    2.632609886533    4.918670326419
C      2.911588703041    3.557722345521    4.070168269319
C      2.511436370497    3.722887281523    2.737560875114
H      0.042703774043    1.378455378518    2.673205229895
H      3.729519381329    4.172497107135    4.458824752817
H      3.025568939121    4.465400652127    2.120519379173
C      0.537368418653    0.828744629346    5.271863397163
H      1.240928284527    0.072284909351    5.659968276331
H      0.070574548678    1.300762636653    6.153510611787
H     -0.251024684098    0.300190666638    4.716833360356
C      2.741025680384    2.481642715653    6.351397377982
H      1.921972703217    2.689334911711    7.061313651230
H      3.086187489988    1.455553703426    6.565869572688
H      3.567935362304    3.167874568959    6.585771214651
C     -0.317631341442    6.839642565100   -2.600995412405
H      0.363260397166    7.694202748893   -2.468378487455
H      0.168013986136    6.131503443732   -3.291957648017
C     -1.686467884511    7.261224445207   -3.090625593654
H     -2.155793089285    7.965808161800   -2.386353538791
H     -1.593006942895    7.761529918049   -4.067115220386
H     -2.349608356069    6.392444726718   -3.214362498496
C     -1.249602708113   -0.731687828252   -5.476147382883
H     -0.630612432057   -0.388442006666   -6.312832068746
H     -0.828343713027   -1.653584986055   -5.043615533948
H     -2.261078658039   -0.980406815416   -5.837498087266
C     -2.270859360664    3.286920839681   -3.975860020798
C     -2.469436013388    3.968221212384   -5.189538766657
C     -3.700183178569    4.552256258789   -5.492796339253
C     -4.759618182987    4.469035700835   -4.582127237551
C     -4.574329025947    3.793758384356   -3.374064664751
C     -3.341465898111    3.201961846424   -3.073562901228
H     -1.645783678793    4.027845835480   -5.905919573349
H     -3.833519113051    5.076777316713   -6.442820137792
H     -5.723989632584    4.927942557991   -4.815089973604
H     -5.395853524890    3.720009427365   -2.656416343406
H     -3.216949502549    2.670401291516   -2.129072306589
N      1.883957328465    1.246794941571   -0.077101637094
C      1.191843142831    0.103902186927    0.121017054597
C      1.843821983305   -1.143389484098    0.143418488849
C      3.206472496001   -1.186159927707   -0.101913352724
C      3.898533410939    0.000304270752   -0.378497974193
C      3.212321027930    1.212896413739   -0.358133243715
H      1.245150771588   -2.036511704688    0.323139661381
H      3.734537501959   -2.143135170407   -0.102331998082
H      4.965611275354   -0.010036897705   -0.603836825248
C      3.900996908540    2.519448948286   -0.630577703663
H      3.341234051761    3.106908539356   -1.375032532017
H      3.960507451563    3.122813027002    0.289224948471
H      4.922429434673    2.357890612979   -1.000866227997
