77

C      2.440529860026    3.887840509717   -1.232665802852
H     -0.477220005288    0.904723436235    0.141452884536
C     -0.128282838073    5.110936786705   -0.196181474024
H     -0.879672166331    5.030685447551    0.590082368637
H      0.691148102139    5.815123997700   -0.034964743870
C     -0.360050145106    4.593935599389   -1.457254482983
H      0.287761055543    4.864036183406   -2.294462427587
C     -1.624773540138    3.915497575788   -1.908176616977
O     -1.672629778609    3.260204023989   -2.924630758970
O     -2.658957366613    4.157005430312   -1.100866813742
Pd     0.844953150881    3.142704296166   -0.296883669428
C     -0.910530486168    2.561791931712    2.023487441376
O     -0.847127741331    2.248022495419    0.753725111065
O     -0.156129408781    3.346389066957    2.578287847243
C     -2.056610318335    1.876910199838    2.796768377017
H     -2.089938598456    2.364451272095    3.779003773439
N     -3.314265248434    2.125836967702    2.105522474295
C     -4.313288191179    3.003311274471    2.437124821143
O     -5.194644578260    3.285111843667    1.636314517202
O     -0.056537779758    0.041967094075   -0.196304613769
H     -3.333665420760    1.839132272801    1.129783526875
C      3.316385199912    4.717575711597   -0.519880413693
C      4.507634855899    5.196902267467   -1.093080557315
C      4.820734828438    4.845095738027   -2.426451897160
C      3.928814411981    4.026269142133   -3.132134018078
C      2.747136119104    3.547023875336   -2.553757536607
H      3.092375956223    4.994251221205    0.515737245782
H      4.163828988111    3.750863423548   -4.164970069137
H      2.080661178439    2.908105053268   -3.139498533701
C      5.437712680774    6.070169113177   -0.287593287935
H      6.430531508486    5.602672383847   -0.173083650645
H      5.603945393003    7.046360350916   -0.774279686898
H      5.039594668356    6.259558570386    0.719745979331
C      6.090216094026    5.336871341198   -3.077276182887
H      6.136208120507    6.439136459339   -3.104160711265
H      6.985961082367    4.999783528431   -2.527991309829
H      6.175804390332    4.973660885086   -4.111791896425
C     -3.946173519864    3.597650649083   -1.467648159715
H     -3.777908740804    2.606470907612   -1.913973454270
H     -4.487442327251    3.493387618460   -0.517153695398
C     -4.684554236745    4.510074465207   -2.431821812326
H     -4.151346549806    4.596635062296   -3.390564245046
H     -5.686097982966    4.097409554791   -2.632993952951
H     -4.812367276130    5.515137807710   -2.000516605483
C     -4.293499525304    3.598055844472    3.835772688746
H     -5.211125504775    4.185097235358    3.961291466732
H     -4.244968611609    2.820692692038    4.613795079946
H     -3.423162079604    4.260515341364    3.969540609064
C     -1.793417006707    0.361391633234    3.011005629341
H     -1.811265833009   -0.114728585540    2.012780870340
C     -0.406710320941    0.128466257982    3.625234265298
H     -0.212475805878   -0.944526763291    3.770517848584
H      0.401197224108    0.523710753245    2.991466896171
H     -0.321546043090    0.622917738009    4.607577937846
C     -2.915674471491   -0.270576200083    3.855684619666
H     -2.850633929273    0.125443374219    4.886572586590
H     -3.884187339944    0.069820597702    3.455578862350
C     -2.909024105741   -1.800491701213    3.891126466376
H     -1.996490309206   -2.206458313599    4.355925955952
H     -3.765966368889   -2.183669059726    4.467693772372
H     -2.979610611765   -2.222418771310    2.874433637909
N      1.916441885885    1.251119107950   -0.021484904778
C      1.251869913268    0.070275447850   -0.111263684049
C      1.951713200466   -1.160156899079   -0.126328570270
C      3.323299014671   -1.166738054579    0.016651023001
C      4.003859838656    0.058638453461    0.172646408191
C      3.254856837748    1.230289333363    0.133230174260
H      1.367483796682   -2.074922664831   -0.229895079563
H      3.883018079136   -2.103152886616    0.022121551349
H      3.762292593852    2.191718182769    0.213924811037
C      5.475733324748    0.170327315880    0.360705763755
O      6.072839496194    1.211038230274    0.509715248105
O      6.078085158207   -1.034510596971    0.348112895283
C      7.494984616942   -1.033343375762    0.524009724583
H      7.768023315520   -0.584850248429    1.491130905058
H      7.808360544215   -2.083862346816    0.488603596964
H      7.987168879875   -0.460138841287   -0.276116952935
