51

Pd     1.210703589203    3.149224466753   -0.171442799628
C     -1.616214228493    3.454606458077   -0.196217674765
O     -0.693795579222    2.516621675256   -0.404611419054
O     -2.794737877745    3.214438702348   -0.118541815574
C     -1.085540259073    4.922002436695   -0.107075370567
H     -1.465015500750    5.330930029176    0.847590539312
N      0.360656536071    4.894915309463   -0.131746883811
C      1.348877038360    5.573757819473    0.438673711897
O      2.455688115344    4.936157548126    0.445520284251
O      0.113842817142    0.147352123819    0.060274655151
H     -0.320881901596    1.040798010945   -0.100694279026
C      1.243489578922    6.946942301702    1.029957278703
H      1.599678273170    7.688024633586    0.297188716798
H      0.209745986107    7.208492834352    1.293214023269
H      1.892422401598    7.003354836462    1.915406494699
C     -1.720230631953    5.721544503254   -1.274675100170
H     -1.382523244210    5.268218111232   -2.219972079646
H     -2.805562417325    5.553209062889   -1.199070626803
C     -1.413956637388    7.200215125720   -1.272814319712
C     -2.134765225090    8.081444982826   -0.448535338653
C     -0.393134771954    7.728358703496   -2.079050929655
C     -1.837842780401    9.446601174960   -0.422315704828
H     -2.945671164695    7.692638345629    0.175136271471
C     -0.094614225705    9.094656232990   -2.058202085845
H      0.170665192085    7.059538877035   -2.735220388674
C     -0.813745055994    9.958056261395   -1.226582502133
H     -2.413763346430   10.115885223324    0.222299534871
H      0.700150473747    9.486611714662   -2.698522453874
H     -0.583894480662   11.026490118264   -1.211233104579
N      2.144471051318    1.231708019323   -0.144333481401
C      1.423896833956    0.131249523582   -0.003713123865
C      2.028524029011   -1.189991388754    0.101259148797
C      3.437445570455   -1.312915945678    0.029137557494
C      4.223440261210   -0.102134195297   -0.159418174092
C      3.540197045445    1.143811403705   -0.239776519346
C      1.213637922869   -2.331273492060    0.273115597192
C      1.788279571505   -3.586956348368    0.378589971516
C      3.188176236909   -3.720488836135    0.311597673413
C      3.996708218456   -2.607284262151    0.139678944534
C      5.632331752966   -0.109754654818   -0.270083156426
C      6.350794736373    1.061053090428   -0.452263787457
C      5.669779078900    2.287356282450   -0.528672944013
C      4.287713263256    2.328054472257   -0.424670187572
H      0.132705840204   -2.200655659039    0.321014591153
H      1.158742360446   -4.469551814117    0.512757120227
H      3.644421073826   -4.710201885159    0.395098294267
H      5.077684275088   -2.740303882690    0.091014317898
H      6.169629132449   -1.057132028022   -0.213422579243
H      7.439526297428    1.027749411235   -0.535512762459
H      6.224931577978    3.217789194478   -0.669260175132
H      3.774227891899    3.288711036447   -0.473415169629
