73

C      1.883906424704    3.441425773503   -1.821637133379
H     -3.443948220638    1.900589005408    3.788106703245
C     -0.295310444493    4.854207141826    0.086939075433
H     -0.828114555730    4.709096273603    1.030694556005
H      0.447872708959    5.655540627054    0.049197744237
C     -0.728877960862    4.284774735496   -1.091506228086
H     -0.331307455827    4.629797012492   -2.047058816548
C     -1.929949179199    3.410714989140   -1.286345847614
O     -2.294772633939    3.064480810436   -2.385642965048
O     -2.540173210247    3.059226880316   -0.143120998034
Pd     0.840626867121    2.943613916063   -0.203578158470
C     -0.816219172040    1.899705496226    2.396181817230
O     -1.371386551709    0.851840688396    1.864628258251
O      0.087413498286    2.552557465997    1.870008065061
C     -1.356368442467    2.333664918397    3.764101560360
H     -0.847915166549    3.285725506232    3.964073614752
N     -2.771435922051    2.648590181816    3.674875365794
C     -3.210116205391    3.903119039205    3.334161651450
O     -2.444822472253    4.815269435953    3.068220835537
O     -0.052307001547    0.081282535887   -0.108988521341
H     -0.861872378597    0.564206962921    0.997060264093
C      2.914437988511    4.375911315995   -1.669961241798
C      3.745911010503    4.729042042893   -2.748497787462
C      3.526695310287    4.132532543484   -4.011039297902
C      2.483101774609    3.206057489351   -4.144652590601
C      1.661114752044    2.853081374351   -3.068205161602
H      3.099406219077    4.845883850372   -0.698568692923
H      2.305943067360    2.741758285978   -5.119575618280
H      0.855202500131    2.130180596575   -3.215320943181
C      4.857397383320    5.730195412604   -2.550409482776
H      5.843455012019    5.289124307294   -2.774988444146
H      4.744362871672    6.601345418261   -3.218159468996
H      4.885818556946    6.101164186550   -1.515600300238
C      4.397747853663    4.482556178619   -5.192605045289
H      4.355454373709    5.559991463704   -5.427588036639
H      5.458407634157    4.245487522184   -5.001628409876
H      4.089494619238    3.931912150318   -6.093179774229
C     -3.658445653869    2.151285593834   -0.252281956942
H     -3.413972782597    1.385608772526   -1.002925131723
H     -3.712495682252    1.674202413941    0.735186016543
C     -4.948681191913    2.870189806609   -0.607670491535
H     -4.886796012580    3.315095422465   -1.611007880773
H     -5.784635139811    2.152184244192   -0.603194905971
H     -5.175432907616    3.664902952533    0.119839147070
C     -4.716801650190    4.095814995054    3.349527466313
H     -4.975348748989    4.761632188424    4.187832296067
H     -5.014890363253    4.609200985720    2.424529113662
H     -5.286399374330    3.160454511117    3.451637621614
C     -1.019733693787    1.347408869950    4.931626006622
C      0.477887269531    0.993095124296    4.859035916164
H      0.768917828390    0.395462025064    5.737095227222
H      0.717116577238    0.397452663856    3.963928112611
H      1.106511522308    1.897468318997    4.842458434450
C     -1.304629080893    2.075718335334    6.259153017302
H     -0.672340914841    2.971409412501    6.367116730333
H     -2.355820106909    2.395976413024    6.325127577112
H     -1.099488783301    1.411706202820    7.113842601787
C     -1.852962719821    0.052352059662    4.868034309836
H     -2.930502869248    0.245256852204    5.005975863952
H     -1.717950872009   -0.476712806832    3.914589198130
H     -1.551827357671   -0.624065918627    5.683660120096
N      1.969183743773    1.164112010627   -0.140412759816
C      1.205770591039    0.004384962860   -0.110573574335
C      1.904996607787   -1.254320176708   -0.094163904542
C      3.276486224957   -1.305281194228   -0.087398654174
C      3.994297360098   -0.090489837813   -0.104285001725
C      3.306401085414    1.113222413946   -0.144916028269
H      1.292953267057   -2.157146288031   -0.086053903242
H      3.825916675115   -2.247250158073   -0.070063759245
H      3.858680133757    2.052387340495   -0.193786816921
N      5.449224631764   -0.086099852951   -0.097056623802
O      6.020995893486    0.996870739785   -0.099899060398
O      6.015852312585   -1.171029206964   -0.085602519141
