14

N     -0.613057197875    0.588383578132    1.174766254597
C     -0.639027734781    1.669571736062    1.933215471798
O     -1.363597269887    1.533594221072    2.975168146879
Pd    -1.740970259258   -0.540697942043    2.212091331925
C     -0.585515358964   -1.450577751691   -0.172258465710
O     -1.386209837615   -1.883416700850    0.790890501768
O     -0.256404097949   -2.122940042312   -1.116044447442
C     -0.066926600788    0.016630698898   -0.029749682145
H     -0.377702195185    0.572703117572   -0.931220747063
C      0.095254822838    2.937901036642    1.625842871866
H      0.779060750410    3.167866894924    2.457515799023
H      0.665579978092    2.870414858351    0.689171090699
H     -0.628660534087    3.764561783378    1.557127188405
H      1.036322193485   -0.016471680144   -0.011415838962
