74

C      1.874371479758    3.448976336004   -1.840497222094
H     -3.388245164227    2.009222435997    3.763135634962
C     -0.280273975289    4.900599240648    0.072991972686
H     -0.786585696247    4.773614347211    1.033650022987
H      0.455862851831    5.705770427663   -0.002020236406
C     -0.733115882976    4.297626935463   -1.081033329397
H     -0.356494671805    4.621074566010   -2.052516333609
C     -1.928312653107    3.408343184464   -1.232753824748
O     -2.310329667731    3.033027351343   -2.316724714087
O     -2.515553538777    3.075584013715   -0.071064923806
Pd     0.863117675047    2.989126557265   -0.190658452194
C     -0.744268613895    1.954271829357    2.435534347629
O     -1.255391743633    0.869921659523    1.943490291397
O      0.115212345118    2.647480680439    1.886097663923
C     -1.290413547568    2.370233428081    3.806246904476
H     -0.745538066606    3.284909027295    4.078871674766
N     -2.692460455288    2.741665433788    3.685749009906
C     -3.087005915274    4.016618527870    3.370323084903
O     -2.290598176401    4.915002463604    3.155173379267
O      0.010734878083    0.129346390367   -0.045120365625
H     -0.749278523107    0.576786291142    1.056784114986
C      2.883890187588    4.413821196255   -1.746642531174
C      3.680778399865    4.751275826015   -2.855548948871
C      3.449075735537    4.106713801586   -4.091759873056
C      2.428571910170    3.148659540381   -4.168813812919
C      1.641686372274    2.811945654777   -3.061553362691
H      3.079675870263    4.920358900306   -0.796000830933
H      2.242107592176    2.646176359730   -5.122979666012
H      0.853704789661    2.062095251157   -3.164292296241
C      4.769807042426    5.786855202066   -2.717350378607
H      5.762215235390    5.363890959430   -2.949226000515
H      4.619492068453    6.631873663696   -3.411014106439
H      4.811287728825    6.193285646056   -1.696349010079
C      4.282711437485    4.439304673476   -5.305157202391
H      4.205369391367    5.506482039436   -5.575854535500
H      5.353954617598    4.237814720191   -5.132442837757
H      3.968903813548    3.849857953552   -6.179002189973
C     -3.611709746488    2.138136657358   -0.141807965210
H     -3.359217413360    1.361326688456   -0.878095723355
H     -3.638689219240    1.682015688917    0.856610940324
C     -4.925644010581    2.815083679458   -0.493320545314
H     -4.889484056222    3.238857735786   -1.506991281522
H     -5.742410567342    2.075922164559   -0.460702620390
H     -5.163226273539    3.619579872515    0.219874507837
C     -4.588271652659    4.250104502007    3.344779045730
H     -4.851285516521    4.921629436153    4.176959411739
H     -4.845148055089    4.773231108144    2.412732680098
H     -5.186761858787    3.330994481540    3.427198033315
C     -1.078596431059    1.279493674650    4.880536972146
H     -1.696024516276    0.411319410349    4.582963451774
C      0.384362149579    0.819353475409    4.920829949667
H      0.525631109863    0.057544113209    5.703158018800
H      0.705411802793    0.372758820976    3.967439471360
H      1.059883294800    1.661156273912    5.147125037053
C     -1.540967666714    1.767394450606    6.258820442621
H     -0.925835453351    2.616510156199    6.600952430827
H     -2.589792256928    2.099689119284    6.249192946352
H     -1.448025203891    0.963753179056    7.006111773214
N      2.019584382304    1.236665410183   -0.081896352504
C      1.276580311406    0.070097312167   -0.032522147339
C      1.994043723646   -1.171461950078    0.020821743224
C      3.368650005011   -1.194174009002    0.041611289144
C      4.092684557145    0.023358512427    0.003510509731
C      3.359743872416    1.204154137919   -0.070817670525
H      1.397612453518   -2.084700927478    0.044788739202
H      3.912437076010   -2.139574761969    0.086789872810
H      3.887098987843    2.158300724178   -0.133610085025
C      5.569612808447    0.114042071430    0.023273573668
O      6.204596987424    1.145789238422    0.000589736182
O      6.155369866143   -1.103670366837    0.072583524181
C      7.579825703123   -1.113567808033    0.094392914584
H      7.964264784232   -0.574533405715    0.973994085701
H      7.879155851258   -2.168500954630    0.134881183620
H      7.990821291121   -0.635724320679   -0.808225836772
