80

C      1.352870862373    2.808028771768   -2.055724779512
H      0.064617678609    1.898583794530    2.266325352795
C      0.452497877557    5.213439406201   -0.406209544605
H      0.513341935766    5.653928010650    0.595176192998
H      1.159181800709    5.546407754915   -1.170507703559
C     -0.646486375515    4.460331607265   -0.773132237783
H     -0.805673228974    4.173783297543   -1.815818555908
C     -1.864731828992    4.243459171168    0.087148517901
O     -2.582620489068    3.272763496814   -0.016852354203
O     -2.065140832087    5.260477976564    0.917819202779
Pd     0.971945244548    3.084314494146   -0.111741867536
C      0.260732808292    4.055097832952    2.902374934834
O      0.424174098206    5.258936473895    2.803908825376
O      0.709896676642    3.164020988345    2.047006574203
C     -0.518413635295    3.443808590133    4.096696384098
H     -0.871089603544    4.318557719736    4.665845386646
N     -1.714975368703    2.693867752809    3.705470933479
C     -1.729991497469    1.676983526901    2.935885705391
O     -0.653475964203    1.148037084222    2.292780143989
O      0.026908196729   -0.007740683046    0.018077998273
H     -0.364532250933    0.534253008059    0.764086980548
C      2.469274103134    3.421100777616   -2.637799126673
C      2.803139920380    3.217170901919   -3.988269960014
C      1.989177866367    2.376157561040   -4.780893238370
C      0.874702961040    1.769292765496   -4.186580482810
C      0.548358251004    1.975343153493   -2.840686516235
H      3.118864290798    4.067347901299   -2.039514031516
H      0.239800970611    1.114514471380   -4.791596918749
H     -0.326574411915    1.476550521327   -2.416251388196
C      4.018541261604    3.891086891709   -4.577265921487
H      4.742020976229    3.155249778462   -4.968352410907
H      3.751227644019    4.545832089903   -5.424467737154
H      4.539131798883    4.506540118925   -3.829174279040
C      2.311263754681    2.134239876512   -6.235413697916
H      2.315339716397    3.072968639130   -6.815800927398
H      3.310651665272    1.683916944066   -6.364082243710
H      1.578479432146    1.458273361220   -6.699787815562
C     -3.185973362459    5.201048374316    1.831368679356
H     -4.102946520786    5.025560661139    1.245963442589
H     -3.037233022928    4.343735325342    2.506538969039
C     -3.215719485264    6.511999228885    2.588024044596
H     -3.378904967311    7.363670047290    1.909060597538
H     -4.030720043244    6.496946822244    3.328352467175
H     -2.262156007791    6.664220456847    3.115765495295
C     -3.006599601626    0.948334876515    2.624139143470
H     -3.796229843474    1.248523673605    3.323075183253
H     -3.318667960529    1.198311851885    1.596343688427
H     -2.848586616204   -0.140332102174    2.676629886218
C      0.413075963842    2.634714810138    5.046428449769
H      0.731861368556    1.725734965726    4.507048901741
C      1.669035372690    3.433817257127    5.415970640334
H      2.287945836726    2.869425533272    6.132196862141
H      2.293839198049    3.654052049329    4.537055021781
H      1.404177161564    4.395583306165    5.886600995150
C     -0.348368382399    2.200331582955    6.305389828709
H     -0.653610284744    3.078943243116    6.899385636096
H     -1.257774096889    1.635617567830    6.055337019601
H      0.286414100863    1.567479866264    6.946912829701
N      1.986677006609    1.179278967112    0.202005143749
C      1.350401829992    0.045381766819   -0.000829321215
C      2.046753348528   -1.192221946647   -0.299850325708
C      3.466094853826   -1.193879521667   -0.319134505878
C      4.159346987473    0.041115870182    0.016646495547
C      3.378306773980    1.199732127802    0.281602868558
C      1.320713522409   -2.373538244163   -0.572156519605
C      1.990822170086   -3.544199266275   -0.884400930866
C      3.398825830833   -3.553650612820   -0.920416191959
C      4.122457041966   -2.404198372950   -0.641080153366
C      5.566655768052    0.146504390111    0.103103223818
C      6.181785677649    1.340781367069    0.443868415063
C      5.400691812608    2.478119137476    0.718077022820
C      4.019424912139    2.406827048738    0.637537316779
H      0.231842559718   -2.336887832374   -0.535939436564
H      1.431225930133   -4.457084853521   -1.100606923931
H      3.929019260795   -4.476926513955   -1.167524955638
H      5.211721880964   -2.442248939326   -0.672335393423
H      6.184894572703   -0.730037386018   -0.094935101438
H      7.271014830828    1.394633907658    0.507228389919
H      5.879344214745    3.417979648200    1.002993407547
H      3.401858594571    3.277397473510    0.870198153139
