62

C      2.525676070789    3.990603661619   -0.928379166147
H     -0.936880386632   -0.933444036006    1.191033789513
C      0.121372142711    5.152479780421    0.568613836612
H      0.937385960981    5.867521343788    0.701643903024
H     -0.442180711790    4.799066653960    1.440095391151
C     -0.363290504723    4.929859620232   -0.704979416292
H     -1.302517554902    4.390711318654   -0.858909590558
C      0.137266670049    5.720729184593   -1.879740812720
O      0.836827401326    6.700115309693   -1.804288271496
O     -0.332500604296    5.211835051701   -3.030126876431
Pd     0.891472207893    3.191363716499   -0.127553437175
C     -1.632005509077    2.293236137780    1.686962133479
O     -0.899722698591    2.172362229501    0.589401710056
O     -1.724419421520    3.319997888451    2.324992942860
C     -2.374705098164    1.006415432774    2.098095356714
H     -2.503741677559    0.355835994791    1.210001590057
N     -1.728171734829    0.373470462565    3.229156197801
C     -1.076653471481   -0.715899111056    3.129937848521
O     -0.814554091293   -1.443256178933    2.012956697958
O     -0.108783348943    0.075348348024   -0.258477809163
H     -0.555353337080    1.022244807231    0.083346923593
C      3.432444083640    4.734733603386   -0.164423713276
C      4.627475394125    5.227247874570   -0.716846859045
C      4.917134531725    4.970499571505   -2.077125495742
C      3.998646787701    4.226970184137   -2.829828664536
C      2.811415875637    3.735899604855   -2.272859618727
H      3.226015584446    4.945433231409    0.889144856489
H      4.218101072810    4.019223271056   -3.881751593409
H      2.125134855452    3.155512955472   -2.895411863331
C      5.581501047999    6.026817820474    0.135565866502
H      6.578092843225    5.555749675559    0.181448906605
H      5.732228570415    7.041474050485   -0.270700631786
H      5.211018189845    6.130376182856    1.165619459552
C      6.186720568350    5.486892649028   -2.707732479890
H      6.247327033366    6.587546428926   -2.658162884648
H      7.084111598749    5.100475933547   -2.195004582113
H      6.255088515975    5.195671729641   -3.765968855063
C      0.051453103746    5.891124249820   -4.240613355127
H     -0.241495448382    6.950247935607   -4.159091580354
H      1.150066880906    5.864818091657   -4.323290770886
C     -0.627247228108    5.199522208399   -5.403927644087
H     -1.722560487337    5.232242519740   -5.298442682047
H     -0.356216120223    5.700174734150   -6.346389764258
H     -0.319232222415    4.144808383232   -5.473170549881
C     -0.506086327032   -1.384585118748    4.349130599089
H      0.587698573965   -1.481179084612    4.254631575698
H     -0.756296807555   -0.803782122390    5.244038601686
H     -0.912623323761   -2.405216927882    4.439095988083
H     -3.378771498848    1.325921009078    2.421094979340
N      1.889905015986    1.233377450238   -0.054530900708
C      1.193869739925    0.069153046481   -0.153319761776
C      1.868889164729   -1.180207609788   -0.145710447045
C      3.237180588656   -1.220093266609   -0.005481974651
C      3.945569736964   -0.008510933601    0.125858863850
C      3.234318981025    1.177539618908    0.089857525944
H      1.264949128693   -2.083605997851   -0.229030484830
H      3.765348131238   -2.176347938651    0.014905609357
H      3.752008709958    2.131991257421    0.170263203639
C      5.441841033273   -0.017671521918    0.275604060370
F      5.825540240001   -0.811627699732    1.293218094217
F      6.044545708412   -0.493852096911   -0.830830502034
F      5.936039334474    1.208170000711    0.507556526830
