50

Pd     1.119112521493    3.096668518962   -0.029679273598
C     -1.718085529525    3.341606648853   -0.077830255567
O     -0.767525717340    2.427683708331   -0.279321541622
O     -2.885694921731    3.053137318642    0.022537651344
C     -1.230628790603    4.820663185338   -0.005302242547
H     -1.649098313102    5.231426201008    0.930786888832
N      0.216178457603    4.801636015918    0.048075914358
C      1.210231944420    5.572735687840    0.444473382093
O      2.337929615882    4.971393828249    0.475840331244
O      0.100874534418    0.063409262308    0.105373178930
H     -0.357218999726    0.950192103897   -0.022044336293
C      1.088357756177    7.021041425052    0.820149551859
H      1.483993000263    7.645081800611    0.002471692830
H      0.047281150217    7.314396585894    1.014883945106
H      1.703805396261    7.214081296880    1.710818945123
C     -1.742650328298    5.653287740306   -1.204939236966
H     -1.299805857739    6.661401147637   -1.107630584715
H     -1.310298590112    5.218907877235   -2.122733078015
C     -3.267369986932    5.797852251932   -1.371685145045
H     -3.685206021038    4.792131112158   -1.539071723722
C     -3.565101732534    6.651459059533   -2.611863354819
H     -3.099351260716    6.228338281598   -3.516963712690
H     -4.649532604551    6.719086729268   -2.794452595645
H     -3.183518998014    7.680656271474   -2.491125668061
C     -3.950544917040    6.374589202300   -0.125206611694
H     -5.022283586605    6.547344280290   -0.314198494535
H     -3.881093389838    5.684408321902    0.728881688884
H     -3.507396010987    7.343315435431    0.168036295808
N      2.103266402239    1.204755018046   -0.065872699775
C      1.410945766298    0.082470299911    0.038723461575
C      2.049064743294   -1.225724553208    0.097954882598
C      3.460683242835   -1.310045359220    0.021209596961
C      4.215618652975   -0.073812113589   -0.124568801481
C      3.500674145372    1.156146972218   -0.163020733286
C      1.263782455329   -2.392719951283    0.230398913544
C      1.870353231624   -3.636253706546    0.291699249618
C      3.273108474555   -3.731619029566    0.219400524279
C      4.052811986924   -2.592834865073    0.086188862069
C      5.624312967267   -0.041117762779   -0.233038727487
C      6.312123971152    1.153644631853   -0.373438731663
C      5.599595314868    2.363850207760   -0.408746857222
C      4.216772752611    2.365415741985   -0.305776131160
H      0.179939951350   -2.291445791463    0.283343603813
H      1.263691782698   -4.538763031065    0.395290367013
H      3.754516438339   -4.711694844086    0.267992458463
H      5.136760081514   -2.696462070214    0.032373068742
H      6.186104809982   -0.975570004349   -0.207964167155
H      7.401434126921    1.151513830791   -0.455828291158
H      6.130489054814    3.312642075197   -0.516458894420
H      3.679462158248    3.314395383470   -0.323857446239
