71

C      1.370278962290    2.940919997493   -2.122975860073
H      0.041710696957    1.843372448600    2.192148457753
C      0.466355519065    5.269625309949   -0.378390019159
H      0.535484496153    5.663403002579    0.641849866002
H      1.172560719659    5.630688233956   -1.130077714900
C     -0.639199242524    4.541107693987   -0.774435774426
H     -0.804092030362    4.301510769682   -1.828401766513
C     -1.853769003737    4.290315882916    0.083927742871
O     -2.563126490055    3.316781629708   -0.044025916137
O     -2.057852774265    5.282702791707    0.942570014671
Pd     0.963899241805    3.124360376347   -0.174820671025
C      0.270201719718    3.972624420189    2.873785140907
O      0.451526051300    5.175097280803    2.806271237384
O      0.688967962007    3.099797760963    1.981510655217
C     -0.498043033348    3.340839556254    4.063965074773
H     -0.833031667614    4.207240832301    4.655554304870
N     -1.709574400855    2.615792140381    3.669720569865
C     -1.742796268465    1.612386602981    2.883652598509
O     -0.671902064564    1.085495534448    2.226759747274
O     -0.011149956083    0.031547161516   -0.076483837843
H     -0.415185402233    0.490702616394    0.721693602253
C      2.478587285712    3.603385839350   -2.665583901650
C      2.843750661159    3.447296128467   -4.014705058036
C      2.068581142230    2.606041292543   -4.845299921594
C      0.961216121561    1.950867987649   -4.289588429338
C      0.604562985287    2.107527178579   -2.944737540093
H      3.093905052943    4.257751463066   -2.039297985091
H      0.357017377930    1.295846404012   -4.924853097682
H     -0.261871540926    1.570912451185   -2.549762737775
C      4.047751299952    4.174059713786   -4.562507333485
H      4.799618306400    3.472117218699   -4.962088404776
H      3.774164948345    4.844369318168   -5.395263867737
H      4.536816217721    4.783847250190   -3.788878164295
C      2.423178827874    2.415617878640   -6.299804393392
H      2.407652369903    3.370388271117   -6.853045717371
H      3.438317949670    2.000505277453   -6.422579322746
H      1.720195056857    1.730974173430   -6.796160038114
C     -3.176132267900    5.189501730104    1.857367407639
H     -4.093122813717    5.023814265886    1.269283071907
H     -3.019606860542    4.314268914382    2.507319263102
C     -3.213999092081    6.478113183340    2.650808612913
H     -3.382982828096    7.347594083923    1.996372331542
H     -4.028816623030    6.436551841507    3.390252804239
H     -2.261920876169    6.622069967324    3.183536893342
C     -3.027444677307    0.902471717655    2.565214138825
H     -3.812969723467    1.203275027858    3.268406605523
H     -3.337588291756    1.167337548550    1.540499783043
H     -2.882075226342   -0.188486846937    2.604222877300
C      0.435773356596    2.500298727838    4.986322576688
H      0.698628048677    1.575604166859    4.441999678473
C      1.732365514169    3.258929013207    5.299265276912
H      2.363224131893    2.693543455769    6.001964870515
H      2.331732565043    3.438378624136    4.393868323056
H      1.516294762490    4.239858787536    5.754611689540
C     -0.319536495819    2.095194957397    6.269059874545
H     -0.467887707525    2.998624441370    6.889336585190
H     -1.327828203923    1.753418075131    5.988070995673
C      0.364267753118    1.005995645446    7.098451752816
H      1.355519964134    1.316191641738    7.466467664975
H     -0.241903969842    0.743601339921    7.980494024434
H      0.504455418668    0.084195149306    6.508589337943
N      1.977239875294    1.215560808786    0.068404772909
C      1.309408485625    0.052080023788   -0.047817781260
C      2.039509513665   -1.158027879803   -0.188223992649
C      3.426672126153   -1.143472470691   -0.155782482586
C      4.079740614256    0.082913781272    0.020522944998
C      3.322473282588    1.242007834864    0.124078218674
H      3.991041036827   -2.071756082599   -0.250514064794
H      3.802600263080    2.215010932201    0.236420034014
Cl     1.178741429014   -2.648222231531   -0.375803733428
Cl     5.814648068622    0.164358166118    0.090931262758
