24

N     -0.491216701328    0.725367469180    1.180036017719
C     -1.739839345189    1.254834887907    1.197808054650
O     -2.536305067316    1.057061165112    0.277166463292
H     -2.263979405652   -0.578099582811   -0.215060327054
H      0.097132804095    0.812690202810    2.000205425101
C     -0.578678106740   -1.460048618416    0.053905260339
O     -1.893160332851   -1.496607585885   -0.163301481659
O      0.067526617559   -2.454871548228    0.261788769761
C      0.029250690011   -0.030633574702    0.034618288569
H     -0.358894917591    0.474316236069   -0.867918902803
C     -2.111256593242    2.101576164469    2.394872026827
H     -1.295230717908    2.223068260350    3.121163885505
H     -2.425847553850    3.092478781189    2.034243755498
H     -2.981334823184    1.648351605068    2.893555411624
C      1.568789029640   -0.025719943582   -0.003371448946
H      1.914647907120   -0.644933077480    0.843904647049
C      2.080065773890   -0.678159506387   -1.295755229054
H      3.181124351537   -0.689267972158   -1.306627336273
H      1.731407847510   -1.714677679426   -1.389163497660
H      1.746140742538   -0.110540267211   -2.181571693322
C      2.142808997100    1.391735855481    0.137330131971
H      1.797741215378    2.041723176360   -0.684644374283
H      1.864856522628    1.881753483369    1.083122450849
H      3.242643874582    1.361324827811    0.096920418626
