38

Pd     1.209520760766    3.098824992825   -0.213871243018
C     -1.546015239649    3.674253670372    0.166776691745
O     -0.727858380066    2.626225853701    0.055620092399
O     -2.709322500014    3.575444301204    0.452220107522
C     -0.884367121247    5.087528154253   -0.078810471406
H     -0.992409137770    5.608276168418    0.891127096118
N      0.509750530424    4.881254865841   -0.399759905027
C      1.656039455908    5.542226684305   -0.352931340284
O      2.675532855519    4.769038368956   -0.405442518432
O     -0.066913927521    0.184395819231    0.442007366432
H     -0.452210419461    1.110039732526    0.323130579688
C      1.800148156007    7.028342766863   -0.238051564927
H      0.850735122032    7.546430565713   -0.429109615902
H      2.156220464620    7.280733030737    0.774100294003
H      2.563893480830    7.374307134882   -0.950136984505
C     -1.668100814602    5.864869718453   -1.129092050650
C     -2.862628520196    6.501821552246   -0.760658827795
C     -3.622570987821    7.184371532675   -1.712625269063
C     -3.197605397606    7.240535166205   -3.044042073898
C     -2.009832274798    6.606204753051   -3.417290646945
C     -1.249281202845    5.919628735007   -2.465609055240
H     -3.204892477858    6.449501088870    0.275441084712
H     -4.551201786841    7.676420924449   -1.412392366115
H     -3.791091844416    7.778171332331   -3.787867123194
H     -1.671458896263    6.642637280490   -4.456039362483
H     -0.322723451109    5.422660379688   -2.760698321551
N      2.004512320022    1.159877900018    0.029985868779
C      1.227032286060    0.080116048192    0.309708031284
C      1.807710581060   -1.206090184418    0.468126785824
C      3.169509498404   -1.365540150793    0.338425423186
C      3.944517732484   -0.229697102002    0.050359828466
C      3.336039162157    1.005124912058   -0.095348339396
H      1.141409031406   -2.039623208037    0.691170623645
H      3.656978106871   -2.334259352418    0.451453941317
H      3.930944666337    1.893346753923   -0.317669971242
N      5.399262630747   -0.340550456979   -0.097420467472
O      6.020385853695    0.679262317918   -0.348649199575
O      5.888296802158   -1.450158576685    0.041951575451
