29

Pd     1.102796344538    3.104229966061   -0.045031823019
C     -1.720269293379    3.438500796187    0.062227521082
O     -0.807427147200    2.466072131042   -0.019340779772
O     -2.903386790807    3.232831430629    0.123161872785
C     -1.148508980247    4.890292829445    0.078213812803
H     -1.487041074231    5.362508847667    1.018195305002
N      0.282960026474    4.842972083916   -0.042075329543
C      1.367416264153    5.581889388429    0.068881658071
O      2.448490126024    4.891084198130    0.029702453896
O      0.032718666526    0.033799887706    0.011898000760
H     -0.419376146696    0.932237017703    0.005650184719
C      1.395194708901    7.071941372176    0.225056413624
H      2.012536191560    7.509254941482   -0.574662677536
H      0.387500148335    7.508976474954    0.190646703824
H      1.872947583441    7.328725678607    1.183589032702
H     -1.626640681827    5.436277731912   -0.754274741902
N      2.035355289638    1.218575758790   -0.027966521221
C      1.341312016415    0.056574784718   -0.003054523168
C      2.025519720151   -1.186092496214    0.007554507139
C      3.402597558187   -1.207024293708   -0.007008395629
C      4.112390474858    0.012124325382   -0.031972782234
C      3.386562633872    1.189579173290   -0.041371582960
H      1.426292127865   -2.096646984458    0.027077882257
H      3.940560441203   -2.157878172310    0.000439717089
H      3.886250228077    2.160727440630   -0.060331025147
C      5.616656918996    0.015693876543   -0.045563998657
F      6.116670612605   -0.591063039325    1.046905618334
F      6.096786323385   -0.651928857022   -1.111029652943
F      6.117233051452    1.259407901366   -0.084866879236
