74

C      1.882582453907    3.148278080744   -1.849574806810
H     -3.038936563646    0.538479438958    2.806501945852
C      0.265980463683    5.141085681618   -0.194324499638
H     -0.041061428544    5.366766167710    0.829383303797
H      1.158879955943    5.633151014866   -0.585865470578
C     -0.607210377801    4.499913852232   -1.049575023333
H     -0.396338909559    4.439933788618   -2.119935986470
C     -2.029774492340    4.142231029960   -0.723615773980
O     -2.695720898757    3.429743964899   -1.439024040997
O     -2.467196650443    4.733005639172    0.392570889728
Pd     0.792231590303    2.999512724019   -0.176457016081
C     -1.034480143441    1.938968628886    2.037983743112
O     -1.214637527466    0.865057427914    1.414727198624
O     -0.311908608356    2.908494294081    1.669472962750
C     -1.747151415878    2.077074149126    3.394833944716
H     -1.926686362897    3.142249555085    3.593992904655
N     -3.044655756135    1.428873963743    3.294786956593
C     -4.228861366270    2.074935200552    3.496625179346
O     -4.304070649879    3.229577566894    3.895168936519
O      0.212462193567   -0.093165221437   -0.395696862149
H     -0.412935800360    0.411238168978    0.270241992886
C      3.025754619838    3.955717591690   -1.913390753112
C      3.813052898955    4.037947675741   -3.075676281362
C      3.441326225442    3.287210620774   -4.213984533371
C      2.297668895467    2.480366210336   -4.139259336456
C      1.521231622563    2.402270978472   -2.977174533266
H      3.337322061051    4.542452967334   -1.042540115243
H      2.003516267942    1.892872495374   -5.014612417525
H      0.641088781558    1.753487807037   -2.960638723131
C      5.037859298428    4.919952237367   -3.101260582596
H      5.952575928433    4.341579503582   -3.317638594441
H      4.967066968470    5.693726097988   -3.884988541841
H      5.185580011538    5.431893590104   -2.138925244152
C      4.255745729028    3.350090924996   -5.483244085931
H      4.307220494737    4.376075667050   -5.886889646580
H      5.298323980800    3.027498698928   -5.318221379169
H      3.827237379405    2.705859577293   -6.264834636638
C     -3.835434505134    4.490801214851    0.794034219675
H     -4.108189239213    3.467566843577    0.497840841254
H     -3.831630165093    4.555737167698    1.889830490456
C     -4.776336246831    5.507701732356    0.171517859165
H     -4.802266048165    5.408522338865   -0.924325255090
H     -5.796941008872    5.348471825362    0.554616471420
H     -4.472661368278    6.534591281332    0.428514059592
C     -5.472813779024    1.257712541554    3.181212422808
H     -6.200611487071    1.399951322720    3.992703284818
H     -5.931294731845    1.649743524321    2.259111194791
H     -5.273923792268    0.184246398684    3.048797311113
C     -0.882667764915    1.481057806181    4.547725105656
H     -0.763943968933    0.403429518106    4.321986587966
C      0.513719787690    2.114826828376    4.599434007387
H      1.109885304642    1.682641474761    5.416989108123
H      1.073948228437    1.963642925213    3.666059199331
H      0.445002714926    3.202350680247    4.770198575513
C     -1.622093591647    1.605371282021    5.893785209042
H     -1.714742607915    2.675575466546    6.152439117073
H     -2.651528220450    1.238241045962    5.760861526119
C     -0.978580576833    0.842361938080    7.054158474395
H      0.020748410785    1.227935124528    7.311403985798
H     -1.598203170143    0.916850972195    7.962170139377
H     -0.868423593421   -0.229664086569    6.816650569756
N      1.960359387918    1.261692213365    0.254876644102
C      1.474581014067    0.039165721906   -0.060207400620
C      2.325790926130   -1.089376037631   -0.054256810850
C      3.659447977503   -0.972637515226    0.314142390335
C      4.123727342396    0.310299432920    0.683235320148
C      3.253875152111    1.381978412172    0.628407479700
H      1.885245360134   -2.048365357388   -0.331439279021
H      5.158410615484    0.469143870551    0.993015886953
H      3.591896327001    2.390690652495    0.874654262308
C      4.583949726435   -2.160352621707    0.334256817100
H      5.018228887209   -2.302746399480    1.337523200964
H      4.064735811859   -3.085894118465    0.048794789427
H      5.426273531546   -2.009720199534   -0.361248304104
