71

C      1.117763831297    2.656271275601    2.246383936894
H      0.360293463816    2.228238058152   -2.134458541219
C     -1.101204387914    3.941495392867    0.919391335306
H     -1.212206277315    3.845502189718    2.000546893707
H     -1.821062098683    3.410322946774    0.285041447279
C     -0.251311376664    4.893642633353    0.395655216197
H     -0.309303484958    5.149876437281   -0.664582926951
C      0.531933555596    5.890538038390    1.191545061149
O      1.426857273516    6.554492566376    0.716455346437
O      0.124970956256    5.979159411448    2.462450194678
Pd     0.818686685884    2.934508242340    0.297154717334
C     -1.769108824823    2.058059505902   -2.069110972173
O     -0.718132791530    1.280830413139   -1.986545855374
O     -2.675157442139    2.093007703833   -1.249578507117
C     -1.786895269632    3.002705635519   -3.300352321713
H     -2.759344960781    3.519577489900   -3.243102030183
N     -0.777164840871    4.057788134761   -3.339933626050
C      0.371290034215    4.081027535506   -2.803168202667
O      0.931730451678    3.093197089392   -2.021489441334
O      0.042591963133   -0.133863380772   -0.080035662518
H     -0.386004013606    0.494539112669   -0.810531382743
C      0.408338405800    1.687950068067    2.963064034879
C      0.676297147505    1.451327910489    4.321704474039
C      1.686968464501    2.200276580741    4.970543771772
C      2.393069836317    3.157104057546    4.230569410774
C      2.119106736549    3.395711999189    2.876463256644
H     -0.359612074222    1.090994288391    2.464011255437
H      3.182962657289    3.734348059221    4.721386936358
H      2.696584117293    4.151220951936    2.336284555674
C     -0.105925298126    0.400901846072    5.071499366647
H      0.554942106585   -0.383260757892    5.478928208070
H     -0.644987239374    0.833003918433    5.931936224035
H     -0.846115385856   -0.087523702370    4.421914506716
C      2.005355658900    1.968746799248    6.427538640157
H      1.126789669127    2.144968512692    7.071502116485
H      2.325290185774    0.929441710661    6.615445431521
H      2.811141622046    2.633339053748    6.772039890115
C      0.830250676492    6.900177238298    3.316278500856
H      1.891618327292    6.606723293439    3.350883821408
H      0.784765043038    7.903856624199    2.864167568193
C      0.185196332177    6.856223335473    4.684869001280
H      0.250162660309    5.845655997222    5.115912948291
H      0.698308378550    7.556566867772    5.362155236643
H     -0.875898532515    7.144267728906    4.630445828382
C      1.302519086448    5.251084098286   -2.972317564439
H      2.241137826625    4.914435867339   -3.442051917127
H      0.829566733552    6.016599904892   -3.598514459046
H      1.568863555626    5.687437790005   -1.994959268123
C     -1.767867435859    2.194302763980   -4.629370275594
H     -0.777313917324    1.707899060512   -4.685924908934
C     -2.836427355981    1.094073041826   -4.623825056873
H     -2.830728386934    0.548984514005   -5.581443070603
H     -2.668071875846    0.359120679255   -3.822371862518
H     -3.845036795752    1.519775550947   -4.487636051775
C     -1.931912852687    3.114191510903   -5.844758041607
H     -2.921256142877    3.603323221433   -5.834068902154
H     -1.169911894140    3.905533991750   -5.858284929424
H     -1.855387897809    2.537367127814   -6.780926454916
N      1.962146678175    1.161320514055    0.039940045273
C      1.348142913867   -0.045019519482   -0.012667113533
C      2.134272596393   -1.221913282015    0.039563567448
C      3.511050075124   -1.131070879363    0.099548458044
C      4.147819339269    0.129669361743    0.106066530059
C      3.312789985628    1.237584127059    0.082486382348
H      1.612168195418   -2.178998278112    0.011052539882
H      4.113945454081   -2.043712334333    0.130368667752
H      3.732571904914    2.246206595456    0.112773170528
C      5.647687087389    0.266469782033    0.147592358978
H      5.955289283952    1.321994567459    0.179753618352
H      6.071717742553   -0.234281754841    1.033699530936
H      6.116614790202   -0.191802782395   -0.739211584086
