74

C      1.384821245799    2.892777948980    2.163329405398
H     -1.399500414682    0.223048756634   -2.904530626008
C     -0.707112288318    4.646630119417    0.776017450159
H     -1.438055682474    4.635462305515   -0.034348698153
H     -1.054662910504    4.405169583899    1.783321989426
C      0.528467647062    5.233104249186    0.592375979084
H      1.177204369706    5.432336055753    1.448216277797
C      1.007085691936    5.901159767557   -0.666038604019
O      2.180779011655    6.104780406888   -0.876695550148
O      0.010589039553    6.260516027700   -1.479001630837
Pd     0.733173484786    3.045582207335    0.275617645084
C     -0.773092087194    2.398307055064   -2.295036453233
O     -1.207643883087    1.351922670098   -1.720243118712
O      0.022071162862    3.215912728031   -1.759398368647
C     -1.236055729243    2.732941457772   -3.730211002612
H     -0.673671548764    3.650210193183   -3.964414227926
N     -0.895691146131    1.787099727179   -4.777172608393
C     -0.939691079686    0.511438640517   -4.748773275638
O     -1.261465258293   -0.305720358388   -3.731253735867
O     -0.177154405102   -0.002645232758    0.125317446346
H     -0.614263860455    0.674470416376   -0.524447757102
C      0.609712979715    2.184925394123    3.090847990924
C      1.031420984993    2.005586260201    4.419722025714
C      2.269876584866    2.551385762610    4.831259465091
C      3.037250061366    3.253879985111    3.893411911671
C      2.609391105056    3.430984740679    2.571295422623
H     -0.343043306233    1.740777296364    2.785772330002
H      3.997653569124    3.678358227299    4.201814455819
H      3.242777420168    3.990598667652    1.876574596244
C      0.169633164319    1.234133435263    5.389174629778
H      0.699858243439    0.354789309656    5.793206283864
H     -0.117559485304    1.850917065831    6.258001952713
H     -0.753742909749    0.877546471191    4.910274289266
C      2.757913456798    2.380420394679    6.249031923122
H      2.053306890611    2.813899101497    6.979418826154
H      2.869567798399    1.315822517402    6.517361969921
H      3.733441012438    2.865916562425    6.397308418243
C      0.369326556545    6.846314369774   -2.749820969201
H      1.276246754278    6.348949361418   -3.121633152137
H     -0.471893327164    6.599729550018   -3.412482088310
C      0.567917967010    8.347920400976   -2.638270068832
H      1.428294313484    8.583648384247   -1.994875485754
H      0.762008253790    8.770947402139   -3.636875055612
H     -0.329617243984    8.836017937673   -2.227524043135
C     -0.604307846913   -0.276546255617   -5.989411442136
H     -0.339534635162    0.399922510005   -6.809844454592
H      0.231929873986   -0.964228944724   -5.783179254288
H     -1.465848519198   -0.900188275195   -6.279078473574
C     -2.755782560492    3.163856755858   -3.783713610332
C     -2.996305159939    3.834740655486   -5.149939124427
H     -4.053931072343    4.127269574070   -5.255488684603
H     -2.381835347802    4.743678004920   -5.260400687144
H     -2.735493074098    3.153743041102   -5.972020930310
C     -3.713422488287    1.969388745515   -3.629786618672
H     -3.584200628432    1.239639602717   -4.442454972300
H     -3.563664261832    1.449019863233   -2.673092423536
H     -4.757489740631    2.321941471516   -3.665533328497
C     -3.041102359538    4.183530088412   -2.664867613305
H     -3.007229504583    3.712029603565   -1.669293890471
H     -2.318912693246    5.014811474619   -2.671810977934
H     -4.049935897745    4.609581979964   -2.787800720730
N      1.775340949838    1.202917378816   -0.075930559395
C      1.129908727957    0.021342860417    0.049301756552
C      1.861771516163   -1.188723478884    0.122756766782
C      3.236424048995   -1.159859547801    0.013511770305
C      3.888037637812    0.075907834988   -0.172762531136
C      3.117533062203    1.226625815878   -0.201546186114
H      1.303197839625   -2.117119041586    0.243379741001
H      3.814704877259   -2.085728283236    0.059015686864
H      3.582475874983    2.207167718629   -0.311570198337
C      5.383429208620    0.130399716500   -0.329585957162
F      6.002721098904   -0.497361886516    0.687287142558
F      5.781991271082   -0.480874574284   -1.460253827867
F      5.840389317342    1.391464706836   -0.369378297560
