68

C      2.554633298856    3.849999335076   -1.218373994080
H     -0.399862323926    0.934405720784    0.156039251670
C     -0.026302852795    5.088603724616   -0.199185098922
H     -0.794413762375    5.015881102085    0.572381894315
H      0.784374121470    5.802590594719   -0.037387444793
C     -0.245038294729    4.559353920030   -1.458108121386
H      0.409183487186    4.824482534587   -2.291825898964
C     -1.506751459895    3.881864252383   -1.920833551261
O     -1.547729083095    3.238759922639   -2.944988102474
O     -2.548642220441    4.111570030030   -1.117454662092
Pd     0.954608645871    3.126840394551   -0.270137525575
C     -0.734310330731    2.531631473489    2.073333986732
O     -0.765892005224    2.308759607561    0.782687166472
O      0.182472829940    3.079755792978    2.662664475915
C     -1.975838115193    2.021591415646    2.831546766822
H     -2.027546891499    2.613137590633    3.755772598752
N     -3.157638502035    2.271922228807    2.019424457008
C     -4.394411892153    2.702816053876    2.401715806745
O     -5.253250708402    2.984263475503    1.575014002080
O      0.007677592006    0.061800407989   -0.150709748467
H     -2.995148558393    2.246872919706    1.015992381505
C      3.411234147580    4.725533595966   -0.536712370268
C      4.588551832477    5.217260792075   -1.128741723682
C      4.911480454008    4.825902323764   -2.448691527954
C      4.042351601011    3.956498739270   -3.122061255037
C      2.873088144555    3.469254541553   -2.525916938601
H      3.179940718188    5.033905134738    0.488353802025
H      4.284542726240    3.649560745296   -4.144295892692
H      2.223651830630    2.792653835177   -3.087739573318
C      5.488414561520    6.154477774844   -0.360573383693
H      6.505848357580    5.742097226650   -0.248755548503
H      5.600773725531    7.123692841073   -0.876130222836
H      5.095202893183    6.354266869574    0.646804117470
C      6.162484046530    5.334907255922   -3.122315551749
H      6.168396902740    6.436065083520   -3.195774640409
H      7.071842961741    5.055149734813   -2.563023810446
H      6.259973281952    4.932194816192   -4.141005457004
C     -3.837464243263    3.569842301156   -1.510093588778
H     -3.670868403931    2.595166743569   -1.991292480530
H     -4.386151548343    3.429430918882   -0.567778832453
C     -4.566940384083    4.520973276124   -2.442641516187
H     -4.028493142685    4.640322490725   -3.395026446488
H     -5.569123508389    4.120434830649   -2.663750562820
H     -4.692179423016    5.510157858058   -1.975418319988
C     -4.657857296744    2.830502056515    3.894195495309
H     -5.724096508549    3.046691805249    4.031844255485
H     -4.392701119313    1.914960862749    4.444794374022
H     -4.070830050820    3.659221394692    4.323432785483
C     -1.794930970927    0.536858078390    3.193624285052
H     -2.667037166951    0.166330148849    3.754242416086
H     -1.687284808828   -0.074858123007    2.284506819393
H     -0.896787670362    0.399828809601    3.815910488752
N      1.991106031760    1.232586978218    0.024418760645
C      1.320432945959    0.080696426528   -0.046220476815
C      1.994111523489   -1.194471043776   -0.022470533605
C      3.409422250402   -1.211543371988    0.136484551805
C      4.077308523092    0.041693608713    0.266055148216
C      3.354434900088    1.199512250404    0.199005520972
C      1.277227275128   -2.410841914231   -0.142791508644
C      1.953298544680   -3.615994865995   -0.114487162656
C      3.359700989513   -3.639766556097    0.040642499595
C      4.075481589849   -2.463981734621    0.165500704932
H      0.193747862582   -2.373589559303   -0.260065616336
H      1.402575697574   -4.554626144092   -0.210265692196
H      3.882911582767   -4.599249195812    0.063165732812
H      5.161319984481   -2.484155721618    0.287344178211
H      5.158664576049    0.082216809075    0.407430947576
H      3.839917271012    2.171395784331    0.271580967650
