72

C      1.425290261940    2.999847215492    2.284449200645
H      1.105505365533    3.776722851879   -3.934403273481
C     -1.014639682357    3.907505697742    0.834977803829
H     -1.682657329585    3.598381763619    0.027957358350
H     -1.221605986634    3.519850712993    1.834563870712
C     -0.142335629466    4.962786207252    0.657077639918
H      0.374392726573    5.405628907882    1.512218751459
C     -0.066683939944    5.812729823384   -0.578895907679
O      0.858062154916    6.558167556931   -0.802653554171
O     -1.149799804915    5.691382419085   -1.352947824720
Pd     0.965849629113    3.066699751465    0.337997563587
C     -0.188395725937    2.317913349230   -2.314386221088
O     -0.686914572390    1.336838253418   -1.712752562059
O      0.601466043941    3.164277969322   -1.798447921300
C     -0.582028354897    2.518704887192   -3.784227012063
H     -1.627307236796    2.876041030260   -3.775007048124
N      0.230895552711    3.551583939385   -4.394227077583
C     -0.209607821041    4.291773161801   -5.451043262529
O     -1.311626253039    4.125147477254   -5.954340178525
O      0.664048002861   -0.050269431992   -0.146360524676
H      0.089397543613    0.630143148421   -0.701982907059
C      0.914769158317    1.982353565189    3.101100581716
C      1.262236450173    1.882876898393    4.458839525990
C      2.152612930357    2.831243914615    5.016035343547
C      2.659835908711    3.840789131620    4.188771281153
C      2.305018255443    3.936639400336    2.836436512407
H      0.237165895114    1.232040496961    2.681793904816
H      3.350397369792    4.577914899868    4.610071866185
H      2.727060505514    4.745206966328    2.231769932232
C      0.692682496713    0.771266916530    5.305852636241
H      1.488475324779    0.136014552182    5.731024876222
H      0.118411320770    1.165639097028    6.161652385352
H      0.023116027363    0.123699095668    4.721603517847
C      2.550458561239    2.757655625677    6.469875551255
H      1.675245541508    2.833651635310    7.137708989379
H      3.044121708978    1.800487366784    6.710548241675
H      3.245011141316    3.567695060012    6.736005009261
C     -1.185140363586    6.495488377421   -2.550588230437
H     -0.981942366999    7.541682904942   -2.272302840677
H     -0.367394231430    6.166232105039   -3.209126980656
C     -2.542096198595    6.328539315653   -3.199503427010
H     -3.347024965710    6.633149088468   -2.512807877699
H     -2.600247860395    6.956398579168   -4.101768856878
H     -2.714174902876    5.287960088283   -3.511129462168
C      0.766712248181    5.333039082920   -5.977238756468
H      1.043545142686    5.064695416133   -7.008608675847
H      0.255696998701    6.306009985562   -6.025273874929
H      1.682362781754    5.429333706586   -5.375874245507
C     -0.594869645121    1.187523923775   -4.582653238392
H     -1.285229487503    0.508565262930   -4.062513843410
H     -1.031013322956    1.421316249729   -5.565260667098
C      0.754808096531    0.527107286165   -4.755664568714
C      1.584624320947    0.861535113916   -5.839653730521
C      1.217376933250   -0.434377206316   -3.839791551424
C      2.837573184260    0.263148360356   -6.001308570237
H      1.234915140556    1.590243130586   -6.575977110403
C      2.467984663854   -1.038880903192   -4.001622590734
H      0.588195483942   -0.715311048061   -2.992056882672
C      3.284683270289   -0.689980506331   -5.081389864503
H      3.463278018418    0.535465439075   -6.855715045020
H      2.796902655736   -1.791923331883   -3.280697958111
H      4.260660636205   -1.165200239561   -5.211127963053
N      2.381522475920    1.487432842617    0.067065275360
C      1.937552754715    0.219363037128   -0.064238555490
C      2.891917900601   -0.840171036849   -0.078296172914
C      4.245400476861   -0.568644793489    0.016400741220
C      4.658307214576    0.768489190628    0.120362791060
C      3.698633130506    1.767228327792    0.147292364613
H      4.974194885675   -1.379628186235   -0.003546025935
H      3.983456244482    2.814770295693    0.252107641519
Cl     2.327571307683   -2.471226200997   -0.245643557028
Cl     6.347255627093    1.171105923820    0.229164957819
