38

Pd     1.140639933133    3.045099542754   -0.139135856491
C     -1.678637703664    3.380590167514   -0.110994688349
O     -0.767992373167    2.414539560907   -0.228548358050
O     -2.859474459921    3.149064448583   -0.016820797692
C     -1.131936210648    4.850027097378   -0.112239767508
H     -1.457917014305    5.289574286562    0.849670528831
N      0.312488974190    4.783958633704   -0.179854874621
C      1.373697727194    5.515557524053    0.106697502167
O      2.464247859936    4.841974804974    0.112417876820
O      0.090922358195   -0.030235132661   -0.063788958117
H     -0.358742325562    0.862178130312   -0.113806433020
C      1.368707269549    6.990490231369    0.383952122479
H      1.644103801238    7.537868322179   -0.532303678789
H      0.382082603642    7.343382470869    0.716574117230
H      2.125581419444    7.216202229198    1.148457694780
C     -1.744731207364    5.703458312925   -1.262220994774
H     -1.167460664740    6.646213945135   -1.249451188609
C     -1.544842867646    5.053219450999   -2.635944771690
H     -1.865654657782    5.736849386509   -3.437859752628
H     -0.488057489988    4.798290674037   -2.811094973458
H     -2.140880795821    4.130649768282   -2.727998425826
C     -3.213091947194    6.056901779637   -0.998049322650
H     -3.837067842567    5.153305727327   -0.961279608055
H     -3.332752103460    6.584654404597   -0.037251015690
H     -3.593983898863    6.717929023834   -1.793052337297
N      2.083756796767    1.170691572339   -0.043203744093
C      1.408234658858    0.003843121224   -0.021347931124
C      2.085427096666   -1.248150714285    0.049291080345
C      3.471501504429   -1.224544741400    0.096097144096
C      4.170639472821   -0.004796701098    0.074959187747
C      3.438191785628    1.163392136729    0.005585232134
H      4.020157923372   -2.168966781855    0.150536035962
H      5.260065993992    0.030676219129    0.112240763275
H      3.917871108976    2.145526033315   -0.012527234708
C      1.274557431855   -2.512847000109    0.069567227948
H      0.584546354027   -2.525295948424    0.928835065576
H      0.644323099800   -2.591843422540   -0.831079978542
H      1.923593690026   -3.398293922598    0.125113568864
