65

C      1.153642257214    2.688303013853    2.284367324405
H      0.338303969701    2.286326565072   -2.077709795215
C     -1.089145888463    3.933460808091    0.981661157278
H     -1.193143412369    3.828122444683    2.062678238418
H     -1.804248341794    3.393530945010    0.349483546043
C     -0.263262503088    4.908863471049    0.460851380144
H     -0.331446516427    5.170265494124   -0.597747227760
C      0.492147433631    5.924139663682    1.260206912483
O      1.388409268393    6.594333564331    0.795988055878
O      0.057074377622    6.023261385958    2.520904970550
Pd     0.847904679745    2.976342001042    0.334907287129
C     -1.798666878519    2.106850538868   -2.001757356916
O     -0.737464649066    1.349573199429   -1.882193513666
O     -2.726729724308    2.137070530413   -1.207568607861
C     -1.798632527914    3.035986416293   -3.246468880850
H     -2.781373844948    3.531731691446   -3.224808054468
N     -0.809219672089    4.112858636671   -3.282376600597
C      0.345101043301    4.139611362806   -2.758505730453
O      0.923546133672    3.148211596011   -1.995241297155
O      0.007290895783   -0.017696731094    0.072207123312
H     -0.416043758546    0.586783656288   -0.678188819777
C      0.505457688881    1.656729360753    2.971204529979
C      0.762548258838    1.417481145110    4.331472966900
C      1.697797312824    2.230097303012    5.015593797380
C      2.338599333599    3.254726017268    4.308447659315
C      2.073739686703    3.497224204018    2.953209851934
H     -0.205317554212    1.013664869022    2.446288315010
H      3.068151479176    3.885132841047    4.826465013929
H      2.594115694001    4.312838051944    2.444576529687
C      0.047511549475    0.296907937798    5.046032758755
H      0.758015303339   -0.442100889503    5.454367897762
H     -0.540396085092    0.670739237809    5.901752644467
H     -0.639729291550   -0.233958291868    4.372083415718
C      2.003545517912    1.996531961368    6.474815958178
H      1.100675338387    2.090980131031    7.102131084128
H      2.400335283578    0.982025111312    6.651232529618
H      2.747318830109    2.715435619960    6.848494427519
C      0.726933995878    6.968813058506    3.376648943647
H      1.793102491418    6.697514120273    3.436610643935
H      0.671044082404    7.965465014304    2.910358990544
C      0.054896701614    6.929440082732    4.732369189000
H      0.130789776948    5.925892363051    5.177906545037
H      0.540046674791    7.648433550076    5.410693932857
H     -1.010358117385    7.195348445585    4.652595638730
C      1.262379333362    5.320684190836   -2.927039873324
H      2.200295744487    4.998591675462   -3.408474318515
H      0.775078702272    6.083901441791   -3.544893926643
H      1.531463646541    5.754633059718   -1.949321608944
C     -1.700730247075    2.213781600839   -4.540289784106
H     -1.740397123707    2.882105161866   -5.413611641476
H     -0.757549795336    1.647460678228   -4.569545885098
H     -2.533889689611    1.496632262465   -4.604391119323
N      1.983760793601    1.186261665296    0.019481370754
C      1.319919069252    0.001932561726    0.058850782473
C      2.038838381143   -1.212784901457    0.110551826979
C      3.420560175219   -1.183805015307    0.055430457052
C      4.083975352080    0.046273182132   -0.061244904046
C      3.339613889482    1.222292084359   -0.073666972273
H      1.467734492119   -2.140005113697    0.162366351018
H      3.991621986145   -2.115616884307    0.080554115586
H      5.170917045147    0.095783517615   -0.136496488858
C      3.994269712667    2.570152285985   -0.186546392585
H      3.523440158046    3.159229128194   -0.988649630095
H      3.884300955985    3.135495638416    0.752534777024
H      5.067032660626    2.471372469563   -0.401266181640
