65

C      2.543174179093    3.975449327658   -0.927042535926
H     -0.975772484940   -0.884966585294    1.092039635868
C      0.141164732739    5.152248349827    0.576992544235
H      0.958940803229    5.865994377439    0.705728194181
H     -0.419372118462    4.799470080592    1.451116168138
C     -0.344410568914    4.925998453871   -0.695190085123
H     -1.283371936101    4.386162960838   -0.847347918128
C      0.157938139894    5.709414576181   -1.873235670961
O      0.861766101920    6.686589248361   -1.804721247004
O     -0.314618725298    5.197117876482   -3.021689741890
Pd     0.906629195065    3.184996804073   -0.113796511791
C     -1.609794211748    2.315486042213    1.689042082763
O     -0.881474176848    2.184347623811    0.599412040073
O     -1.658322067174    3.327572901048    2.361301237468
C     -2.430463491435    1.053312122259    2.058809047435
H     -2.508491401787    0.427337103088    1.146478047744
N     -1.771692416653    0.374513783766    3.163561579505
C     -1.124484676110   -0.713580946367    3.036847524002
O     -0.854391309663   -1.411732910528    1.903036762524
O     -0.111956993178    0.094516127934   -0.381405022947
H     -0.538157906124    0.989744837247   -0.018068349350
C      3.438777990958    4.755029726671   -0.184318407161
C      4.620830603800    5.262893176150   -0.750365615765
C      4.913428732156    4.983598120171   -2.105349202470
C      4.010480010790    4.201689977233   -2.837888457333
C      2.836136562054    3.697258460176   -2.266079604995
H      3.230064858238    4.986258792031    0.864635176086
H      4.231642182122    3.975987280466   -3.885934637865
H      2.162465496340    3.087263503224   -2.874003830674
C      5.554797591344    6.108767357091    0.080109869423
H      6.568516996669    5.675210028295    0.125786685589
H      5.666935911940    7.121197711356   -0.344227019443
H      5.188832427402    6.218118267028    1.111319739276
C      6.166226670128    5.520377313353   -2.753084213709
H      6.194774788948    6.623372847407   -2.732595857574
H      7.077215761458    5.175177070456   -2.234525092187
H      6.240143290869    5.204408552489   -3.803947512308
C      0.075544936162    5.866117438652   -4.234865219508
H     -0.211854979093    6.927481406968   -4.161785034614
H      1.174198209449    5.833496357528   -4.315327322596
C     -0.604082511103    5.170248388171   -5.395276117643
H     -1.699448629578    5.209075400534   -5.292294647665
H     -0.328539003909    5.662927652451   -6.340691223035
H     -0.301432888066    4.113464038656   -5.456161314578
C     -0.562130625339   -1.419233327062    4.240048946786
H      0.532797600508   -1.509381848061    4.151466521415
H     -0.820946920288   -0.867077124345    5.150554066139
H     -0.965962225461   -2.443466704734    4.294838863200
C     -3.840157159714    1.454802956592    2.499988835553
H     -4.411020513481    0.562174310911    2.797380963145
H     -3.767849146712    2.135404656646    3.359353621289
H     -4.380433385486    1.965405986980    1.686673777670
N      1.888249735959    1.232067214120   -0.041956203365
C      1.197065115993    0.080875020549   -0.207307983655
C      1.864293114343   -1.165315503823   -0.201756289821
C      3.227935835483   -1.209419769643    0.005484353972
C      3.953706968051   -0.017308634012    0.212178740676
C      3.227578344638    1.164302945976    0.170497286520
H      1.265387563631   -2.065367036081   -0.341871258994
H      3.744361378421   -2.173837654223    0.018484513811
H      3.733028628760    2.121275341318    0.299921680019
C      5.440399783573   -0.020908097848    0.458522289712
H      5.831965813150    1.001072316631    0.565992255666
H      5.693433859525   -0.576728938957    1.376917819864
H      5.982930403998   -0.502912958109   -0.371659511988
