65

C      1.891841216313    3.427994033245   -1.843747239837
H     -3.380763681670    2.114354127625    3.843743596089
C     -0.250791725869    4.888059944419    0.065207695863
H     -0.749726808735    4.772888160161    1.031536132325
H      0.487169616533    5.690116112507   -0.024410799284
C     -0.714393703846    4.275933866171   -1.079959743579
H     -0.345086138333    4.589729835041   -2.057487223800
C     -1.914386312960    3.389545348976   -1.214472506869
O     -2.306223309127    3.006700851107   -2.292150797474
O     -2.493482689652    3.069401306867   -0.045400656013
Pd     0.884273109400    2.970504096377   -0.191545848853
C     -0.721036173806    1.957064594986    2.441096068321
O     -1.232745283317    0.869155691161    1.961854531710
O      0.144381646764    2.640767764804    1.888475224842
C     -1.267816218734    2.389792528783    3.808695452122
H     -0.691140953007    3.281526893959    4.088379793501
N     -2.658197959461    2.808468313098    3.694168459326
C     -3.008378120539    4.087440631245    3.348090467510
O     -2.180241428701    4.942534248691    3.081052569130
O      0.016681930504    0.111868102365   -0.026242350589
H     -0.728777126791    0.566223753009    1.074345567611
C      2.877591282030    4.418787458963   -1.762482183636
C      3.672011637110    4.756085899686   -2.873475933261
C      3.462718601740    4.084341711356   -4.099211002946
C      2.466014538801    3.100561686766   -4.163964986084
C      1.681498962843    2.764593804245   -3.054874883156
H      3.053782359819    4.949132874930   -0.820946770709
H      2.296869668951    2.576899869263   -5.109858661162
H      0.913154616413    1.993471648747   -3.148178315373
C      4.732010962773    5.823304906745   -2.749783715787
H      5.736133565696    5.426447835421   -2.977499716763
H      4.557652867989    6.654088830524   -3.454884227991
H      4.761823197687    6.245656059754   -1.734763613687
C      4.293216853171    4.416606086989   -5.314794425604
H      4.190487779815    5.476722894282   -5.603974395910
H      5.368369615607    4.244655744476   -5.134722140528
H      3.997949223342    3.804698472273   -6.179507910795
C     -3.594497685310    2.135936849249   -0.098317556058
H     -3.350279645593    1.350056057466   -0.827744124277
H     -3.616210925511    1.691382377823    0.905380988179
C     -4.907990927369    2.814512660813   -0.448160002975
H     -4.877228839536    3.227705897046   -1.466353811399
H     -5.727231555334    2.078822194141   -0.402423723572
H     -5.138050393576    3.627137731070    0.258306750919
C     -4.498383401136    4.384422429436    3.351399770625
H     -4.706642411254    5.118128466002    4.145506811474
H     -4.761667034732    4.859008919120    2.395270891901
H     -5.132459218669    3.499518609098    3.507970794322
C     -1.116443997294    1.284132746189    4.852702358148
H     -1.476505514055    1.633949696552    5.832068474418
H     -1.683689452673    0.387410713360    4.557804988273
H     -0.060543753893    0.992390617241    4.957042660053
N      2.029936411419    1.209262898203   -0.089324411651
C      1.282984463399    0.051060105001   -0.029233133673
C      1.995012572410   -1.195633753753    0.014109581842
C      3.368559825475   -1.224142470333    0.011649893347
C      4.093061950800   -0.009468483405   -0.041369988904
C      3.375034809405    1.172278759182   -0.102571514980
H      1.395929104514   -2.106583582460    0.048271466664
H      3.902285969958   -2.177616270044    0.048065628538
H      3.888857034912    2.131833390587   -0.176983943610
C      5.591191423801   -0.018548888840   -0.043196486157
F      6.088971186709   -0.593481487107    1.072411942220
F      6.087331158351   -0.723433090881   -1.080917680869
F      6.109201328379    1.220352806984   -0.117071884232
