41

Pd     1.152052543462    3.139430792379   -0.219475450618
C     -1.630044707981    3.476441223647    0.065445878567
O     -0.763150187348    2.517419118968   -0.264399162619
O     -2.756861402829    3.235105555930    0.423236070700
C     -1.110381358593    4.949919205478   -0.086047340264
H     -1.423310287684    5.486195751995    0.828269995346
N      0.336318922225    4.896700840268   -0.189611993851
C      1.388764590702    5.553029835457    0.277419501859
O      2.475411147258    4.876242112594    0.213067341580
O      0.076750854920    0.073013807275   -0.021609066733
H     -0.365264130803    0.970208583498   -0.076553603452
C      1.385963599840    6.944698537982    0.838689667544
H      1.686841526222    7.660425116513    0.056927208987
H      0.395007949436    7.238430318281    1.211110018172
H      2.126129951705    7.001411059835    1.649073216535
C     -1.794778564445    5.662654959133   -1.315244442539
C     -1.603199489068    4.828570015401   -2.595186592413
H     -2.020744292988    5.363850073957   -3.463052723435
H     -0.536501395594    4.641195240559   -2.794258146530
H     -2.114228869424    3.855749398390   -2.528167577375
C     -3.295666962298    5.855317974977   -1.028665620679
H     -3.806963124196    4.899246088408   -0.859323777296
H     -3.452154523595    6.479901096831   -0.133239917935
H     -3.773855648544    6.366890705528   -1.879675975290
C     -1.155131284372    7.048300035528   -1.516265793720
H     -1.259895066466    7.677935380312   -0.617495463668
H     -0.086818652571    6.973747468160   -1.768293003962
H     -1.655448514035    7.574232706548   -2.345005869210
N      2.076113648705    1.259506376249   -0.140839913539
C      1.391252653837    0.097977405651   -0.052320709157
C      2.076245974398   -1.138055803453    0.012453324271
C      3.462037078619   -1.182654537791   -0.012088119106
C      4.154723921725    0.047891888614   -0.101927148201
C      3.430906717367    1.220689242732   -0.161480939232
H      1.469983668314   -2.042472988085    0.082281030382
H      5.245483249984    0.082746072925   -0.123245787608
H      3.927817826429    2.192414826352   -0.227098519536
C      4.214188296557   -2.484507215054    0.054844599416
H      4.885274066823   -2.502982642391    0.929425498722
H      3.534867346502   -3.345519643872    0.123844764365
H      4.847945132903   -2.615261744794   -0.837843363762
