73

C      1.365041397962    2.934713945944   -2.083693507774
H      0.044686181663    1.872104793304    2.211408956787
C      0.492569535399    5.276785102507   -0.333687464004
H      0.561076477002    5.665743041651    0.688543326227
H      1.208134848788    5.633601897720   -1.078790051619
C     -0.617959521827    4.562291386798   -0.741759767295
H     -0.777302996439    4.333266388112   -1.798825462608
C     -1.841349482262    4.312309823673    0.104099331444
O     -2.555461990651    3.344620010643   -0.041658673565
O     -2.045861007771    5.295895218815    0.971976658211
Pd     0.964850528479    3.126023055797   -0.135122949739
C      0.267280264911    3.992737316915    2.908925947418
O      0.473958164980    5.192762898789    2.859277733097
O      0.696509815329    3.121997698846    2.020348215099
C     -0.541122651089    3.365162323697    4.074301324102
H     -0.905468854404    4.228507283392    4.647368555638
N     -1.736421288440    2.620360699077    3.666304374427
C     -1.749659469108    1.617585804750    2.880955049253
O     -0.665558789441    1.108856221842    2.227568392680
O      0.007560342522   -0.054178406697    0.007184674793
H     -0.385063381391    0.491654057674    0.760014386488
C      2.508129013043    3.546803069363   -2.612660282355
C      2.877706973175    3.379047848321   -3.959322146607
C      2.071042484920    2.578275181113   -4.800362181986
C      0.928335992167    1.974764002562   -4.257998656644
C      0.566944968584    2.143276631107   -2.915627532145
H      3.147932477954    4.168810407728   -1.977983358900
H      0.298726825443    1.353234871888   -4.902146278615
H     -0.330923770382    1.650829645195   -2.532938252214
C      4.119682332150    4.049996228878   -4.492719255313
H      4.840272990727    3.314524761665   -4.889224539692
H      3.885193187849    4.736181671807   -5.324397391399
H      4.630889281073    4.631434513752   -3.711865152561
C      2.429882752771    2.376864720524   -6.252240114715
H      2.465710743045    3.333686691657   -6.800784893330
H      3.425132831169    1.914244203178   -6.366981921918
H      1.699696406945    1.728962810255   -6.758498826464
C     -3.179269451584    5.204931661635    1.869340707415
H     -4.088950691000    5.058790480319    1.265047964377
H     -3.043385506354    4.318831615613    2.509065247847
C     -3.212743738342    6.483503305798    2.678902864361
H     -3.362938191066    7.363268725938    2.033792980654
H     -4.037721587965    6.441877426271    3.406931081367
H     -2.266279456316    6.610027316452    3.225881420912
C     -3.020602286193    0.886133660823    2.556932900612
H     -3.811537102973    1.171708119564    3.260372646467
H     -3.334815566185    1.148451023494    1.532772931480
H     -2.856968392656   -0.202314377553    2.593951410397
C      0.355973441376    2.518175456339    5.006550316351
H     -0.282264022557    2.182864773066    5.843447117858
H      0.668222793643    1.605130205097    4.473225747219
C      1.607842099346    3.219722204292    5.567081652987
H      2.263424350552    3.473262776006    4.713101861006
C      2.384733658275    2.251454897253    6.469512338725
H      2.642229974533    1.320216823092    5.938409790984
H      3.323314417377    2.704588165655    6.827668093559
H      1.789472486463    1.973740790696    7.356673281763
C      1.285253141171    4.526035256031    6.305312427649
H      2.195524247762    4.953788992934    6.756284534021
H      0.868098810869    5.283632295339    5.625685256966
H      0.560909390332    4.353280871271    7.120763568897
N      1.960676198799    1.195901269196    0.090183669584
C      1.318540798536    0.011469586249   -0.059956862859
C      2.040961403482   -1.177125358064   -0.325158362893
C      3.419935555428   -1.147082450072   -0.369648114041
C      4.056320339736    0.081892323251   -0.145509114544
C      3.303927179671    1.225514673242    0.071583383703
H      1.473878592733   -2.098236507717   -0.460912250983
H      4.019216228580   -2.039125949273   -0.554231169214
H      3.801382169495    2.185425039835    0.212972925839
N      5.521005616117    0.175210342322   -0.163224309679
O      6.018606140550    1.271372947534    0.037047833370
O      6.140446022407   -0.853489079677   -0.379135905032
