72

C      1.118626303098    2.657715290806    2.263181331170
H      0.506763340556    2.195528266209   -2.133373028257
C     -1.028527603066    3.971018362408    0.851157511227
H     -1.175340541949    3.890515760312    1.929290388688
H     -1.738447508219    3.444906388518    0.202041039754
C     -0.145403766207    4.900995149616    0.343266655076
H     -0.164315016656    5.145495225301   -0.721203462958
C      0.631368160266    5.893383200535    1.151717321624
O      1.553089147947    6.533872284336    0.696447360981
O      0.186227034356    6.005564861992    2.407558561984
Pd     0.892345514180    2.922528053596    0.302224685488
C     -1.630950553813    2.033213535369   -2.111417946124
O     -0.585469152671    1.251999148755   -2.013396402733
O     -2.561305203546    2.058952656957   -1.319615065498
C     -1.616055315499    2.991185325216   -3.333097699138
H     -2.576930472279    3.527291306702   -3.284564444204
N     -0.584025814873    4.018163842383   -3.386772944010
C      0.553548199997    4.035606350773   -2.828033851889
O      1.080742616729    3.055317035861   -2.012773197060
O      0.112626756340   -0.153567672813   -0.081562888224
H     -0.289319791466    0.474312336169   -0.831138305700
C      0.368825122045    1.706663374685    2.961425591497
C      0.585564077518    1.476849989635    4.330369622661
C      1.585132515153    2.214948787378    5.008284430338
C      2.331776250630    3.154573653918    4.286344383167
C      2.109028114715    3.386680977362    2.921742878932
H     -0.391165799123    1.118154756880    2.440640312887
H      3.113504446359    3.722955182945    4.799943716094
H      2.717282979177    4.128371171924    2.396434697803
C     -0.239154958472    0.445343779036    5.060502677401
H      0.394581494477   -0.344858348955    5.498144404175
H     -0.801731230511    0.893635547314    5.897266150761
H     -0.963241752575   -0.037740034612    4.389143462597
C      1.849303644245    1.989665735651    6.476993984917
H      0.951950015162    2.184619413521    7.088806101663
H      2.145812043040    0.946869271101    6.682918015542
H      2.653348795430    2.643944060963    6.844430913530
C      0.880967471165    6.925032183396    3.272197529373
H      1.935977090209    6.615260548648    3.341137589016
H      0.864878325151    7.924013315348    2.807897322405
C      0.195168699964    6.906651629944    4.621350689670
H      0.230915798005    5.900050566884    5.064903723704
H      0.699508723849    7.606204103427    5.305973661228
H     -0.858971931955    7.211112854012    4.532443349420
C      1.506327315491    5.186356008553   -3.003826894369
H      2.453190524107    4.823853914737   -3.436086949756
H      1.061343775405    5.939432193233   -3.664506824989
H      1.750828099746    5.645458615812   -2.031085682420
C     -1.610092970103    2.158006745096   -4.643964565536
H     -0.652298374187    1.618095528194   -4.702817930477
H     -2.399382479333    1.394625631501   -4.547179147820
C     -1.842983658318    2.969731352481   -5.897793406545
C     -3.147188926366    3.290358288158   -6.308035174230
C     -0.770531660403    3.435181469921   -6.673952627241
C     -3.374460369669    4.055532397960   -7.455056932336
H     -3.998236164605    2.931404746501   -5.720976397290
C     -0.992013311344    4.198975758138   -7.823024809036
H      0.252148721595    3.194513667917   -6.371714691554
C     -2.295809492232    4.513475036562   -8.217618578179
H     -4.398595636198    4.290750244865   -7.757261034385
H     -0.141598344782    4.549848868954   -8.414053800301
H     -2.470715012208    5.109340851877   -9.117291721133
N      2.030017747550    1.136137630453    0.100826740485
C      1.412606531996   -0.072415022295    0.039005191704
C      2.183641266536   -1.257138791049    0.137972037226
C      3.559630749540   -1.179191922435    0.250855932443
C      4.182709457066    0.080956018455    0.264862965271
C      3.377362564329    1.203619459004    0.195865732158
H      1.650739294776   -2.207842756031    0.099948553807
H      4.156940998288   -2.092351382582    0.316843797094
H      5.265411605437    0.187823217888    0.340292259718
H      3.807407490033    2.207074804221    0.230730073318
