74

C      1.634564377958    3.908548460430    2.365887193366
H      0.074868776069    4.735057210324   -3.530182828364
C      0.965571172888    5.223719839563    1.960192619598
H      0.298935602376    5.571547803528    2.765696142021
H      1.736323728827    5.989967637483    1.795080475981
C      0.199799946473    4.936266062590    0.669816460525
H      0.472993494497    5.552165548058   -0.195074799802
C     -1.280235299257    4.797019201779    0.816994242091
O     -1.838385810053    4.453917929716    1.843230255774
O     -1.937346630135    5.084253395706   -0.320396221335
Pd     0.996503069236    3.090279117154    0.275447574912
C     -0.547593139603    2.612361751439   -2.125627348922
O      0.458043610459    3.290182453368   -1.722965959509
O     -1.079917248811    1.672156788150   -1.504988444817
C     -1.121734571510    3.010371153214   -3.495964576335
H     -2.212756443052    2.905930726435   -3.417657344339
N     -0.862990529593    4.417034513651   -3.748573277857
C     -1.864853234895    5.349731967187   -3.739259178326
O     -3.051326592423    5.054865354925   -3.739404244395
O      0.082610719869   -0.071155067357   -0.120538430994
H     -0.362323307717    0.747078824195   -0.575969132484
C      0.824774032254    2.790494631765    2.696566135381
C      1.377229321813    1.598602805752    3.227758167908
C      2.767546532635    1.509272696228    3.404493112394
C      3.575168297514    2.614507082410    3.050465336923
C      3.034990347667    3.786123485296    2.541726338735
H     -0.262177112297    2.913460633697    2.684109119590
H      4.657521844254    2.536566884497    3.184776580039
H      3.683907127851    4.632668513353    2.301756854431
C      0.465151895808    0.460767361489    3.608849845627
H      0.679010635365   -0.444755476560    3.016414991252
H      0.589582391816    0.181499516245    4.668498957717
H     -0.589408490560    0.721740613678    3.445411390051
C      3.399606210280    0.263021424954    3.970577443860
H      3.091229775127    0.096140031684    5.017118931765
H      3.094993104587   -0.634121296796    3.407494277339
H      4.496369311891    0.319650244952    3.942350406186
C     -3.376006800255    4.922295922610   -0.329728802735
H     -3.625307029556    4.790857599686   -1.390911286430
H     -3.627701611275    4.008869073798    0.228546586486
C     -4.082522531425    6.133212580191    0.256154693080
H     -3.805370965370    7.051291353423   -0.285604763993
H     -5.172882803564    6.003225572413    0.163759255837
H     -3.840903886555    6.258441962145    1.321861459538
C     -1.396274877816    6.794761385066   -3.704796022126
H     -2.124607150962    7.418977828210   -4.239090830895
H     -1.370734566565    7.123703501883   -2.652839191153
H     -0.395223512211    6.934553779288   -4.139766052389
C     -0.641477580806    2.076353566795   -4.665442039249
C     -1.315403112712    2.556192515425   -5.964913986577
H     -1.036351325976    1.897885687755   -6.803568375813
H     -2.412869036239    2.545266092575   -5.872408965331
H     -1.011573326235    3.581733751686   -6.221450639301
C      0.888346707760    2.139739398022   -4.827356455087
H      1.232463427589    3.167627210922   -5.025811049272
H      1.412691267559    1.775104552356   -3.930043436691
H      1.208562253985    1.517331190561   -5.678612840934
C     -1.073659733142    0.623569423591   -4.392724650711
H     -0.606034603740    0.211674449768   -3.487824892429
H     -2.164738063713    0.551560975466   -4.258721974881
H     -0.794727614037   -0.015734149875   -5.246240075264
N      2.035510002234    1.162946538786   -0.055298458823
C      1.385462499580   -0.023698006183   -0.057010834237
C      2.109413029613   -1.241469761319    0.036232639933
C      3.487713659277   -1.213345630964    0.100456022326
C      4.151641450991    0.027998180987    0.060633659439
C      3.378928077812    1.178288584623   -0.023085986103
H      1.544275461687   -2.173999170453    0.034842647103
H      4.060588090956   -2.141152288604    0.162742206034
H      3.850668061569    2.162405851138   -0.052604589794
C      5.643787080271    0.125744440015    0.198642691010
F      6.018867602835    0.225698344554    1.496259633203
F      6.262862689645   -0.957667176811   -0.298004409524
F      6.137282255897    1.207514650070   -0.426849832878
