75

C      1.505998971829    4.013750353880    2.390819990353
H      0.611568042717    4.404550539700   -3.829102053306
C      0.782258537780    5.272910661977    1.914554013671
H      0.047847698662    5.595148153216    2.670396473241
H      1.511687697613    6.083736326531    1.775590909934
C      0.113542873353    4.909739340276    0.590633223855
H      0.393920087545    5.523267986336   -0.273578696259
C     -1.358557423760    4.668271157808    0.661059566972
O     -1.945298908561    4.311810324303    1.666782714495
O     -1.968841168263    4.876987081217   -0.518843792192
Pd     0.999182614661    3.084696758922    0.279599059688
C     -0.414188898523    2.594091706008   -2.179363260657
O     -1.068369737585    1.756923418883   -1.534601150695
O      0.602271990419    3.242091569123   -1.756880028978
C     -0.821601285692    2.867522311247   -3.636008623467
H     -1.917507870271    2.924674581772   -3.657820208325
N     -0.335761384039    4.158564451992   -4.091578730279
C     -1.165790400777    5.105690103386   -4.614086279711
O     -2.355036713974    4.905094356214   -4.821698669235
O     -0.098410773129    0.099986442531    0.140640411456
H     -0.470208159771    0.874195378149   -0.421500554227
C      0.753670140553    2.847744063620    2.689421635748
C      1.352087412369    1.705482847061    3.278687209321
C      2.729741280633    1.716522059087    3.547864636073
C      3.480237539358    2.868864300549    3.222921631521
C      2.896201676603    3.990488975596    2.655214341237
H     -0.336698525394    2.898234581333    2.618245479435
H      4.553198051192    2.873518015188    3.434014005185
H      3.500584238464    4.875015750803    2.437443114009
C      0.496595479386    0.517162962418    3.635276730102
H      0.872806461588   -0.407654567784    3.168104250342
H      0.493108007707    0.339915104684    4.724751708022
H     -0.541930778795    0.657719845481    3.307270159585
C      3.403839038369    0.526975619858    4.183502087702
H      2.953594026056    0.280169788005    5.159775599763
H      3.304191057080   -0.374017977004    3.554990653876
H      4.476259648200    0.709274441744    4.342437164674
C     -3.373068772886    4.554598251540   -0.617525536803
H     -3.446171497884    3.482198012175   -0.864785445039
H     -3.837615737617    4.706049166965    0.367232492292
C     -4.003806554530    5.422711408053   -1.687732312853
H     -3.547625177780    5.260946478675   -2.676247886624
H     -5.076497192218    5.182986044822   -1.765962335202
H     -3.913072269036    6.489616012478   -1.428011437613
C     -0.518453874615    6.449108917078   -4.908538647986
H     -0.875302551853    6.804272596403   -5.885534266355
H     -0.854474077494    7.175743023572   -4.151494810910
H      0.581100223474    6.417817873286   -4.907425312381
C     -0.386424412608    1.725959323378   -4.553936493738
C     -1.257226093484    1.266664928431   -5.552315914998
C     -0.859856025093    0.257411558548   -6.433821555339
C      0.415858075384   -0.304673645424   -6.328924739605
C      1.292007457775    0.149729544460   -5.338346186978
C      0.893899011069    1.159193788426   -4.457727667790
H     -2.251401525265    1.712436843857   -5.640702540231
H     -1.550987508883   -0.091907750807   -7.205496145903
H      0.726363035209   -1.095754140906   -7.016536767722
H      2.291031545602   -0.285491309439   -5.248832660150
H      1.584929800844    1.507237311888   -3.684830372328
N      1.970308253871    1.104947445521   -0.009002223233
C      1.212248489207    0.017459109423    0.114146246748
C      1.787472899788   -1.289729926830    0.253626425055
C      3.144656573735   -1.437033532286    0.192026803143
C      3.977020007978   -0.297855014571   -0.020622253370
C      3.336739444530    0.976638819853   -0.123233723824
C      5.387454317867   -0.384094579754   -0.138503059704
C      6.148174666440    0.747802882225   -0.359965919785
C      5.513683701161    2.006312200645   -0.471161032343
C      4.140593999259    2.122093847391   -0.353056787678
H      1.105116629953   -2.131306064234    0.377881159807
H      3.603077107098   -2.425821987483    0.282965353215
H      5.861696425422   -1.366030818600   -0.056798157876
H      7.233894428532    0.673344481880   -0.455047218761
H      6.115233905133    2.899827535806   -0.656730260076
H      3.648279391510    3.092190343880   -0.443392171561
