71

C      1.387402379059    2.832244881477    2.182084594868
H     -0.375091326747    4.513574784432   -4.576384980130
C     -0.615547455131    4.649626212587    0.591331075053
H     -1.179075677274    4.727702865244   -0.344750490913
H     -1.149004874908    4.302231249106    1.479745431475
C      0.625123330573    5.237421298080    0.731466414012
H      1.078023651208    5.351810917223    1.718056136240
C      1.279551936975    6.043680943942   -0.349675627020
O      0.744550959175    6.471114087170   -1.342270202717
O      2.572854457834    6.268307619710   -0.044660545489
Pd     0.938979562871    3.093487053544    0.245627612549
C     -0.543384660516    2.517303893639   -2.246886810587
O      0.374186568062    3.285832215994   -1.835998112436
O     -0.944241485650    1.472959321652   -1.677192731736
C     -1.261593830834    2.862613755430   -3.566796242933
H     -2.324041870020    2.690887550088   -3.338104914909
N     -1.131904484089    4.250475112019   -3.957671900328
C     -1.767336889105    5.237449854077   -3.256916679094
O     -2.510583987347    4.985392610294   -2.317093251906
O      0.232670311572    0.002297130572   -0.073257809978
H     -0.258217425667    0.715522012296   -0.677241511943
C      0.536654803624    2.026209040023    2.949899723906
C      0.796787766075    1.756678128254    4.304553769640
C      1.949033361164    2.309375949794    4.910547456194
C      2.795245701837    3.109970219912    4.132722205789
C      2.526578117711    3.376817946535    2.784224277670
H     -0.347096216679    1.571554906645    2.491820202134
H      3.689742884154    3.541893999190    4.592863132888
H      3.212245706800    4.015486770664    2.219709628717
C     -0.144652055363    0.881325523454    5.095502514212
H      0.369243526300   -0.007846887457    5.499484550176
H     -0.567780485161    1.417502681820    5.962437595256
H     -0.982457804079    0.531070211510    4.475533994767
C      2.263393770696    2.042781985600    6.362511343615
H      1.456126266944    2.394443639280    7.027930782926
H      2.384899192194    0.964434911076    6.563882264784
H      3.191888210861    2.546199457553    6.669699543890
C      3.329259349920    7.058380175115   -0.978621491745
H      3.334499691924    6.545599703152   -1.954407890834
H      2.815854245158    8.022616247419   -1.124445247163
C      4.726115110110    7.238286136524   -0.422405051648
H      5.230931234462    6.268286126502   -0.294062221478
H      5.327938172875    7.850130136475   -1.112219698649
H      4.699269165612    7.745141571653    0.554463047574
C     -1.489420129101    6.655935354491   -3.715968556150
H     -1.178389648970    6.713020776832   -4.770212789926
H     -2.396424278325    7.256830117966   -3.565352574920
H     -0.692031927529    7.067443796701   -3.079599085029
C     -0.854515275610    1.885987702338   -4.698742079247
H     -0.972654564281    0.883789070051   -4.252661140394
C     -1.817985238620    1.997243150769   -5.887615133337
H     -1.587923980856    1.254649180011   -6.666709932010
H     -2.858486114041    1.830613346807   -5.567456027652
H     -1.770244220775    2.997246706923   -6.348780475404
C      0.625074469193    2.036370602741   -5.111244893682
H      0.764296485631    2.986240565534   -5.662322287617
H      1.244126876771    2.122589487703   -4.202473666279
C      1.163128425240    0.887533619494   -5.968603704274
H      0.637678923201    0.805096154357   -6.933162573117
H      2.233234417364    1.027289155865   -6.190490462653
H      1.054961214102   -0.078964335117   -5.448583715226
N      2.109948766605    1.341585423004   -0.107435664638
C      1.533735717936    0.115639927773   -0.094142621035
C      2.344934309878   -1.046646500665   -0.079682719899
C      3.721292881676   -0.923061655061   -0.122701638569
C      4.300232207189    0.357035029575   -0.183714999757
C      3.455223468313    1.452913112271   -0.165343436149
H      1.842285665253   -2.014036845236   -0.051087395769
H      4.352211945304   -1.815830426575   -0.119393901196
H      5.380678339911    0.498682418244   -0.229404349029
H      3.851798659188    2.470427948412   -0.181574717847
