74

C      1.368358429810    2.818377220007    2.182757566455
H     -0.351107131567    4.501193180582   -4.574063404433
C     -0.607308914929    4.663529210091    0.586783996261
H     -1.166374241269    4.750262739578   -0.351106727323
H     -1.148650619933    4.323167495058    1.473125785040
C      0.640940807101    5.233862982897    0.731215214065
H      1.092327094032    5.341574942405    1.719226162599
C      1.310003455847    6.030945516577   -0.347559063602
O      0.784938954387    6.464526724324   -1.342799033086
O      2.604974746783    6.239253669551   -0.037305713014
Pd     0.926813454731    3.085915492821    0.245505352455
C     -0.564895704976    2.527206358121   -2.240277520024
O      0.365493794654    3.284528371699   -1.836165187103
O     -0.980001612347    1.493206702516   -1.663238452380
C     -1.281248447704    2.877992567212   -3.560018224715
H     -2.346413525969    2.734083009979   -3.325140934350
N     -1.121401879882    4.259224775317   -3.963334440787
C     -1.738739037732    5.265706667419   -3.273789780288
O     -2.495249254531    5.038341181269   -2.338400310179
O      0.191885112162   -0.010580558596   -0.075297220473
H     -0.291998150444    0.711924370068   -0.665556397972
C      0.505464118678    2.023353576313    2.948640022752
C      0.757821403788    1.751257407070    4.304227729662
C      1.914939019032    2.289746432180    4.913660970335
C      2.773604526492    3.079128198875    4.138005192147
C      2.512478205460    3.348554979056    2.788547126996
H     -0.382524104684    1.579536026687    2.488074272350
H      3.671993487387    3.500100142397    4.600783374223
H      3.207928677597    3.978165925041    2.225828899167
C     -0.197270484203    0.888396059740    5.092605624821
H      0.303735360504   -0.007212176352    5.498629750191
H     -0.616336590466    1.430296140488    5.957975305766
H     -1.037498898508    0.548673341571    4.470047121965
C      2.221160633213    2.020402112324    6.366897284926
H      1.416364044745    2.382969935243    7.029482093172
H      2.328234911696    0.940784564079    6.569804447001
H      3.155009083792    2.512255321979    6.676668756574
C      3.375326809693    7.017863841980   -0.969210866012
H      3.377260507427    6.504063855040   -1.944481901498
H      2.875756008526    7.988907633648   -1.118026963154
C      4.772493282598    7.179335022508   -0.408060227643
H      5.263424985811    6.202623353735   -0.276759161620
H      5.385207392486    7.782119717222   -1.096276199020
H      4.748964862318    7.687566857521    0.568184038858
C     -1.423134896600    6.673966863526   -3.740159663841
H     -1.103490863433    6.716269199276   -4.792536263230
H     -2.316156608149    7.297862520850   -3.599872509879
H     -0.620366401007    7.070096192034   -3.100747476388
C     -0.902879146069    1.882372305874   -4.685184960826
H     -1.042308740826    0.887210793163   -4.229639153108
C     -1.868759853470    2.006282198651   -5.870774278881
H     -1.659518110457    1.252445852034   -6.644962872221
H     -2.911376515611    1.866330619449   -5.544750951341
H     -1.799977333077    3.001370334529   -6.339822174414
C      0.577898866341    1.994534199349   -5.105398090910
H      0.736588402233    2.936175921992   -5.665263013929
H      1.202914929475    2.073839126927   -4.200043850543
C      1.085204592093    0.826165897893   -5.955064026677
H      0.553412048219    0.747564077309   -6.916479784764
H      2.157222648886    0.939083678210   -6.183049356306
H      0.957028896800   -0.132981274401   -5.426040162024
N      2.074869446467    1.321100393886   -0.106258821287
C      1.494798221961    0.098946151210   -0.092937993511
C      2.295917122153   -1.068752996552   -0.075082412956
C      3.679848065303   -0.983066583993   -0.110754806569
C      4.252995563042    0.308570058033   -0.170158604404
C      3.422913832896    1.411966723387   -0.157531201488
H      1.777117274925   -2.028373359695   -0.049665522103
H      5.335279406759    0.445489207980   -0.210938062911
H      3.834769198441    2.423349263741   -0.174854564317
C      4.551602237836   -2.210398487152   -0.097113573706
H      5.212458044263   -2.208925184058    0.785663754486
H      3.955553567017   -3.133539507570   -0.077697255253
H      5.203877004181   -2.238799155110   -0.985528695293
