64

C      1.588754512532    3.896819454869    2.414150153320
H      0.154262464152    4.677177930364   -3.751148357423
C      0.912710789528    5.212998118569    2.022981305110
H      0.234666797406    5.541208269579    2.827080313955
H      1.678335213446    5.988286056014    1.878064950891
C      0.163082715073    4.938591261159    0.721436586956
H      0.443566086216    5.564489299488   -0.133919619301
C     -1.318807450814    4.791433742632    0.848022919090
O     -1.887677659699    4.431482359371    1.862634210303
O     -1.958482686594    5.093414155146   -0.293288386021
Pd     0.978029301184    3.107192044258    0.308262950411
C     -0.539373551080    2.618280916564   -2.126955030832
O      0.416556280080    3.332070050184   -1.682043378934
O     -1.020314687710    1.605973201892   -1.577538588155
C     -1.121080922507    3.024505633103   -3.490617424441
H     -2.214086475974    2.962638793030   -3.393339022302
N     -0.819167725132    4.402191371881   -3.821094323115
C     -1.769468716103    5.385479854631   -3.772950807086
O     -2.962369012156    5.153021402851   -3.640927369709
O      0.134152192191   -0.065622733755   -0.161657611865
H     -0.328011137803    0.745583644701   -0.651156485243
C      0.784470142091    2.768008796686    2.721790610856
C      1.340653935664    1.575698709122    3.247397803613
C      2.728726545563    1.500396869215    3.449085147420
C      3.531927612919    2.614016340295    3.111685482307
C      2.988274473555    3.783934590993    2.602725284731
H     -0.303414565493    2.881454087831    2.696879006288
H      4.613260113049    2.548117524406    3.260526141676
H      3.633712473742    4.636572120556    2.375905636784
C      0.435070767365    0.424361633569    3.602417909127
H      0.686715522005   -0.481774890244    3.026088880337
H      0.524918401029    0.154576330194    4.668209268036
H     -0.617214102017    0.665642127900    3.399073918099
C      3.360037424043    0.258730745738    4.026078349595
H      2.963699575513    0.036283572105    5.031280597333
H      3.149414663365   -0.627981158171    3.405005663725
H      4.451182050792    0.361936261718    4.109949659521
C     -3.398294077099    4.947959855776   -0.325457539118
H     -3.629990787873    4.825747566937   -1.391485280263
H     -3.669924091515    4.036277475767    0.226624611835
C     -4.097002706430    6.166364672146    0.253961025701
H     -3.798211332152    7.081135726051   -0.281628480307
H     -5.187568144658    6.052010652012    0.144926566021
H     -3.869996845949    6.285728735652    1.323696153485
C     -1.237074118057    6.804189073989   -3.880694447272
H     -1.961116873657    7.414312841192   -4.437225552839
H     -1.156749829964    7.221237087900   -2.863436009242
H     -0.250740172135    6.863996502923   -4.364569537490
C     -0.656335889857    2.042628189781   -4.576005390179
H      0.434987065895    2.100738813804   -4.723143117524
H     -0.912696816616    1.012606568679   -4.288547127186
H     -1.146070632541    2.277727598393   -5.532553440187
N      2.059728368004    1.200430423540   -0.049791487143
C      1.428140317402   -0.002300752997   -0.086465161419
C      2.173186209478   -1.213966139561   -0.019396908293
C      3.549390066096   -1.172129758237    0.033615624328
C      4.171761053917    0.087641597527    0.026407901663
C      3.398591097675    1.239756804834   -0.014273480270
H      1.619560990231   -2.153165966227   -0.038213177326
H      4.160805641988   -2.074330907315    0.070013089831
H      3.880138093338    2.217988931450   -0.002461450453
N      5.627883778804    0.197985617686    0.089852872158
O      6.111691123131    1.320480440495    0.130378272222
O      6.268875455466   -0.841836344532    0.105948738421
