74

C      1.429918066702    3.910577724994    2.412220474471
H      0.753339338585    4.320053712931   -3.893454514161
C      0.670023186725    5.165026844565    1.978713162782
H     -0.093733855554    5.422393413791    2.730284543831
H      1.371610745797    6.007625562454    1.897657932122
C      0.047818654576    4.843701055200    0.622291105743
H      0.326423144928    5.508217640178   -0.204037119240
C     -1.414997031632    4.545595835380    0.638980185693
O     -2.017820867894    4.124113427770    1.609358512657
O     -1.996316320063    4.784834896842   -0.549830678130
Pd     1.020719073530    3.076452530655    0.250587598016
C     -0.341302618070    2.584389455337   -2.246320970847
O     -0.925937845843    1.657003664913   -1.652426765225
O      0.614140302963    3.287292155473   -1.779538357049
C     -0.779146479351    2.892711471251   -3.685168053970
H     -1.868716190714    3.042508908065   -3.660140195324
N     -0.204706782505    4.133444938404   -4.167157535092
C     -0.973184752011    5.162930684778   -4.628667695582
O     -2.181003233034    5.068864530024   -4.796646733791
O      0.123422500184    0.040847041487   -0.025183686439
H     -0.289635662441    0.809403472763   -0.582984572865
C      0.712886329494    2.709266485070    2.651581621064
C      1.337927647641    1.565988193028    3.207891135268
C      2.710316176214    1.611535075704    3.501939044948
C      3.427617464747    2.799063752547    3.234506570321
C      2.815601030237    3.922599028696    2.701202349888
H     -0.376429643809    2.724408433539    2.554007039138
H      4.496548641441    2.829811673449    3.462650155594
H      3.393783001229    4.834120760022    2.528389032835
C      0.516915606682    0.337138830502    3.503615695838
H      0.918812744909   -0.553152661098    2.992778883185
H      0.516907419318    0.106780317126    4.583016109151
H     -0.525064046442    0.464938068407    3.180901968237
C      3.412681793719    0.420845274391    4.103685947471
H      2.956040158205    0.124399599472    5.063100428442
H      3.351421549250   -0.459332588776    3.441752477672
H      4.476199283173    0.631003627540    4.286109333313
C     -3.387370638685    4.433774405639   -0.708077801672
H     -3.425914832832    3.374845436139   -1.015139383603
H     -3.884806235172    4.518360489711    0.268717361992
C     -4.006247832200    5.344233180400   -1.749900657135
H     -3.500249894395    5.260655401609   -2.723904333720
H     -5.065227250714    5.073496382402   -1.889793832420
H     -3.964947756629    6.395341142786   -1.422235437894
C     -0.225878388157    6.455534476991   -4.916632855207
H     -0.586797880227    6.865878393480   -5.870285770035
H     -0.472051861329    7.187357079099   -4.130523045343
H      0.866550349011    6.333172587705   -4.958502030157
C     -0.474520954576    1.698596753867   -4.603274099837
H      0.612094330550    1.533521801365   -4.689972303707
H     -0.935273640676    0.785960741758   -4.198955289441
H     -0.876919195443    1.887109696355   -5.609603210018
N      2.116595036284    1.168390573022   -0.090684936581
C      1.434905175756    0.043479570321   -0.013040768796
C      2.088880549265   -1.251166251900    0.133866346022
C      3.506275922841   -1.310103979156    0.135983108904
C      4.245662452044   -0.069634652463   -0.055244673389
C      3.504274109509    1.140415740305   -0.173014279332
C      1.319597452982   -2.427534575495    0.271937710506
C      1.944245373283   -3.653651525882    0.433831034037
C      3.350637538214   -3.722204314886    0.452106421029
C      4.116612779891   -2.575420868147    0.303628699904
C      5.655457234810   -0.009477499957   -0.142816992194
C      6.316584424181    1.191712636530   -0.347348438261
C      5.577707936369    2.381982638008   -0.475680941805
C      4.195259244860    2.354737917125   -0.388251383308
H      0.232767099480   -2.342956129210    0.248991527328
H      1.349799484238   -4.563651643853    0.543557667835
H      3.845864500642   -4.688197171144    0.579996619978
H      5.203908399858   -2.658905004459    0.315754916893
H      6.239549808689   -0.926991448615   -0.057381369248
H      7.406715222275    1.210500387936   -0.416618332467
H      6.092110980951    3.330385423459   -0.649575776337
H      3.609453483814    3.270016886282   -0.492429655636
