77

C      1.638921889624    3.964251176800    2.383115628266
H      0.018960343935    4.719654843660   -3.662433412646
C      0.977470453761    5.279241775355    1.966880654573
H      0.328957328769    5.648456308390    2.777767389799
H      1.753526252681    6.033697651753    1.774532523650
C      0.185877684097    4.977105869167    0.695814642535
H      0.449801771602    5.574095141508   -0.185005749906
C     -1.292121630780    4.856133763707    0.871958260020
O     -1.835674672139    4.541738888237    1.915511257571
O     -1.965899179738    5.122845384883   -0.260218466624
Pd     0.951991865926    3.113281133901    0.318227676391
C     -0.638793271414    2.645749382204   -2.055739115742
O      0.390298447155    3.297868295042   -1.676396763699
O     -1.199103422195    1.733995984464   -1.415588930086
C     -1.184209286150    3.008998981954   -3.445826378678
H     -2.274197483675    2.887145322388   -3.408605919905
N     -0.941381059125    4.406649656405   -3.752757824479
C     -1.932435867869    5.347446965116   -3.704547659370
O     -3.116963000913    5.064537978470   -3.594955218041
O     -0.035278580447   -0.020912751579   -0.039214594738
H     -0.476411240660    0.803606819017   -0.483447806198
C      0.822904689072    2.858083778068    2.737951535589
C      1.372056406019    1.668139072509    3.277463460730
C      2.762751886105    1.572018291011    3.444676439828
C      3.575854829612    2.663603583219    3.062838089970
C      3.040151003381    3.830855961553    2.540228905329
H     -0.262892096919    2.991577980980    2.741080544472
H      4.659362131769    2.581602895429    3.185420141374
H      3.694470458723    4.665432281560    2.275091461625
C      0.456331902031    0.540048162099    3.678020348997
H      0.681686325379   -0.382178056049    3.116613929091
H      0.564762919297    0.292637275644    4.747649503715
H     -0.596133265707    0.793597939897    3.491242791630
C      3.387454737947    0.328804516289    4.025542697840
H      2.998956131515    0.115674772152    5.035728145427
H      3.163840551154   -0.558891128885    3.410188720707
H      4.480330031481    0.423333695273    4.097607286323
C     -3.404889529066    4.968620193075   -0.243539787955
H     -3.669927209769    4.809992919539   -1.296921790957
H     -3.652953284715    4.072982447882    0.344397922535
C     -4.095086637877    6.199991750305    0.318776344732
H     -3.821073267900    7.100044169630   -0.253948375443
H     -5.187620192850    6.074487147262    0.247518959666
H     -3.835534290848    6.354500911850    1.376478347842
C     -1.456064500989    6.788575428823   -3.777565242777
H     -2.213512039124    7.387970065661   -4.299919747321
H     -1.367313434670    7.174687611567   -2.748757494687
H     -0.482770042503    6.899016725183   -4.278922282301
C     -0.588873349102    2.095572927264   -4.540717461574
H     -1.013785586080    2.436968001262   -5.501168601736
H      0.497996246566    2.288142006337   -4.597568061227
C     -0.823724203671    0.580311356860   -4.393868541316
H     -0.354424129373    0.249071302992   -3.450745738610
C     -0.134372459046   -0.164060691348   -5.545375787380
H      0.942678634869    0.067429498551   -5.592556106059
H     -0.238546098943   -1.255362839843   -5.432909174112
H     -0.576585851421    0.113136226222   -6.518092507347
C     -2.312902378136    0.220542587120   -4.312791391314
H     -2.449128434418   -0.872867153446   -4.284959520349
H     -2.775956311003    0.632317555169   -3.404485892967
H     -2.863978233765    0.602305471540   -5.190102154325
N      1.948138441382    1.168134236266   -0.014564635658
C      1.270732475063   -0.005334520186   -0.023185915152
C      1.967162401547   -1.241545627912    0.009213954353
C      3.347163824994   -1.248988884580   -0.000004053559
C      4.044402414376   -0.022301574193   -0.035031596651
C      3.289906940406    1.149152927611   -0.038205349607
H      1.377068298630   -2.158634921704    0.014380464008
H      3.903094596054   -2.187896743229    0.008705487395
H      3.800756244877    2.114137242768   -0.049009970149
C      5.525134901139    0.092642222654   -0.047967335673
O      6.134145006309    1.138713207302   -0.027949928589
O      6.128536771639   -1.111897473217   -0.079556129341
C      7.555775555840   -1.102968662363   -0.096788482862
H      7.955308733215   -0.607485108653    0.801095058335
H      7.868032229037   -2.154147562599   -0.122808298699
H      7.932591674125   -0.570320663797   -0.982990245776
