65

C      1.377762617000    2.811415448573    2.205265746288
H     -0.591772019603    4.507872980441   -4.574486725365
C     -0.619508401797    4.632810687332    0.644390641568
H     -1.229111572917    4.687824726281   -0.264185438390
H     -1.111668033547    4.322913173287    1.569651215015
C      0.636365172146    5.202027042726    0.701606849848
H      1.142642287882    5.337367330389    1.659479801484
C      1.245301020241    5.965530327757   -0.435811403339
O      0.658369410162    6.404897630868   -1.393464071310
O      2.565029343398    6.139177716461   -0.227406050808
Pd     0.889709396479    3.039846473204    0.274724852072
C     -0.641321073171    2.466036468733   -2.195439935853
O      0.293616473649    3.218758598955   -1.796884056825
O     -1.073654495866    1.442472616102   -1.613056958262
C     -1.312244249182    2.788542062493   -3.546008977502
H     -2.364617514900    2.497883591597   -3.406952256684
N     -1.275352575496    4.193917056981   -3.896381887305
C     -1.925264208942    5.124809676792   -3.138180871864
O     -2.595009524676    4.804126261428   -2.164216371527
O      0.050737970029   -0.010243701528    0.037759977940
H     -0.419131656537    0.701058097582   -0.590045482626
C      0.527196028570    2.049316448546    3.017261669259
C      0.814293088141    1.812073989692    4.372426606382
C      1.994716257626    2.352052596162    4.934047175740
C      2.841117082171    3.107643530830    4.112675669665
C      2.545283078877    3.342531547465    2.763904961150
H     -0.379003392383    1.605099281505    2.594048909266
H      3.757845934959    3.528673176914    4.537881003130
H      3.233869713159    3.944592196359    2.163723188975
C     -0.128933541119    0.984704834843    5.211588756352
H      0.372171240118    0.094768629996    5.629825200582
H     -0.517105972011    1.556628824901    6.072044792045
H     -0.990507581690    0.638466281566    4.622628338359
C      2.338248360848    2.119374781755    6.385270649062
H      1.557102886916    2.511196123488    7.059432739128
H      2.437293634208    1.044499264322    6.615594579525
H      3.286663238691    2.606970096451    6.654886562920
C      3.285089882233    6.881605387448   -1.226616077478
H      3.193097510205    6.358020322104   -2.192204119724
H      2.807948637466    7.867689810970   -1.347986784196
C      4.726711860483    7.000678866487   -0.778795894526
H      5.193491892711    6.008987350638   -0.674741989955
H      5.303026196670    7.575589340212   -1.520259666621
H      4.797254210307    7.518667938098    0.190038404837
C     -1.759174236892    6.567802655336   -3.573835975123
H     -1.518439451945    6.668876717245   -4.643116498328
H     -2.688170332934    7.109948546572   -3.351703706090
H     -0.947733415616    7.009671025013   -2.976737761295
C     -0.694335562563    1.937455844970   -4.657995658083
H     -1.229670492384    2.089763779157   -5.608333537292
H      0.368159820256    2.193171892642   -4.807923194494
H     -0.754938910567    0.873569809012   -4.389090828870
N      1.983548582335    1.238048890099   -0.065213894909
C      1.358242957784    0.042369275024   -0.012302694193
C      2.101381761245   -1.175486001478    0.013578849626
C      3.483562847506   -1.089112129638   -0.066052142233
C      4.119095980156    0.160855811512   -0.168525583704
C      3.331178678975    1.295895953719   -0.155644454692
H      4.079404568851   -2.006434738536   -0.058892355215
H      5.204078911645    0.245936823491   -0.242142879898
H      3.769635209751    2.294730234725   -0.203175385589
C      1.353658752296   -2.475285037486    0.106774730032
H      0.760073262593   -2.524088199287    1.034291961030
H      0.634079877428   -2.573751803805   -0.721840877613
H      2.041844798565   -3.332643060821    0.084909337835
