68

C      1.398505139688    2.853618494953    2.291354348922
H     -0.574368250778    4.672737453531   -4.525747321540
C     -0.625831548137    4.584952940547    0.682433732740
H     -1.246304142265    4.586857417725   -0.219480033068
H     -1.108087965206    4.319948926407    1.626614947463
C      0.620053131468    5.179945663867    0.700027910409
H      1.129856591936    5.370573345272    1.646141749915
C      1.213797125667    5.891244436816   -0.476836015999
O      0.633015337783    6.203709142386   -1.489350697752
O      2.507971717317    6.171850745149   -0.244655013210
Pd     0.897922760770    2.999682250746    0.369023827993
C     -0.595424090267    2.381001406467   -2.341154641166
O      0.264014105995    3.060593752026   -1.767485387983
O     -1.082618630268    1.259526478356   -1.922899225424
C     -1.140741462589    2.785062974068   -3.716275337655
H     -2.158482816154    2.365646701295   -3.753275582352
N     -1.219482714725    4.218480984452   -3.891086235973
C     -1.994857009605    4.980200234844   -3.062188896353
O     -2.630647322338    4.468328814232   -2.149468832182
O      0.039751646660    0.219067971926    0.034207504117
H     -0.623090013859    0.878728873543   -1.057921395396
C      0.573028109440    2.079994116435    3.115435896905
C      0.864016080884    1.898919568419    4.478338008958
C      2.019014865911    2.504583298160    5.026197026921
C      2.839952652886    3.266136346125    4.184913951325
C      2.543653920163    3.447497388164    2.827840679206
H     -0.306546094952    1.582904576133    2.696110355944
H      3.739204063597    3.733360972366    4.598349937113
H      3.213218573656    4.050285506833    2.208331837843
C     -0.046153109670    1.056762473550    5.338778715019
H      0.491680110095    0.201508866871    5.782665294117
H     -0.460773105448    1.636193564176    6.181650317948
H     -0.889797777729    0.656971291578    4.758030152362
C      2.365721767266    2.330143911861    6.484732518745
H      1.565325668324    2.707679534339    7.144232747176
H      2.509900248543    1.267742753630    6.746571512915
H      3.291218752009    2.865633542152    6.742452818702
C      3.223874539910    6.863116064498   -1.283784514054
H      3.187913721765    6.254945719173   -2.202310313161
H      2.703198874756    7.809870856593   -1.501964460736
C      4.642988596645    7.090348729338   -0.807480696482
H      5.151145447992    6.135040752147   -0.605449439005
H      5.214878252444    7.627764509259   -1.579822514854
H      4.657895203716    7.692226777332    0.114143607195
C     -2.003252294821    6.468911791451   -3.339609480546
H     -1.856984017830    6.701794955201   -4.405346182049
H     -2.959890162980    6.884272638143   -2.997031829444
H     -1.189024548564    6.927467582215   -2.758862135258
C     -0.288316939116    2.149237720463   -4.819078249584
H     -0.714898050649    2.374308735875   -5.808745322449
H      0.746197213129    2.527778274142   -4.783783302112
H     -0.260146138789    1.057562421853   -4.695012808304
N      2.065381887416    1.257410324168    0.092123745709
C      1.301949458778    0.110714972613    0.019339984065
C      1.990575647545   -1.144547025926   -0.064189270448
C      3.365174276016   -1.188692240196   -0.090364727276
C      4.113261334731    0.014308718891   -0.029616715304
C      3.402123447532    1.207231217386    0.074255504304
H      1.378677804518   -2.046642464459   -0.108202739465
H      3.892209674028   -2.142171180514   -0.158753735358
H      3.946361959054    2.151346742014    0.151667382971
C      5.590543110359    0.079682948240   -0.056995538831
O      6.242983661674    1.100826449445   -0.019257437406
O      6.156221474010   -1.145818359209   -0.132396646449
C      7.580083148229   -1.178946562762   -0.162612927688
H      8.004043641495   -0.724910095173    0.746292953459
H      7.861492804515   -2.237764852936   -0.224337829252
H      7.968779882998   -0.630262707209   -1.034373955069
