46

C      0.698919440216    4.072786162250   -0.049527850872
C     -1.944516327322    2.987028194455    0.901196332291
H     -2.315183335260    2.150914191885    1.500094106934
H     -1.724774390781    3.924325796308    1.417723911133
C     -2.059363812528    2.960028210073   -0.476796645017
H     -1.910475241257    3.866382577594   -1.068533819900
C     -2.673800484802    1.833693092977   -1.256448494071
O     -2.776104757627    1.853700312176   -2.460477847960
O     -3.067832565448    0.828743200890   -0.470134293152
Pd    -0.048616169643    2.240074429941    0.088304967603
O     -0.131257175445   -0.043900967458    0.218577743011
C      1.193342552848    4.709833218722    1.094740645496
C      1.813461635680    5.969000259833    1.018542894695
C      1.937630163591    6.603039244307   -0.240033016710
C      1.436418557179    5.950290486594   -1.373651209120
C      0.817282093688    4.696336807686   -1.294371768296
H      1.112225263011    4.228480286344    2.074010761090
H      1.531964728702    6.432018910325   -2.351453507692
H      0.446010810957    4.221794087038   -2.206592793779
C      2.342944070654    6.627976819885    2.268524138720
H      3.428723886099    6.811606903474    2.200395072649
H      1.870260153736    7.609803371078    2.441732589283
H      2.163789450870    6.006998934199    3.158138369555
C      2.600210407232    7.953110763313   -0.362788192308
H      2.082360937944    8.718999844898    0.239626553645
H      3.644361541848    7.928461662363   -0.006903605537
H      2.611363956791    8.299572852687   -1.406291320116
C     -3.506734078723   -0.388574303700   -1.106323043669
H     -4.527498640269   -0.229873807868   -1.492732477118
H     -2.854025360818   -0.585188820375   -1.970022209050
C     -3.444434409997   -1.499317532734   -0.079674472551
H     -4.098956063989   -1.284209379978    0.779391487880
H     -3.775283783254   -2.446297743347   -0.534293100464
H     -2.412692176251   -1.618408349687    0.282761129133
N      1.738575162202    1.164596117981    0.100272940126
C      1.134607466764   -0.078110704352    0.183046131625
C      1.969662268646   -1.241048494659    0.221070529841
C      3.336338404120   -1.087558444236    0.177024933773
C      3.893409264186    0.210031590601    0.095131948386
C      3.059064013214    1.321608619870    0.057381738337
H      1.497100862651   -2.221903491309    0.285289829699
H      4.013166985134   -1.942606888414    0.204014888136
H      3.465517414112    2.332873158095   -0.006293164585
N      5.336029041474    0.392646222096    0.051027224717
O      5.764855918752    1.537793349044   -0.013522223745
O      6.034316041378   -0.611850427989    0.082391671173
