69

C      1.401380877686    2.829372901659    2.191468873074
H     -0.348034311682    4.467955415013   -4.416864843931
C     -0.623493227328    4.621378695572    0.629349690615
H     -1.210261516322    4.684463628239   -0.292539275364
H     -1.133747834241    4.278110262694    1.532577163387
C      0.614019835079    5.224247520356    0.730874193216
H      1.091772722097    5.353923506762    1.703869918176
C      1.226455929482    6.025599431057   -0.378327056646
O      0.651422153471    6.440205049760   -1.354151137943
O      2.527126130051    6.260146461864   -0.122593140069
Pd     0.934271985185    3.081629766683    0.258597985278
C     -0.577180023943    2.492333270274   -2.184771445898
O      0.358959933226    3.262173916963   -1.824874005236
O     -1.013793851100    1.511768677875   -1.535314308701
C     -1.270694435894    2.779512471487   -3.536979148226
H     -2.334288225496    2.572981143630   -3.335029742154
N     -1.183335324521    4.171221803963   -3.924851272076
C     -1.896212978686    5.127004361550   -3.247078583916
O     -2.689246737745    4.834478072744   -2.363433027081
O      0.243457734436   -0.038195805365   -0.037618870639
H     -0.269266917679    0.699721993844   -0.565249528822
C      0.554931792934    2.034570085335    2.975352528741
C      0.829900684896    1.773840725392    4.328808009794
C      1.992285967737    2.325048626037    4.916619150015
C      2.833507325291    3.115001060088    4.122660730201
C      2.550498742217    3.372601234597    2.775274705610
H     -0.337788382377    1.582573763589    2.532154596608
H      3.735706687101    3.545554676846    4.568730899999
H      3.233584303824    4.002043236413    2.197379163160
C     -0.106765651936    0.910082425007    5.137831485933
H      0.407232605795    0.021430319691    5.542717970122
H     -0.516387041737    1.455533291317    6.005425250597
H     -0.953922468242    0.559488754161    4.530926448101
C      2.322397725255    2.068078583661    6.366776824025
H      1.524948922518    2.429453573200    7.038749269248
H      2.440232365371    0.990664438630    6.575023136734
H      3.257209024710    2.568622566751    6.659025607775
C      3.246210038183    7.043813684812   -1.091983551961
H      3.216875345185    6.520757027385   -2.061734364724
H      2.723959033703    8.004713793306   -1.227596163749
C      4.661829999152    7.233413348959   -0.589423144128
H      5.174445649535    6.266307443679   -0.470823917391
H      5.235379855032    7.840252210503   -1.307126020280
H      4.669502119846    7.749898675224    0.382710787628
C     -1.635603407293    6.559154417919   -3.670791520936
H     -1.312823035355    6.639353532963   -4.719823321854
H     -2.554254835357    7.141224119596   -3.519010489485
H     -0.849888308456    6.970353840396   -3.019818888533
C     -0.796421389715    1.846631832098   -4.655730431177
C     -0.771712128163    2.284459966503   -5.989952296912
C     -0.372305241788    1.429102282708   -7.021764698736
C      0.006048429717    0.114869973607   -6.740728602726
C     -0.027359366370   -0.336089644111   -5.417898516643
C     -0.426406111685    0.517105786175   -4.386495288884
H     -1.084558872228    3.302013308674   -6.230374819893
H     -0.363054698809    1.795383322118   -8.051943761484
H      0.318945802379   -0.554852788359   -7.545935911251
H      0.256982897579   -1.365315422374   -5.182895604406
H     -0.464625439749    0.148681055199   -3.360799837650
N      2.104255446517    1.329124045703   -0.104186849819
C      1.544727975996    0.097346573179   -0.081920461238
C      2.366632030804   -1.056433536501   -0.084322242791
C      3.740432166466   -0.917793023513   -0.153610572214
C      4.303607736737    0.368611834036   -0.224527179637
C      3.447339740990    1.454953072352   -0.188970954473
H      1.874868452385   -2.029092468178   -0.047635468575
H      4.380853927923   -1.803605851926   -0.163839029761
H      5.381175597028    0.522304822539   -0.292657151306
H      3.832222118340    2.476606733658   -0.214699983757
