26

N     -0.496920938954    0.846028466303    1.138150464526
C     -0.357933182944    0.388723264162    2.352292736388
O      0.098018128552   -0.755879995379    2.741063130570
H     -0.182268481304   -1.638345055346    1.698058776951
C     -0.609656325448   -1.348222378280   -0.185226381137
O     -0.524644479592   -2.172593839928    0.838711188583
O     -1.095296332421   -1.677185204646   -1.255009597469
C      0.001542618701    0.063427324459    0.010476463457
H     -0.297033176355    0.592641680710   -0.912334509006
C     -0.788431164652    1.325236973098    3.478397992754
H      0.073323808443    1.526913960829    4.138902982683
H     -1.181954014906    2.271552701289    3.082580593556
H     -1.552776496131    0.830737764777    4.102876170983
C      1.564982270320   -0.016843073903   -0.009541970044
H      1.863622555561   -0.449349738316    0.961163621387
C      2.091621597854   -0.924448318750   -1.129445045682
H      3.193539395792   -0.899895767964   -1.186386893054
H      1.793093636805   -1.972070081634   -0.973682270104
H      1.693769361487   -0.613529564909   -2.110892809525
C      2.150444778710    1.405553869615   -0.101550754178
H      2.006701143089    1.784281572663   -1.132506484456
H      1.546633196302    2.054161928947    0.552186104130
C      3.626656397718    1.523958141803    0.286464993038
H      4.282519952184    0.915055033372   -0.359359831329
H      3.980286633087    2.567636860817    0.216697736634
H      3.789476203117    1.188623647409    1.325164299338
