66

C      1.505366678310    3.913911894005    2.358659328353
H      0.700807605690    4.202719696077   -3.907172806908
C      0.800018953790    5.200516278438    1.922517348010
H      0.067016172204    5.507188903874    2.686107577760
H      1.541738668983    6.004516986370    1.812438299544
C      0.133097406520    4.888449823741    0.584528145803
H      0.421659245080    5.527381726440   -0.258476156915
C     -1.339675653339    4.652587772552    0.637871676709
O     -1.940243960317    4.287204150003    1.632242601449
O     -1.934792149515    4.876733139746   -0.547096848519
Pd     1.036061464879    3.080895348701    0.234393864941
C     -0.371474197282    2.520246905885   -2.215396612265
O     -0.942536476303    1.612400550751   -1.584329193713
O      0.598501551432    3.234695547206   -1.791292787983
C     -0.842689779510    2.797442048733   -3.650804677100
H     -1.928337527930    2.969075219192   -3.600140903985
N     -0.256550506098    4.013104958413   -4.181829042467
C     -1.016403511983    5.033719325569   -4.675278389272
O     -2.225680046548    4.945590045363   -4.837256640784
O      0.159903406652   -0.028314055110    0.031250960423
H     -0.273689729448    0.726911639005   -0.508332554190
C      0.732014429078    2.756092809132    2.635527850560
C      1.308329533439    1.584529427654    3.186184319317
C      2.688714744694    1.559742389693    3.442133775994
C      3.461586727595    2.705127474886    3.144781915567
C      2.897964937654    3.854401228606    2.612019487304
H     -0.356869081010    2.828276902877    2.562994317596
H      4.535704909446    2.681477175458    3.349827894814
H      3.518625901235    4.732835793995    2.415923395675
C      0.431162399757    0.397841457663    3.493915456511
H      0.673305046986   -0.463191877978    2.848333076801
H      0.553372148805    0.062782880869    4.537234519107
H     -0.629071755738    0.634567607846    3.330895156635
C      3.344611396406    0.335073598470    4.027647395380
H      2.912101256265    0.073607925039    5.008207081449
H      3.202266786696   -0.543527627546    3.376457483684
H      4.425464320121    0.482862643767    4.164369903301
C     -3.341792752154    4.578241230695   -0.664818494213
H     -3.432537911292    3.507410508279   -0.914462347686
H     -3.817927633474    4.735120590242    0.313762236155
C     -3.940444976688    5.459113407126   -1.743189948989
H     -3.461786900395    5.298840850055   -2.721416431942
H     -5.013685205241    5.231853733979   -1.847011731112
H     -3.843164192195    6.523296067225   -1.474896741837
C     -0.257797168794    6.309772890153   -5.005227302697
H     -0.631013975299    6.704434825992   -5.960638871034
H     -0.478483806695    7.061513347203   -4.230284199682
H      0.831936953426    6.170966496006   -5.064180701292
C     -0.588775508580    1.572976915593   -4.543597464169
H      0.491504068083    1.384481538299   -4.657945884758
H     -1.054262920134    0.681504916154   -4.099482768647
H     -1.017827619246    1.741543018970   -5.542467087419
N      2.124391724145    1.187022936329   -0.059041557152
C      1.471828435112    0.020515236428    0.010149130882
C      2.197427077818   -1.214233935604    0.102502903148
C      3.584161798092   -1.179192302896    0.035486767819
C      4.237424317202    0.061642951540   -0.100327241151
C      3.476486429186    1.212678018701   -0.135728606436
H      4.167802986898   -2.099570759759    0.074890945793
H      5.324968721909    0.115741148960   -0.169103660510
H      3.933875505088    2.200800790485   -0.217404149368
O      1.436778953421   -2.319669701473    0.238330837336
C      2.069197229279   -3.578575070921    0.301406883495
H      2.746475146313   -3.655159689171    1.171757148435
H      1.270161292099   -4.324238625534    0.404281335821
H      2.645017470037   -3.793121017163   -0.617168165827
