65

C      1.556678532464    3.906148474595    2.487021855686
H      0.201519566341    4.614950004125   -3.679929996426
C      0.890869215982    5.223826792365    2.085726416892
H      0.195832250392    5.550410469656    2.876169743225
H      1.660424079971    5.999197215396    1.961109186904
C      0.168758064495    4.955909343075    0.766312488676
H      0.469208086794    5.586446795830   -0.078887379106
C     -1.314113776324    4.816664572045    0.860496424620
O     -1.909411014840    4.461276307789    1.861980587920
O     -1.929474057683    5.119663932968   -0.296089637124
Pd     0.989301655784    3.119280869088    0.363588684259
C     -0.524690976179    2.608461518681   -2.046940797406
O      0.445905184759    3.327386451538   -1.630213887455
O     -1.027303512634    1.635871999145   -1.457836939362
C     -1.083747981696    2.973232997094   -3.433556195753
H     -2.178265603516    2.918608990042   -3.353996145354
N     -0.767410987899    4.340236768708   -3.799835948398
C     -1.713517559718    5.327889101125   -3.803629870306
O     -2.912414652352    5.105618934483   -3.712072848606
O      0.127186523332   -0.029809984504    0.075674600384
H     -0.329885472327    0.736496110028   -0.430463872140
C      0.744071629514    2.775296692011    2.762035901267
C      1.285354838394    1.574678860167    3.284295620019
C      2.668060197530    1.493289320881    3.515003102841
C      3.478727200852    2.612693834200    3.219959378838
C      2.949877803263    3.790430071143    2.713841138407
H     -0.342708659025    2.890742211550    2.713451987333
H      4.554427060245    2.545884495973    3.406717026218
H      3.599837167093    4.647811201850    2.519265482836
C      0.370137715819    0.419498123865    3.598025454548
H      0.615790295275   -0.465990633075    2.988802633860
H      0.453403587692    0.114003642527    4.654683047371
H     -0.678840475643    0.675357478310    3.396352628867
C      3.285194855073    0.235852494736    4.072586787801
H      2.850344858698   -0.029187997643    5.051053245077
H      3.108155913859   -0.625550126506    3.406812348449
H      4.371350345181    0.343868879871    4.204943141125
C     -3.366117746353    4.966528040685   -0.360310693233
H     -3.575753410087    4.846627870318   -1.431433704882
H     -3.645352665440    4.050669416933    0.181030095413
C     -4.085927921805    6.177757301946    0.209164194214
H     -3.779236138077    7.097755760550   -0.313157068317
H     -5.173068914038    6.058472896119    0.073491325026
H     -3.884465559913    6.291478468028    1.284589270970
C     -1.168503593926    6.742261628953   -3.913973992235
H     -1.877191923486    7.353044530401   -4.489167321581
H     -1.102519761368    7.166802864326   -2.898660022640
H     -0.172727833228    6.789218289142   -4.379878207561
C     -0.604222983478    1.957469678046   -4.479941621283
H      0.489755811885    2.007891972139   -4.609224769897
H     -0.868346206757    0.937859103203   -4.163356155673
H     -1.076461716972    2.162608386216   -5.452303712482
N      2.064793044199    1.229725415141   -0.005411693735
C      1.439974453341    0.036690469813    0.017814964063
C      2.192986226608   -1.161906807046    0.010502171491
C      3.571991479853   -1.098539638688   -0.072575808747
C      4.227140682277    0.148990170378   -0.152586383021
C      3.409944907449    1.273247986627   -0.109256148079
H      1.652368187207   -2.108718151205    0.044248247023
H      4.157178289661   -2.023102512115   -0.092739967873
H      3.847418541328    2.274952746998   -0.148510380290
C      5.725046294214    0.258414423914   -0.278615596389
H      6.052524843665    1.308670947464   -0.279656363935
H      6.239311533993   -0.252932560471    0.552165270009
H      6.085207946351   -0.203513025547   -1.213362379578
