68

C      1.410548393978    2.841449568505    2.282293215179
H     -0.501325066476    4.591347679732   -4.509267487505
C     -0.603928461689    4.593015451866    0.664330614963
H     -1.212262849519    4.612483939397   -0.245689297780
H     -1.105502100184    4.338283435185    1.601390023710
C      0.652445171882    5.167972470714    0.701466102190
H      1.147758074201    5.352360277872    1.656148868574
C      1.274094233693    5.874709636452   -0.462891817189
O      0.723169243452    6.170733374658   -1.496391347255
O      2.558278347203    6.173180181060   -0.193229238298
Pd     0.891636727902    2.987736130782    0.364765497077
C     -0.646859956372    2.356781577247   -2.332722451767
O      0.223490604867    3.031416304030   -1.768295989769
O     -1.128408126457    1.233683825141   -1.908352938710
C     -1.247192782452    2.775777849678   -3.679165517271
H     -2.303618669564    2.473378167262   -3.607364825704
N     -1.207806509837    4.202762403517   -3.897517431690
C     -1.939635003849    5.047483480669   -3.107842706752
O     -2.632430040928    4.618099490922   -2.194622021780
O      0.012709637100    0.265389732380    0.075768955886
H     -0.662907750736    0.859240503179   -1.045469952274
C      0.600873320157    2.045945092425    3.100651822078
C      0.903822734972    1.852171858250    4.459255659031
C      2.054117645683    2.467039604897    5.007094079334
C      2.858441978197    3.251051490542    4.170487259693
C      2.550423681468    3.445882923586    2.817788198174
H     -0.273028279388    1.540648406412    2.679554223236
H      3.752880977288    3.726823160997    4.584674955759
H      3.204757190177    4.069238843344    2.202382720715
C      0.011557733717    0.986171107331    5.314546082045
H      0.564871586627    0.133541620104    5.744042317251
H     -0.405655324634    1.549259827626    6.167101627032
H     -0.829739569899    0.581269940399    4.734129460488
C      2.413083791663    2.278788908157    6.460839088689
H      1.611354083912    2.635573670463    7.130087236990
H      2.574514381931    1.215257109936    6.707349901885
H      3.332196951501    2.824525594001    6.719879258070
C      3.292329174108    6.873583056184   -1.213271124593
H      3.303298918023    6.257986612270   -2.127603439124
H      2.756773126751    7.805310008366   -1.457882618284
C      4.687940272409    7.141147396175   -0.690610082429
H      5.213381504982    6.201081405456   -0.462363447983
H      5.272607643719    7.686708903495   -1.447462955847
H      4.655757525061    7.750437681104    0.225658097772
C     -1.830521781461    6.522470489365   -3.435391673661
H     -1.652138933296    6.705561181715   -4.505949251427
H     -2.758154176783    7.019840848851   -3.123564211731
H     -0.993331021707    6.940301352164   -2.856934723090
C     -0.604450392915    1.977991950543   -4.845116692964
H     -0.685326312364    0.921066486305   -4.541461460733
C     -1.406212977318    2.156239763492   -6.140666212432
H     -0.987983422489    1.530539225693   -6.944969564787
H     -2.460377729036    1.869375692116   -6.001953406017
H     -1.389013134000    3.202049642843   -6.487854953047
C      0.884500451665    2.292734172454   -5.049382156464
H      1.047143822693    3.327298415635   -5.398633605231
H      1.467869334042    2.158588463025   -4.125947019720
H      1.311331944588    1.629332671220   -5.817845140506
N      2.067813616479    1.238700058362    0.080045920999
C      1.271372217116    0.128508665353    0.019795928492
C      1.943809314840   -1.140631692553   -0.101249958475
C      3.321093276664   -1.219337273584   -0.150307895595
C      4.074752801437   -0.031347201020   -0.081950179341
C      3.411778077525    1.176952487837    0.042200282475
H      3.816370403893   -2.187069494356   -0.241107139669
H      3.961845397011    2.116564201244    0.119311229188
Cl     0.966169244497   -2.574834966993   -0.178173607815
Cl     5.819761636615   -0.081112588325   -0.141766379407
