74

C      1.491878134058    3.836194248839    2.533347254978
H      0.244138396932    4.748949113723   -3.684747723506
C      0.801689111576    5.152267519556    2.168437374700
H      0.079694633202    5.428795264880    2.953742221318
H      1.554262804104    5.950572137132    2.095878392194
C      0.119326747796    4.925008576449    0.821633354524
H      0.421486001958    5.601038787886    0.012877205821
C     -1.361476116395    4.743439193196    0.872893073626
O     -1.970530498534    4.326697229415    1.841750767768
O     -1.957561796998    5.086362522317   -0.282768357059
Pd     0.994633046519    3.130582076850    0.353463027695
C     -0.489318639084    2.696981865573   -2.093080995258
O      0.462836552255    3.411693897158   -1.637365363359
O     -0.995521026548    1.702189781984   -1.539241952923
C     -1.025804865898    3.087718653287   -3.480657379251
H     -2.120779921781    3.016079197328   -3.424734245743
N     -0.722245111190    4.467064066176   -3.807617230438
C     -1.679276040742    5.444110802503   -3.794463107575
O     -2.875873331867    5.206252999397   -3.713519299477
O      0.100409864456    0.080857393621    0.030525399632
H     -0.333581945981    0.854324353982   -0.512752139656
C      0.704251141871    2.676608018002    2.755929982240
C      1.265716003583    1.478205250174    3.258172528152
C      2.645928587648    1.425562181478    3.515842394713
C      3.432989836174    2.571627104419    3.265961247831
C      2.882215213761    3.749475642850    2.785330161249
H     -0.383577334760    2.763589498916    2.680860661973
H      4.507255843479    2.525306799089    3.464284830332
H      3.514540342475    4.626594412679    2.624663101286
C      0.374751340321    0.294497425105    3.534941819289
H      0.695514269245   -0.595990035339    2.970134172482
H      0.398465661668    0.016640912235    4.602732754771
H     -0.667227873497    0.505529191564    3.259213595214
C      3.283488605765    0.172475768752    4.060113290632
H      2.832274501591   -0.125474817309    5.021623303834
H      3.147805362747   -0.679268522726    3.372556841781
H      4.362706703802    0.307150099109    4.220308678788
C     -3.388570166942    4.905533916156   -0.387124824351
H     -3.572063255234    4.834212556216   -1.467313026487
H     -3.658613924629    3.958213032111    0.102266285786
C     -4.147959956598    6.071435975070    0.224037560073
H     -3.850262762792    7.022345679490   -0.245403375655
H     -5.228852571006    5.935900594365    0.057264745610
H     -3.973167528147    6.136193237549    1.308126823013
C     -1.150191095121    6.866565916874   -3.872617588311
H     -1.858989722375    7.478704904557   -4.446258615121
H     -1.103094242131    7.274473208554   -2.849522033316
H     -0.149203830727    6.934341461585   -4.324464039143
C     -0.509551879885    2.104995676575   -4.541158622526
H      0.586114015768    2.173045988956   -4.644936642539
H     -0.766008100304    1.074155505019   -4.256375341625
H     -0.963765318144    2.328516836652   -5.518003588392
N      2.075030595145    1.232563485558   -0.082941947062
C      1.409974887143    0.097708783666    0.000992222961
C      2.084793047379   -1.190470043409    0.107707670564
C      3.501904339759   -1.231649911580    0.061386042263
C      4.218900361318    0.020368239421   -0.139428661939
C      3.459129921130    1.222348716563   -0.216225368581
C      1.334803846872   -2.378159247002    0.254430669740
C      1.979183178793   -3.598510776852    0.378948277392
C      3.386157747457   -3.649480037304    0.350281028241
C      4.132789210354   -2.491241107965    0.191969919965
C      5.623975899227    0.098966659242   -0.275321295560
C      6.263387667021    1.310312082766   -0.488625470521
C      5.506099414093    2.492577323179   -0.577824842562
C      4.128028003141    2.447185722049   -0.442298674520
H      0.246810517408   -2.306668643419    0.267229768332
H      1.399781888428   -4.517360355231    0.495282597075
H      3.897106569508   -4.610728653492    0.448788108239
H      5.220828198179   -2.561242718203    0.167020800786
H      6.221452713415   -0.812301928643   -0.221226917151
H      7.350136310733    1.343325642845   -0.595513868354
H      6.002511386559    3.449107845306   -0.759415521235
H      3.528227157324    3.356391867623   -0.516275470485
