74

C      1.372666593678    2.822840123694    2.182748398886
H     -0.372463105955    4.519030916154   -4.570453485176
C     -0.614868243523    4.656479679365    0.592995638819
H     -1.178621826081    4.738918552168   -0.342491504404
H     -1.150361735934    4.314008203727    1.482064475940
C      0.630783670171    5.233933340088    0.731409793430
H      1.086114740284    5.344715493174    1.717305946886
C      1.290626960828    6.033857646381   -0.351037199115
O      0.758048823573    6.464685547606   -1.343550922034
O      2.585996515668    6.248130776853   -0.047713620317
Pd     0.926261952311    3.086933106725    0.246337066753
C     -0.562929858304    2.521929103846   -2.247438488403
O      0.359563809729    3.283206435761   -1.834988343405
O     -0.972480098343    1.479687742465   -1.679519878177
C     -1.277131136746    2.873979323303   -3.567838539075
H     -2.341208972370    2.711144275086   -3.340345511724
N     -1.135810783406    4.260987388963   -3.957624681843
C     -1.766641018389    5.252312743931   -3.258513039964
O     -2.516234843841    5.005260024804   -2.322488642038
O      0.188409779582    0.010105467974   -0.064396451065
H     -0.295790459912    0.724522395202   -0.673830714075
C      0.510351091762    2.032544623985    2.954108664052
C      0.766701781892    1.764647046704    4.309829263835
C      1.927082067931    2.302553771420    4.913466102569
C      2.784862560306    3.087378029992    4.132203350802
C      2.519868901451    3.352710930029    2.782736812160
H     -0.380420783573    1.589680925225    2.498066912353
H      3.685870996980    3.507696289272    4.590385791407
H      3.214992585456    3.978449733487    2.215395252060
C     -0.187908425966    0.907195406771    5.104724494646
H      0.312154193349    0.011983083705    5.512803294094
H     -0.602758264106    1.453504458439    5.969344426094
H     -1.031256014666    0.567335969150    4.486408213395
C      2.237715339303    2.037433974868    6.366527947667
H      1.435955214448    2.403882501200    7.030656584311
H      2.343361672543    0.958280821517    6.572573640054
H      3.173653903841    2.528320357427    6.671406126052
C      3.348289243039    7.029742121851   -0.983908844566
H      3.347297372026    6.515501009104   -1.958934598502
H      2.843733437291    7.998557604272   -1.130378060166
C      4.747618523878    7.197280972048   -0.430036923289
H      5.243341506740    6.222707157810   -0.300998104590
H      5.354171123023    7.802387067840   -1.121658014954
H      4.727016649547    7.705794112233    0.546123631282
C     -1.475168358727    6.668926963113   -3.714960090175
H     -1.163025045734    6.724581471962   -4.768961148553
H     -2.376566918915    7.278048253960   -3.563877101018
H     -0.674116187212    7.071817299913   -3.077663056891
C     -0.877110886337    1.894896999510   -4.700179152428
H     -1.004040142824    0.893334701551   -4.255029906147
C     -1.838403457918    2.015239750599   -5.889917895909
H     -1.613822698253    1.271507473484   -6.669539440666
H     -2.880603558541    1.857116785401   -5.570943021570
H     -1.781778070614    3.015285171472   -6.349943913830
C      0.604102934104    2.033291338243   -5.110985194111
H      0.751898969843    2.982909234821   -5.660217894917
H      1.223009737434    2.112551974165   -4.201491474069
C      1.133231002219    0.881559160313   -5.970004067548
H      0.608440498252    0.805655239633   -6.935463318396
H      2.204841487171    1.012321721447   -6.190044785485
H      1.015918585238   -0.085078382941   -5.452173904368
N      2.079681966964    1.324883269255   -0.107305920676
C      1.494152180782    0.108370148581   -0.089094838177
C      2.276812351950   -1.084683082646   -0.073096722947
C      3.656468547940   -0.951207838857   -0.125840984140
C      4.251627939778    0.320879491558   -0.192671416391
C      3.426194119145    1.428710268552   -0.172310599696
H      4.282338068382   -1.848318296340   -0.125467697520
H      5.334266611860    0.443226454687   -0.245099124912
H      3.831960869635    2.442163293249   -0.193052720960
C      1.571406279818   -2.410074965051   -0.018538796151
H      0.963168909332   -2.496621435277    0.896641590286
H      0.870667942318   -2.516227135891   -0.862216947774
H      2.288234407342   -3.243513589800   -0.043741596941
