74

C      1.671286844658    4.021818574575    2.195500095774
H      0.457897763683    4.363941290234   -3.912162507814
C      0.982186404549    5.298147756953    1.710908259129
H      0.321440065776    5.693256671302    2.499314122256
H      1.741550437697    6.059431770910    1.482578943828
C      0.203287905831    4.913690702891    0.454958024793
H      0.449920172071    5.473444201478   -0.454647809668
C     -1.269982121274    4.743368270753    0.637966831039
O     -1.795967032667    4.462827726938    1.699798399723
O     -1.949600710399    4.920103830940   -0.507345024074
Pd     0.983570844029    3.038997995313    0.177833672969
C     -0.518315177308    2.535085110205   -2.246344500969
O     -1.174750604338    1.714906081149   -1.573464510682
O      0.526996676184    3.149422021163   -1.848352284022
C     -0.945163942665    2.809483063226   -3.694240582433
H     -2.042632273949    2.828717110918   -3.719867646654
N     -0.503746300297    4.123400982930   -4.124486153159
C     -1.375814187921    5.118049323226   -4.462570865309
O     -2.581404029295    4.939988466129   -4.565402397354
O     -0.129199298615   -0.050112451354   -0.104128278822
H     -0.517940437583    0.777525220064   -0.584915412978
C      0.882687127280    2.916202164666    2.609003587613
C      1.462434013233    1.768968139080    3.208250657064
C      2.855167317398    1.713019600117    3.375284992137
C      3.640029591668    2.804040698066    2.935777207307
C      3.075726745521    3.929428470925    2.354419747174
H     -0.205716539693    3.025813645332    2.613640885414
H      4.724732844303    2.755960885940    3.067355573916
H      3.708330730437    4.766791568314    2.048245401033
C      0.574573317801    0.644006840725    3.674813478390
H      0.834390055786   -0.307423583627    3.181183703453
H      0.678980806309    0.472690505958    4.759686163894
H     -0.482829948561    0.853158227424    3.462573708321
C      3.512962604385    0.518381811212    4.017921072361
H      3.156669579132    0.370338436655    5.051506078389
H      3.284102341975   -0.410558163882    3.470054463339
H      4.605916232676    0.625955815000    4.045004706134
C     -3.371121812021    4.655970480669   -0.505188011504
H     -3.502203598574    3.602727996805   -0.804372194507
H     -3.744989224621    4.768317304953    0.522006338397
C     -4.054040302472    5.601049257041   -1.473109557753
H     -3.679261936267    5.475679874899   -2.500088693157
H     -5.136899319761    5.396554541775   -1.477955903650
H     -3.908486182052    6.648741053937   -1.164423247210
C     -0.746735238483    6.483669768920   -4.686408716524
H     -1.263116920374    6.978136502987   -5.520460825360
H     -0.908055318907    7.096931037702   -3.784797712469
H      0.332974435902    6.439376688341   -4.893254192561
C     -0.424523325036    1.711670657329   -4.653418457085
H     -0.749108311482    2.006146938818   -5.666947332683
H      0.679779809375    1.756054829248   -4.658467637462
C     -0.870922673579    0.262403503447   -4.383563366332
H     -0.500066444836   -0.033048620961   -3.386649534372
C     -0.232078057253   -0.674693521988   -5.417713071089
H      0.867493733047   -0.591816210850   -5.417684643712
H     -0.489271530229   -1.726694932174   -5.213848097436
H     -0.582683477173   -0.438854342164   -6.437490520848
C     -2.397307851571    0.110271414525   -4.365772888732
H     -2.682510974234   -0.947924989973   -4.248685966015
H     -2.845747808955    0.665195428917   -3.529132019822
H     -2.846131688580    0.474277954553   -5.306473972168
N      1.910328669973    1.041655472146   -0.039556764586
C      1.174500485391   -0.092684004848   -0.024565123946
C      1.804608256514   -1.358694702795    0.102702706591
C      3.180221463429   -1.431582008471    0.177592305797
C      3.935237120158   -0.243435240597    0.119763801462
C      3.251428418266    0.959141486271    0.009569642634
H      1.171259778408   -2.246159425144    0.116663644741
H      3.681426375795   -2.398528753858    0.261952448081
H      3.794529207213    1.905107791284   -0.030914412801
C      5.430130882552   -0.265851978400    0.261008265564
F      5.805955404717   -0.325413625921    1.559299384341
F      5.970574095458   -1.337260980254   -0.343608359824
F      6.002100507820    0.833345453792   -0.257813312479
