73

C      1.553899979629    3.877495720887    2.454023332494
H      0.226329586565    4.696071590992   -3.663154754561
C      0.871936892749    5.192543613973    2.069122731263
H      0.170615629116    5.498514657215    2.861879713794
H      1.631575954504    5.979103329603    1.957033668607
C      0.157727767303    4.933130697089    0.744627140791
H      0.455828208438    5.574904060319   -0.092881032357
C     -1.326014539694    4.776326794490    0.830489768454
O     -1.918429151371    4.388379563808    1.820859484223
O     -1.938882792905    5.106698016490   -0.318154328506
Pd     1.001767800600    3.116868031028    0.322988713853
C     -0.483008154136    2.635788632471   -2.133320178132
O      0.460546091911    3.356662682972   -1.671511574201
O     -0.943068226019    1.602955788405   -1.603455446395
C     -1.094851102930    3.070153077351   -3.472630473759
H     -2.183872119726    3.063848551247   -3.320991786583
N     -0.743412683826    4.436960263149   -3.804764823616
C     -1.674209369206    5.441468521704   -3.796685038845
O     -2.876575644630    5.234358212031   -3.721416094637
O      0.228299174294   -0.069037499431   -0.202221305756
H     -0.242733200992    0.740829023916   -0.685483380994
C      0.755401302886    2.735528445177    2.726113766805
C      1.312536144351    1.541067097712    3.245279426551
C      2.696606635126    1.477483670838    3.477189914530
C      3.494926135041    2.604756745974    3.175659747957
C      2.949973670892    3.776701900580    2.672725877042
H     -0.332854207628    2.837291277660    2.676872321075
H      4.573278156447    2.548139415070    3.348047684121
H      3.590878150165    4.639701205108    2.473914196232
C      0.412038497470    0.374287557856    3.560596024958
H      0.684504887604   -0.518245047821    2.972645232969
H      0.482961895271    0.085561893511    4.622813078479
H     -0.638326297570    0.608741535463    3.340049927108
C      3.328379285029    0.233263176840    4.048041942035
H      2.911762218610   -0.010189130082    5.040080427778
H      3.141576426843   -0.645006144988    3.407653241614
H      4.416131660921    0.346667739621    4.158510137031
C     -3.377662099083    4.965358382402   -0.387204864458
H     -3.586068416126    4.877984597951   -1.461623305670
H     -3.663207345839    4.036657487571    0.128430187054
C     -4.088461614114    6.165604221862    0.215135805463
H     -3.775444002947    7.096936627591   -0.282439325969
H     -5.176224122219    6.057289358704    0.076193797184
H     -3.887071740883    6.248924571320    1.293323872855
C     -1.106728003548    6.848633421950   -3.871027528076
H     -1.790593157573    7.477941578435   -4.456255185157
H     -1.063576405509    7.258563366374   -2.848600153847
H     -0.098218284122    6.888214271004   -4.308988242797
C     -0.772757857164    2.044358224988   -4.595180062851
H     -1.073415729125    1.065969362004   -4.181377548473
C     -1.627616005937    2.329210395691   -5.835375777514
H     -1.495869656723    1.552074039845   -6.603239438568
H     -2.697570349622    2.368809558737   -5.579319272907
H     -1.359366458747    3.299115153150   -6.285002881944
C      0.734671892998    1.983069079785   -4.909407087081
H      1.051722181867    2.950631542585   -5.339827336245
H      1.295264938725    1.874897158605   -3.964250112155
C      1.147971348368    0.849791405778   -5.851880277004
H      0.706177458713    0.960406375394   -6.854502894966
H      2.242027391291    0.821804764310   -5.979111392924
H      0.834068885012   -0.131575805831   -5.457850244555
N      2.124736614396    1.234886498483   -0.040943575827
C      1.519202699526    0.019945985951   -0.104389181175
C      2.288143362614   -1.176925353536   -0.041353689195
C      3.662094764749   -1.107461485609    0.035201652299
C      4.258042818153    0.164882070944    0.055600724501
C      3.461797200568    1.301228726619    0.017350214735
H      1.754613976403   -2.126987641955   -0.082332907125
H      4.291541815486   -1.997259255501    0.069539778396
H      3.922715109030    2.288870955788    0.050138020063
N      5.710346225721    0.304412105630    0.144660962323
O      6.169764590746    1.435965713489    0.209332222249
O      6.372575707407   -0.722059578030    0.156435733340
