74

C      1.379906891957    2.807769903412    2.217877895986
H     -0.690599035398    4.565016560670   -4.531358872146
C     -0.603363385769    4.633137649544    0.672110030167
H     -1.239695587758    4.677080949267   -0.218704380116
H     -1.070506803037    4.340484407817    1.615687200248
C      0.657458889099    5.194335914080    0.684232632715
H      1.192291411903    5.340338226241    1.625092037913
C      1.235919858546    5.939200892861   -0.481347229627
O      0.618847212694    6.389459322410   -1.414702449731
O      2.566632714552    6.083828130590   -0.329544156212
Pd     0.885112482975    3.025559038114    0.287728428048
C     -0.669299601279    2.480855915300   -2.162796227787
O      0.297509399504    3.205959136578   -1.785303740984
O     -1.138389996357    1.496066085073   -1.542880298132
C     -1.317355362220    2.794598053704   -3.525424361344
H     -2.358500768759    2.453431190371   -3.430837436710
N     -1.337087985530    4.212259947758   -3.836260302635
C     -2.006291227928    5.102750259070   -3.049413077082
O     -2.639075858909    4.740695374855   -2.064840362088
O     -0.009288677254   -0.036692195820    0.055683727782
H     -0.468628472390    0.700263910218   -0.531634831838
C      0.529413094714    2.059331430926    3.042730361385
C      0.823961819449    1.831412528440    4.397813640213
C      2.012397409083    2.367116866593    4.946721423419
C      2.858985680842    3.108807900761    4.113055313447
C      2.555531516381    3.334185725201    2.764262086676
H     -0.383573770013    1.619065922680    2.629939747811
H      3.781833211380    3.526415673144    4.528352717185
H      3.245434889546    3.924821533079    2.154098748366
C     -0.119662311139    1.018390573880    5.250380760447
H      0.377594391959    0.128035470280    5.672299534667
H     -0.497305055453    1.600398272108    6.108758028989
H     -0.987850707984    0.673823029626    4.670270139404
C      2.363895970283    2.144575258039    6.397638058939
H      1.590815289151    2.549289200628    7.073456497927
H      2.455097773278    1.071031670038    6.637186312969
H      3.318286383488    2.626368608124    6.656399802688
C      3.260200032298    6.804616777252   -1.362770154385
H      3.111868764965    6.280703879627   -2.321055636947
H      2.803566290484    7.802373809648   -1.466649511672
C      4.722907356933    6.887790161607   -0.979935786584
H      5.168315827448    5.884630826373   -0.893447009407
H      5.280091563245    7.445979019684   -1.748315057275
H      4.849850690840    7.406055122334   -0.016992534998
C     -1.908014150201    6.558565714743   -3.463670412053
H     -1.700330699116    6.686864974840   -4.536953362871
H     -2.851167741569    7.059792841253   -3.207833693039
H     -1.097756757047    7.021897730372   -2.881416841874
C     -0.617425574420    2.038728136802   -4.670081090864
H     -1.132216376424    2.315379545222   -5.608930978931
H      0.415700487241    2.423943767428   -4.751549992921
C     -0.566982806006    0.503045285064   -4.566761166141
H     -0.013903251130    0.241542320294   -3.647744680592
C      0.210475557764   -0.069187262061   -5.759757955257
H      1.224454063010    0.358634626794   -5.827915766416
H      0.312818216280   -1.163387737981   -5.679549806423
H     -0.306261378009    0.146562604498   -6.711255608286
C     -1.960193609535   -0.129561040116   -4.456969882598
H     -1.889592049694   -1.229507955407   -4.463163236196
H     -2.458603109007    0.163541461732   -3.522011295261
H     -2.601150516479    0.166373296975   -5.306285938572
N      1.938019894148    1.197559977887   -0.039891460415
C      1.297627837117    0.007407433038    0.012858421749
C      2.038227800838   -1.199103962119    0.045254081851
C      3.423896915706   -1.185116940078   -0.016002584075
C      4.060532837319    0.073790738250   -0.115817241400
C      3.287822538601    1.218209228534   -0.115472192885
H      1.471905693702   -2.130040937571    0.102596230241
H      5.147449488881    0.154297423104   -0.177881888592
H      3.750006598224    2.206549685496   -0.163310822114
C      4.232208682021   -2.454874803469    0.012050829730
H      4.909558319457   -2.466277961941    0.882153202232
H      3.590476871679   -3.345492328617    0.065303617249
H      4.864523834293   -2.537844808778   -0.887316749274
