62

C      1.573083133035    3.914860470052    2.472474909854
H      0.204056566900    4.654519595872   -3.741017342878
C      0.888144276326    5.222736852496    2.074074724560
H      0.192573928653    5.540407303913    2.867637826952
H      1.646465530553    6.008396455056    1.945199420372
C      0.162811776806    4.944033439241    0.758938868268
H      0.454912107375    5.573295787410   -0.090007249956
C     -1.318373352601    4.792203223852    0.859929565671
O     -1.906149316890    4.433514453439    1.864715369189
O     -1.940595990349    5.086448546560   -0.295077289666
Pd     0.984565945328    3.107859145918    0.355214770471
C     -0.528257709081    2.627352737419   -2.066362266416
O      0.447190443555    3.331896921490   -1.638816070078
O     -1.042148345627    1.650453076116   -1.495570404433
C     -1.074800566039    3.020514667327   -3.442843499921
H     -2.166229709070    2.906712206904   -3.430749522613
N     -0.766267975336    4.375726720561   -3.831527416033
C     -1.716406448246    5.361121731404   -3.811034523562
O     -2.910280519169    5.133135783558   -3.685070224122
O      0.094501512175   -0.025214842470    0.023681992689
H     -0.352295490475    0.752686111031   -0.480299857137
C      0.777956628806    2.773078613411    2.753015185306
C      1.340965130023    1.580579432840    3.272339896098
C      2.725804884186    1.518896370561    3.494236033356
C      3.518408156092    2.649273975411    3.191712480840
C      2.969372293411    3.818574586987    2.688129955980
H     -0.310808483486    2.874066544051    2.715636510181
H      4.596321588034    2.597576770307    3.370105907611
H      3.605800391497    4.684553651454    2.487247422739
C      0.444976649821    0.412958156167    3.595230845511
H      0.723027504404   -0.481269954567    3.013265473971
H      0.515728617008    0.133193656753    4.660112529576
H     -0.605561232144    0.640331413961    3.369303305034
C      3.365092413110    0.271657975373    4.049632641697
H      2.933426752164   -0.004609857185    5.026331268569
H      3.207051016410   -0.590751708356    3.380327359629
H      4.448770204035    0.399612021047    4.183781178732
C     -3.375637841594    4.918924325573   -0.354777609314
H     -3.586409400158    4.792415936942   -1.424795445676
H     -3.644619187662    4.003225622666    0.191960507561
C     -4.105376390724    6.126332896484    0.209966342256
H     -3.809177630349    7.045781714067   -0.319215425463
H     -5.191764469055    5.995810895173    0.078671121369
H     -3.901473216996    6.248519214815    1.284010357227
C     -1.180227484574    6.776352720884   -3.946053757465
H     -1.900005676147    7.376096995330   -4.519153721382
H     -1.103900314876    7.214819951287   -2.937484457014
H     -0.191255828347    6.823485618407   -4.426065695666
H     -0.675662204464    2.293394613484   -4.173050164195
N      2.045679230053    1.209427605073   -0.013943564084
C      1.409924383571    0.022335895183   -0.010341218415
C      2.125493820914   -1.210982022533   -0.015269882858
C      3.511655981896   -1.146239000001   -0.075298193156
C      4.167199380643    0.095239441980   -0.129522614295
C      3.392657360737    1.241806132961   -0.093254130475
H      4.091178083224   -2.073861697520   -0.097024049705
H      5.253966538572    0.164963545004   -0.194866232685
H      3.846799037440    2.235354986170   -0.117249787510
C      1.355799216786   -2.501705365244    0.009933791354
H      0.735372055596   -2.580034178763    0.917839974471
H      0.657133006112   -2.556814794854   -0.840354898422
H      2.031094418629   -3.368726075999   -0.028470920065
