65

C      1.512014052115    3.917844952560    2.555545541913
H      0.229972469303    4.695698623661   -3.677893258648
C      0.810623250752    5.220348048115    2.166962695714
H      0.085839083258    5.503837101648    2.947314207347
H      1.555806761738    6.024288467157    2.080926562802
C      0.129913528533    4.964164670473    0.824206293370
H      0.427423304098    5.628648292398    0.004243396327
C     -1.349812851625    4.774271687465    0.880241797226
O     -1.954191987215    4.369951207417    1.857262080286
O     -1.949692190871    5.093518752863   -0.279969646438
Pd     1.011784037669    3.166401460650    0.381380003345
C     -0.486195093011    2.686624157649   -2.031212451000
O      0.480788560867    3.410868893968   -1.613159969402
O     -0.993331538872    1.721246067417   -1.434817394497
C     -1.030968296019    3.034426711986   -3.427720039677
H     -2.125222036100    2.960150438258   -3.364451194278
N     -0.734307937016    4.405091189237   -3.796865137084
C     -1.696149915844    5.377443548633   -3.813277397944
O     -2.891629963557    5.136667103531   -3.725626065875
O      0.109149264977    0.123710037617    0.219431839794
H     -0.326754747548    0.864703160572   -0.338379522118
C      0.736299297253    2.751416640876    2.782671086572
C      1.307324850376    1.563730210582    3.301611919303
C      2.686128722739    1.528149885883    3.568056054140
C      3.460818069834    2.683514746442    3.321164601033
C      2.900177276393    3.851635972214    2.826306866331
H     -0.352169995291    2.825914385886    2.703452275582
H      4.532237071438    2.654309779150    3.539551267049
H      3.520500996771    4.739294289413    2.675080550068
C      0.426269948492    0.375950458550    3.590503701493
H      0.755456987449   -0.517049692923    3.035249402634
H      0.451373986687    0.112298923349    4.661884151972
H     -0.616422937637    0.573398131730    3.308955314849
C      3.333902531557    0.285061358195    4.122830386518
H      2.880456858680   -0.013536767172    5.082994640469
H      3.209580749523   -0.570015520485    3.437298059119
H      4.410837592105    0.431241156236    4.289196351249
C     -3.379151967205    4.897313122141   -0.380261960260
H     -3.562945651586    4.807449316654   -1.459048883440
H     -3.639378885360    3.954795181196    0.123395140973
C     -4.149398466493    6.065050316625    0.213507372895
H     -3.860916580858    7.011603728467   -0.270312795847
H     -5.228965557047    5.916671610456    0.049163286524
H     -3.975017397010    6.147825469072    1.296419945847
C     -1.173633899502    6.799505381796   -3.933985179349
H     -1.885421201058    7.390864628621   -4.525446190757
H     -1.127972302638    7.238431755926   -2.923730336519
H     -0.173146900271    6.858302873260   -4.388238195948
C     -0.516237868982    2.023037508807   -4.461500976924
H      0.578833468589    2.091457746889   -4.572082909414
H     -0.768213504289    1.000069855517   -4.145739476779
H     -0.975045921018    2.216316990761   -5.442682722655
N      2.092037260547    1.272550828210   -0.056838238418
C      1.419797312679    0.111170703571    0.088809071676
C      2.099852748120   -1.127171359806    0.126886514492
C      3.471170951502   -1.139618957933   -0.060517911071
C      4.147872310059    0.066112194596   -0.295895201516
C      3.428151374609    1.260028930690   -0.291925769897
H      1.513094500751   -2.035823469090    0.265435314118
H      4.019059273679   -2.085707905918   -0.051584556311
H      5.222288814028    0.081077869078   -0.484164031157
C      4.099108519907    2.580066466995   -0.557246970526
H      3.584221641902    3.113537661991   -1.371635376888
H      4.056045981863    3.226316828992    0.332998409073
H      5.153094198398    2.439170255041   -0.834466081024
