65

C      1.523101683244    3.947696559976    2.338409572070
H      0.756989222425    4.190182348945   -4.024689062188
C      0.793641723278    5.210630428526    1.879282912614
H      0.060918478814    5.521740369716    2.641378611992
H      1.520114756415    6.024980572993    1.745966473245
C      0.121911208250    4.857383399404    0.554282020492
H      0.400250702937    5.476737931095   -0.306340534230
C     -1.348157989628    4.609143519412    0.623049340906
O     -1.936571323325    4.252637235299    1.628051564441
O     -1.952939733911    4.808789232727   -0.560996246147
Pd     1.018907287911    3.039346916584    0.235331678341
C     -0.360935730560    2.509219014033   -2.249616036747
O     -0.964904898656    1.602606503397   -1.646330830266
O      0.610740547578    3.199765169696   -1.797757214599
C     -0.781626025253    2.802439684288   -3.689947768640
H     -1.876194451355    2.885920483781   -3.732102279847
N     -0.218153825556    4.012792640893   -4.235463200767
C     -0.999377230445    5.056665106852   -4.646302031313
O     -2.216091388537    4.982764765340   -4.733745464010
O      0.102820487826   -0.068407672738   -0.085474360984
H     -0.318496671880    0.717615675991   -0.608002098777
C      0.773570277082    2.779734458699    2.636433584674
C      1.377263068250    1.631055488420    3.208212508084
C      2.756754010621    1.640208746500    3.466446310373
C      3.504740404817    2.795568519704    3.144157547437
C      2.916986727369    3.921162181771    2.587886652278
H     -0.317386563661    2.830633027881    2.574105458682
H      4.578988141834    2.799510027908    3.350173960676
H      3.519001221997    4.807985445216    2.372631603240
C      0.526747095476    0.434609760012    3.549070207844
H      0.875197120503   -0.471639067356    3.026552558827
H      0.563972319597    0.209483738855    4.628689500791
H     -0.523042089819    0.597150074666    3.269662884021
C      3.437187353561    0.443672002728    4.081300711038
H      2.987969586939    0.176914117233    5.052668093670
H      3.343954764060   -0.446309076236    3.436389652766
H      4.508388512151    0.629591146472    4.244880454081
C     -3.356208577273    4.488955120408   -0.672073127500
H     -3.427236475166    3.426306173313   -0.959854779271
H     -3.822032671649    4.602211730117    0.317213071189
C     -3.984070583682    5.394736202066   -1.712516752088
H     -3.503382322612    5.283343812689   -2.696338385519
H     -5.051455682150    5.143094129437   -1.820888382344
H     -3.913517105903    6.450068274099   -1.403802899614
C     -0.249120933065    6.334022705006   -4.987356616319
H     -0.676464942696    6.758862526563   -5.906402094453
H     -0.414033692831    7.065222758839   -4.179616612996
H      0.833379652963    6.187708188622   -5.117631076034
H     -0.506978910643    1.914415124702   -4.288993013672
N      2.070329881212    1.123224709460   -0.034478211798
C      1.412872402523   -0.035226276245   -0.036941739636
C      2.113969309579   -1.297140122396    0.044421519372
C      3.539399432078   -1.283020385598    0.080470622390
C      4.195856533053   -0.016925392131    0.026029823097
C      3.439037748003    1.122630723049   -0.026922066608
C      1.415526502235   -2.529227550450    0.073179794514
C      2.114151541638   -3.719874920705    0.151276236384
C      3.528501849762   -3.712789772394    0.194393571482
C      4.228999377790   -2.521551303683    0.157133194518
H      0.325757879713   -2.511633462180    0.031135461330
H      1.575814203322   -4.670331596414    0.174571138114
H      4.070762830722   -4.660150438744    0.253388817779
H      5.321720523194   -2.519107322416    0.184430699355
H      5.285676959007    0.043687770512    0.029639473530
H      3.905363605126    2.109680771744   -0.057659783082
