71

C      1.407148930870    2.829761847851    2.317065901659
H     -0.705249169540    4.712874822080   -4.364026160578
C     -0.589111020384    4.561683673783    0.722541994809
H     -1.259353010787    4.539923002217   -0.142572912947
H     -1.026967207182    4.355590788740    1.702295425833
C      0.671462079983    5.124191042402    0.645560209878
H      1.234749539591    5.344204381851    1.554397161396
C      1.210694188303    5.778552328901   -0.589174425359
O      0.573630555189    6.090339295685   -1.567436797871
O      2.528014251967    6.013972248215   -0.454507712563
Pd     0.867630343516    2.931271096523    0.403179899980
C     -0.671974210454    2.327415882101   -2.302819033233
O      0.216967682253    2.973199284825   -1.730261185787
O     -1.215584946495    1.241411148991   -1.860845522557
C     -1.202372642051    2.753920611857   -3.678748055348
H     -2.206928297795    2.306038522817   -3.735456523357
N     -1.343110284558    4.192179570824   -3.776288924820
C     -2.147776732138    4.877933221931   -2.910620745398
O     -2.750219539303    4.300478386515   -2.014298155585
O     -0.128308242628    0.255062466841    0.151990247072
H     -0.780355609205    0.867257958153   -0.984880331331
C      0.595365513417    2.079104145315    3.175148946743
C      0.916294605903    1.924805085820    4.534538101605
C      2.087375651246    2.534252902413    5.043392571231
C      2.893692579631    3.272667510157    4.168274755814
C      2.567676936826    3.427734419687    2.814531441263
H     -0.296500336947    1.579888500498    2.785316477712
H      3.804396978320    3.743071518254    4.552057448763
H      3.226808832859    4.013214439750    2.167598650070
C      0.020893060085    1.106630175443    5.432576554392
H      0.563438941393    0.256640899974    5.880673453591
H     -0.369627192288    1.705966836211    6.272962089889
H     -0.838642202458    0.701367779628    4.879782481943
C      2.465910310808    2.388003021803    6.497017952838
H      1.682189111929    2.783186908423    7.166007929798
H      2.610572112615    1.330420472034    6.777176944071
H      3.399531492802    2.923657869935    6.723099380925
C      3.190640822761    6.661120263985   -1.555482867063
H      3.086831382417    6.028281008498   -2.451987203971
H      2.675251149906    7.611609722370   -1.769202126909
C      4.640450458642    6.873805083743   -1.174346388792
H      5.143301820469    5.914951857113   -0.975405289491
H      5.173164541378    7.377464363139   -1.995846742318
H      4.723385450609    7.501163694927   -0.273584815916
C     -2.234170751227    6.375119873875   -3.126937743163
H     -2.138210283771    6.654160066690   -4.187257553089
H     -3.196151891337    6.730362599619   -2.735511621445
H     -1.420064940133    6.851717714666   -2.560858138115
C     -0.359804823433    2.172284562579   -4.866519610855
C     -0.265218789433    0.639692558331   -4.735388478785
H      0.232283685924    0.221638352766   -5.624724777298
H      0.314553732908    0.330128114005   -3.853639389060
H     -1.261721554503    0.178932130648   -4.654228709626
C     -1.090437858478    2.502777806528   -6.184241896437
H     -2.101925807463    2.066388325081   -6.195627091597
H     -1.193864210240    3.586441726867   -6.345575915442
H     -0.534500694973    2.089150769015   -7.040663408647
C      1.064287022591    2.761845860852   -4.895615141768
H      1.069518738604    3.853253988511   -5.052107695803
H      1.607136023063    2.558993360045   -3.960945373928
H      1.635129887255    2.317973478670   -5.726694376085
N      1.970437866519    1.129985202183    0.152885999920
C      1.122071390272    0.058043844144    0.100513372707
C      1.734834553517   -1.242356055089   -0.008364471632
C      3.107125908533   -1.386178582909   -0.049363031266
C      3.915855025840   -0.234581823698    0.013813823719
C      3.310102932155    1.004793544734    0.123484655541
H      3.556614770253   -2.376909957810   -0.129887633133
H      3.903295439803    1.918232808518    0.195549866406
Cl     0.690818927884   -2.629376529030   -0.080437619649
Cl     5.656941699126   -0.367529931676   -0.034913674316
