78

C      1.504907071773    3.878847541173    2.564289564460
H      0.239037445630    4.754560157863   -3.710457161324
C      0.839788934893    5.209084447911    2.203139919240
H      0.129744085206    5.501525895020    2.993556282598
H      1.608384829912    5.991287387933    2.123570350889
C      0.142549852041    4.993851921713    0.862041605854
H      0.449304846113    5.664498553100    0.050475099239
C     -1.341121171486    4.838041415924    0.925355568920
O     -1.949268770722    4.436501980694    1.901254098719
O     -1.938571488923    5.185538768744   -0.227120523223
Pd     0.987308316501    3.187228651831    0.387878505727
C     -0.525922946150    2.759011123327   -2.033442228089
O      0.441795950639    3.467779123570   -1.599162688309
O     -1.042117312184    1.783315146099   -1.458218514502
C     -1.062684673113    3.131167668609   -3.426805064349
H     -2.158547790242    3.077462624585   -3.369660281968
N     -0.736633591466    4.491380724242   -3.793081418248
C     -1.670985394196    5.492207128202   -3.771924656720
O     -2.866926171207    5.285990713781   -3.631568853495
O      0.065951348668    0.123583092563    0.097794449414
H     -0.369335453021    0.901291697045   -0.419913817448
C      0.693865069308    2.736421959977    2.791991086834
C      1.231989917552    1.525737199861    3.289428448632
C      2.612733372776    1.442778799819    3.536660999245
C      3.422965216432    2.571634759583    3.283284203506
C      2.894624198718    3.761970680656    2.807555325150
H     -0.392175917663    2.846994575294    2.722846335049
H      4.497203295989    2.501960022947    3.475065896047
H      3.544608644176    4.625674553124    2.644499621108
C      0.317305609469    0.361104331235    3.569028180460
H      0.597905943641   -0.525605889566    2.977285327653
H      0.361287659588    0.061838796989    4.630160776433
H     -0.725339843605    0.604156786701    3.324083965523
C      3.226281593674    0.174507880220    4.073173308172
H      2.783555028832   -0.109984212389    5.042710420956
H      3.055048038591   -0.673716239496    3.389244148583
H      4.311276158526    0.280383229559    4.215127521250
C     -3.373213434289    5.029523307979   -0.322187388964
H     -3.563200160371    4.952152135397   -1.400731578310
H     -3.657339276312    4.091696300849    0.177403259507
C     -4.107181969625    6.214677590955    0.282839084579
H     -3.794454342870    7.155490307335   -0.197019216565
H     -5.191364667832    6.097898617264    0.123418268255
H     -3.925011257469    6.286013618698    1.365356886306
C     -1.113095509611    6.897773134405   -3.920194962576
H     -1.822047340000    7.500192946029   -4.503945217494
H     -1.035112584077    7.348037236888   -2.917013362074
H     -0.122183393592    6.925028462042   -4.397502616428
C     -0.561814949475    2.089382808728   -4.460098890642
H      0.538356602396    2.150511070533   -4.518929108546
H     -0.807317068645    1.095553761888   -4.055288946148
C     -1.161657245654    2.255852779464   -5.837261724144
C     -2.446812318630    1.765092039093   -6.120615614422
C     -0.465000371525    2.921665588589   -6.857032622771
C     -3.018108044877    1.934319192999   -7.383785545917
H     -3.006806795413    1.242129916609   -5.339567044300
C     -1.031878316929    3.092592829937   -8.123640056212
H      0.538431246342    3.308200924828   -6.656749589374
C     -2.311747580686    2.599639451341   -8.391051866853
H     -4.019309378111    1.543409371913   -7.583537424226
H     -0.470314864927    3.612036362032   -8.904861403897
H     -2.757089357497    2.731317607049   -9.380592833950
N      2.049430981066    1.281552573850   -0.058923438918
C      1.376626245623    0.136326328006    0.032915737544
C      2.048801352631   -1.130308548677    0.092415192407
C      3.410340561060   -1.174583287826   -0.015870825108
C      4.150447339580    0.031152479580   -0.199194976205
C      3.416867488184    1.258379596367   -0.223098255924
C      5.558787323345    0.053266279305   -0.363331888556
C      6.228907296580    1.245901350054   -0.556004373521
C      5.502074324000    2.458074050403   -0.591896577835
C      4.129048611415    2.467911660841   -0.426889111932
H      1.433559653373   -2.024973326362    0.195000049342
H      3.941930967613   -2.129912490983    0.014647154985
H      6.104325487230   -0.894192044791   -0.340887333024
H      7.313405981631    1.255163281795   -0.686917807220
H      6.031158053473    3.400265497041   -0.756405987969
H      3.566271961495    3.402760831591   -0.460164233732
