74

C      1.571690076439    3.987367958417    2.280901148292
H      0.551064599798    4.363348555025   -3.722494898847
C      0.846399501454    5.245649390402    1.800981577385
H      0.128112872801    5.582739792963    2.565548803659
H      1.578075443609    6.049187452587    1.635683363711
C      0.152122324651    4.864783698708    0.495328122999
H      0.422865674863    5.460254661295   -0.384354851177
C     -1.319383272076    4.629172537355    0.591426387310
O     -1.893645730229    4.297889140936    1.612588132159
O     -1.942565056068    4.810741431496   -0.586481466427
Pd     1.036905308526    3.036937863992    0.212444688392
C     -0.401349818617    2.504148176504   -2.235993299917
O     -1.007982354445    1.629720014568   -1.586026371352
O      0.615961305750    3.156384798362   -1.823315680649
C     -0.878262503093    2.821458483077   -3.658072818049
H     -1.973309918993    2.916269179611   -3.619826455933
N     -0.357628448663    4.105698548887   -4.091380292703
C     -1.164574912695    5.075714623881   -4.612204888648
O     -2.343340647249    4.886160209462   -4.878284740497
O      0.122014311608   -0.103223583964   -0.140303312426
H     -0.307350160588    0.712124177764   -0.606184214115
C      0.815396551354    2.838344214975    2.631917085075
C      1.417938946500    1.701830404844    3.227415346999
C      2.803573197818    1.701872537278    3.452795298008
C      3.559566843230    2.833871270916    3.071063450431
C      2.971349957184    3.949558799352    2.495123480074
H     -0.275870357347    2.899404404763    2.586997226524
H      4.640217846543    2.825861036770    3.237879597420
H      3.580492762205    4.818388005728    2.232494215211
C      0.561366712060    0.527143886254    3.624925990291
H      0.880144131624   -0.396938161748    3.114159885115
H      0.629096556626    0.327138640852    4.707852301472
H     -0.494599514948    0.698777690513    3.375241166822
C      3.482889746518    0.518885758925    4.094882029024
H      3.065549045097    0.306336833190    5.093593735370
H      3.345777770928   -0.397556936098    3.496477403742
H      4.562936012730    0.688527861693    4.209701304159
C     -3.350281637746    4.497020342446   -0.664891373647
H     -3.432557869249    3.427995754547   -0.923917989764
H     -3.796797906717    4.638775286995    0.329477351734
C     -3.995291222122    5.380250425210   -1.714220864391
H     -3.553212629300    5.231174228741   -2.711199111771
H     -5.069285574889    5.142861279316   -1.780462838970
H     -3.899369687885    6.443422152099   -1.441583723105
C     -0.502774958545    6.428328014808   -4.823287852035
H     -0.871618170921    6.858642954330   -5.764580680531
H     -0.809989221500    7.103377128638   -4.007943580683
H      0.596012769618    6.378499380805   -4.845003543315
C     -0.549359062549    1.682903256243   -4.672057292176
H     -0.884686779754    2.092239074056   -5.641050768326
C      0.954418706885    1.404072530406   -4.773937899498
H      1.163309471669    0.693590006011   -5.589789462873
H      1.524566542416    2.323352900051   -4.980636024141
H      1.349282762701    0.962381978645   -3.843341390178
C     -1.349025901183    0.402745528463   -4.406619498401
H     -1.065240173769   -0.062858843834   -3.451417821170
H     -2.430625961784    0.607423728448   -4.364078263996
H     -1.175793370757   -0.328005202477   -5.213486594843
N      2.089443088646    1.109020413811   -0.015427586774
C      1.425560056798   -0.071563475952   -0.051337291647
C      2.131575792130   -1.299570205495    0.033113023079
C      3.509670748579   -1.291825970331    0.107783770472
C      4.194991056612   -0.057980117173    0.105112013956
C      3.430186259433    1.105080476779    0.043744545880
H      1.551951735699   -2.223065882125    0.011885330095
H      4.073676425797   -2.224541680700    0.158718619370
H      3.930120622351    2.075788622403    0.054532528849
C      5.672586781291    0.073064727474    0.183536239570
O      6.267776831443    1.125975614632    0.234398534208
O      6.289154009172   -1.124869428818    0.197775834338
C      7.714634594933   -1.100912577404    0.269244511704
H      8.052313668687   -0.595967856411    1.187008204735
H      8.038554474763   -2.148860277123    0.269541895165
H      8.140263677454   -0.569532689889   -0.595324653625
