69

C      1.619060575193    3.970303987666    2.284287863437
H      0.592181653789    4.319006661593   -3.842684341301
C      0.951882705082    5.254990959423    1.791641840611
H      0.260165984166    5.639781757609    2.558375063911
H      1.720716348440    6.018519320431    1.605735357676
C      0.224307355295    4.888615977249    0.499630517785
H      0.509726595023    5.458994938070   -0.391948380557
C     -1.254488397567    4.722080812681    0.619369197465
O     -1.828346547000    4.437038591915    1.655007956461
O     -1.886835508303    4.906685320888   -0.553101888771
Pd     1.013880366390    3.013276741159    0.232700617028
C     -0.438248569113    2.511282611132   -2.208886663870
O     -1.101475745214    1.689533323148   -1.555417987409
O      0.603887691031    3.130682684109   -1.803495915045
C     -0.865145224291    2.805426350858   -3.656444080362
H     -1.959853816448    2.884899117195   -3.658867636216
N     -0.359010815079    4.090408070126   -4.107395889433
C     -1.177229034854    5.058962129184   -4.609061960987
O     -2.371584563671    4.881679589189   -4.808205717717
O     -0.117519135156   -0.026786787869    0.061675655128
H     -0.489643164745    0.760761727073   -0.475123059660
C      0.811697961624    2.860138638341    2.646125552685
C      1.363217859592    1.700340681844    3.247680931841
C      2.747321116773    1.638322862560    3.471298212530
C      3.551998857632    2.734561016012    3.085105730417
C      3.015419355295    3.871135873457    2.499725692801
H     -0.275737582434    2.972267076282    2.608473665857
H      4.629790147303    2.683729872063    3.265062161524
H      3.661648047464    4.712304920678    2.235108275212
C      0.454297767016    0.569682042574    3.655369362779
H      0.735857992234   -0.373432277864    3.158404839262
H      0.507784793944    0.382533644129    4.741515958026
H     -0.591340839067    0.782821831712    3.395557880231
C      3.373131384656    0.428211972141    4.117063965916
H      2.941187448810    0.231680787883    5.112749385194
H      3.202357776786   -0.480443132428    3.515506330062
H      4.458705358167    0.552562522830    4.239269569184
C     -3.306195246647    4.644099837308   -0.604952948854
H     -3.431471900428    3.573569095674   -0.839234741202
H     -3.732398072836    4.824088251779    0.392105795770
C     -3.934206488736    5.527353214116   -1.664396136528
H     -3.514887616308    5.337832528680   -2.664209162100
H     -5.017480790230    5.330036978585   -1.707830558653
H     -3.793384383849    6.592049865891   -1.418231867086
C     -0.509284092060    6.395636189526   -4.887648864869
H     -0.893275008082    6.788997900104   -5.839176172254
H     -0.797862918010    7.105868833932   -4.096024101104
H      0.588495408775    6.337831995525   -4.928566121178
C     -0.469052710618    1.663129558599   -4.590806345070
C     -1.379035899663    1.202065028536   -5.552449580561
C     -1.017358117498    0.191135382398   -6.447506460428
C      0.261464358856   -0.370686985492   -6.393165990355
C      1.176754037152    0.085438458793   -5.439288575605
C      0.814051060564    1.096132468092   -4.545167450380
H     -2.375930996034    1.647729455400   -5.602030459810
H     -1.738783952827   -0.159123429060   -7.190493076764
H      0.544252233647   -1.162698186016   -7.091559647070
H      2.178594803180   -0.349723550028   -5.389628745505
H      1.535149174147    1.446525467061   -3.801298152485
N      1.941362820978    1.028739662098    0.009536403039
C      1.195293610971   -0.095959899799    0.056993482889
C      1.812907885206   -1.367758412843    0.135418508629
C      3.194441062398   -1.455669173599    0.113995540661
C      3.959936336604   -0.281391816411    0.014716528293
C      3.285918551915    0.929311464985   -0.030675039199
H      1.169268082416   -2.246912808688    0.183847430352
H      3.681909388295   -2.433218730767    0.158903813316
H      5.049842097215   -0.306652706331   -0.021922181224
H      3.830399684605    1.875108281298   -0.090588168692
