74

C      1.520039335504    3.878807410854    2.514181146729
H      0.255483440880    4.664779356999   -3.601186260485
C      0.850951837353    5.199178234694    2.127122910248
H      0.136879712801    5.502683428679    2.909701897219
H      1.615970183246    5.983612602721    2.035548985102
C      0.158851376429    4.954143920435    0.787232318962
H      0.474831112033    5.603299622393   -0.038040320022
C     -1.325187907081    4.808904027726    0.845714165417
O     -1.941166153876    4.424284049364    1.823435554909
O     -1.916609050919    5.145242503345   -0.314641233417
Pd     1.003939334138    3.133231403772    0.364471888722
C     -0.481172708285    2.643817537795   -2.069729184851
O      0.475357375592    3.369366964822   -1.630606662743
O     -0.959873428911    1.642457614884   -1.508559089192
C     -1.073536125604    3.048956607834   -3.429057982499
H     -2.164424405588    3.051218417257   -3.293756352764
N     -0.707261344189    4.406708359568   -3.787750029656
C     -1.631866007539    5.415681309550   -3.821482559362
O     -2.837810347933    5.218143373299   -3.783500792293
O      0.209387066737   -0.031957794550    0.003191227094
H     -0.255614490686    0.735557932889   -0.493825878561
C      0.711335366931    2.736623071419    2.751115225905
C      1.251553057262    1.530163755075    3.260244757820
C      2.630210333387    1.454924824129    3.516759551387
C      3.437590651008    2.586041073189    3.260001323686
C      2.909357177075    3.769464315150    2.766610815240
H     -0.375138851131    2.844244802990    2.681649114176
H      4.509890760891    2.523699153266    3.466667284884
H      3.556054603690    4.635530594257    2.601856733664
C      0.339649171922    0.361681614814    3.531505075813
H      0.597732686051   -0.505234299808    2.901006324438
H      0.411404700804    0.028047295903    4.580379573942
H     -0.708252730600    0.617090462644    3.323478613012
C      3.246295013301    0.191294544868    4.061275645354
H      2.796288792730   -0.095032532949    5.026819566996
H      3.086662033613   -0.658424685126    3.376409131887
H      4.329197307776    0.303914192342    4.214662849904
C     -3.352210083941    5.001418604250   -0.411090865537
H     -3.542435984569    4.918720835619   -1.489488259969
H     -3.646047328617    4.069071171452    0.093246877109
C     -4.078302779126    6.196095704354    0.184890295630
H     -3.756979502809    7.131868213892   -0.299156177868
H     -5.162952149260    6.086949528829    0.023376985283
H     -3.898142445516    6.271775046815    1.267356157251
C     -1.052546518535    6.818898015978   -3.890776783103
H     -1.724001008958    7.453048622634   -4.484929971985
H     -1.016975105747    7.228800054689   -2.867955847566
H     -0.038374894808    6.848616341459   -4.316508959972
C     -0.739959085459    1.996184031890   -4.521865235140
H     -1.048509831559    1.029183263034   -4.087369842200
C     -1.577411525453    2.252188049117   -5.780195284304
H     -1.437458565705    1.456846598084   -6.527941919432
H     -2.650550869894    2.300400621426   -5.539373042456
H     -1.301172995228    3.210874468379   -6.248891801345
C      0.771202422277    1.923519819330   -4.814642035950
H      1.095538923549    2.879931920613   -5.264279175248
H      1.318070375480    1.837229741522   -3.859633763828
C      1.193897108975    0.766544787335   -5.723594150790
H      0.764766074737    0.852290333961   -6.734269273466
H      2.289571458787    0.733240737288   -5.836518293986
H      0.873472848128   -0.204097105879   -5.308754340441
N      2.119881908114    1.270362590895   -0.022716669294
C      1.521093519876    0.063878720589   -0.031488626800
C      2.300002226037   -1.117983737261   -0.048546464121
C      3.678383815699   -1.023546744608   -0.108278096374
C      4.307401750188    0.239052134626   -0.154836199794
C      3.465383808015    1.344466796925   -0.104236763406
H      1.779607878773   -2.076620614551   -0.041108190160
H      4.283792060028   -1.934789288054   -0.136007987926
H      3.881701093536    2.355823203913   -0.118277549303
C      5.804354280716    0.382866701047   -0.254799943576
H      6.108932913312    1.439742911372   -0.232221948574
H      6.316452789263   -0.132077292784    0.575095070062
H      6.189096398266   -0.054509214622   -1.191543964217
