71

C      1.491767634528    3.831654660280    2.550718984467
H      0.273342105123    4.755163310829   -3.745910447926
C      0.799917642721    5.147535955730    2.188393941992
H      0.074131021935    5.419248175422    2.971880766053
H      1.550843318539    5.947902820479    2.121741801713
C      0.123315017870    4.923468118756    0.838301882562
H      0.426890350582    5.602686681910    0.032752547128
C     -1.357155026452    4.737269782216    0.882758794232
O     -1.969497918929    4.319610684984    1.849183600048
O     -1.948092511662    5.076204262495   -0.276484213485
Pd     1.003176236182    3.132530927785    0.366431053782
C     -0.470743705697    2.707926311282   -2.086359556223
O      0.479102839792    3.421981289230   -1.625137961022
O     -0.978196843958    1.708836003881   -1.544002329790
C     -0.999092516653    3.111240467932   -3.466285453529
H     -2.089759293863    2.989245980349   -3.471599451128
N     -0.695408893910    4.471876367075   -3.837987820910
C     -1.651288612024    5.451615206153   -3.816247961616
O     -2.844394056327    5.215477458280   -3.698556655119
O      0.112630004791    0.083570079983    0.025126037643
H     -0.319653467213    0.857934549125   -0.518584638713
C      0.705958021416    2.669357145723    2.765464531664
C      1.268315203879    1.470107461975    3.264853395023
C      2.647610539498    1.419570172323    3.527611644481
C      3.432957880345    2.568486391682    3.285461474015
C      2.881336343501    3.747033859518    2.807564269598
H     -0.381812007979    2.754237211436    2.687223183171
H      4.506565804223    2.523790317362    3.487689187645
H      3.512255382047    4.626233441151    2.652856509029
C      0.379024977536    0.283232776750    3.533290793637
H      0.704421863937   -0.604365725706    2.966583689882
H      0.398801140375    0.001416396528    4.600129148109
H     -0.662262210113    0.492759353522    3.253833024372
C      3.285989627422    0.165720336980    4.069164207465
H      2.831849201487   -0.137200082556    5.027740463795
H      3.154865532145   -0.683500741068    3.377618727401
H      4.364285260140    0.302208239758    4.233974654506
C     -3.377596928750    4.889860707309   -0.388854407087
H     -3.553911074426    4.813157146717   -1.469800508709
H     -3.647587793677    3.944060390676    0.103504109582
C     -4.144369726710    6.056333426513    0.211837636317
H     -3.846560375279    7.005609338259   -0.260789628467
H     -5.223835102561    5.916676580699    0.039297221806
H     -3.976293687423    6.127162507895    1.296637312035
C     -1.123225156105    6.870920757077   -3.939465373508
H     -1.840133030206    7.467671253727   -4.519307963893
H     -1.062716641903    7.306865643911   -2.928750699886
H     -0.128810412817    6.927017009344   -4.407051502132
H     -0.583846833354    2.393797105300   -4.196904398072
N      2.087046311061    1.237075128410   -0.073482605512
C      1.422264506974    0.101423574367    0.002038206271
C      2.097482681895   -1.186791387728    0.106211407600
C      3.514831480411   -1.226865805526    0.066736080091
C      4.231983078648    0.026519166808   -0.124837865469
C      3.471784572346    1.228348765403   -0.199863043450
C      1.347555083485   -2.375613068902    0.243732755295
C      1.992119813114   -3.596107861565    0.365883705463
C      3.399249844599   -3.646054829949    0.344015170029
C      4.145902693366   -2.486631325904    0.194702448748
C      5.637661812826    0.106640989601   -0.253393617653
C      6.277333430327    1.319365940817   -0.457918801078
C      5.519716248528    2.501553281591   -0.545327152589
C      4.141018344181    2.454660394097   -0.416863381780
H      0.259467489530   -2.304846328459    0.251332703867
H      1.412746594273   -4.515851984026    0.475068905805
H      3.910334943001   -4.607420947060    0.440670533627
H      5.234100292259   -2.555826499639    0.174837225305
H      6.235455696043   -0.804493510927   -0.200541124887
H      7.364579433117    1.353563230637   -0.559258637539
H      6.016407087774    3.459248486509   -0.719905499121
H      3.541059142022    3.363886135946   -0.489367231704
