75

C      1.404489977681    2.762486419292    2.204180013972
H     -0.935731172045    4.669061028123   -4.642577868946
C     -0.550500530734    4.624799436889    0.703933083505
H     -1.225105737295    4.663461099879   -0.158835199465
H     -0.977318625090    4.356600227273    1.673478424110
C      0.719781547472    5.160281476995    0.647234162897
H      1.302521043555    5.307435856809    1.559249465703
C      1.254594222536    5.881654852222   -0.553648409579
O      0.600798082530    6.344610443150   -1.455641035413
O      2.594487940111    5.992087095701   -0.473364783136
Pd     0.885499988902    2.977287885560    0.282394448104
C     -0.678464853923    2.476767052632   -2.223753612187
O      0.270963870304    3.182972784159   -1.786980174361
O     -1.170591821732    1.457439254795   -1.683197258173
C     -1.282572703966    2.843832213947   -3.602761563496
H     -2.292227641430    2.406414528020   -3.588945037295
N     -1.372114924400    4.277628594235   -3.817819026789
C     -2.043996458721    5.088346318623   -2.954016726213
O     -2.569688126809    4.645288257393   -1.939558906984
O     -0.173280848753    0.006008776197    0.004325486607
H     -0.595247190286    0.744077306440   -0.667666331084
C      0.550036493183    2.046162631242    3.053067162117
C      0.862502440377    1.828518233182    4.405705110734
C      2.073183831731    2.341600203707    4.927074307031
C      2.922996230728    3.051276771525    4.069402464885
C      2.602067490732    3.266417847455    2.722951306232
H     -0.381371444230    1.625077385254    2.661966150337
H      3.863322436997    3.450435895664    4.462951941600
H      3.296990301200    3.829437792054    2.092818711197
C     -0.085148770280    1.049211611082    5.284862936389
H      0.397213413022    0.150543003152    5.706378744920
H     -0.430928535720    1.649486902637    6.144063051596
H     -0.973020680372    0.721332682873    4.725193136062
C      2.444951759206    2.127739121106    6.374191880541
H      1.693384773300    2.557854388261    7.058556590542
H      2.515936549825    1.055117534098    6.624429545029
H      3.414605651413    2.590189459876    6.610509492267
C      3.251608130721    6.690920039122   -1.544448683722
H      3.042182674610    6.166390864140   -2.490936003423
H      2.814260632752    7.698949608112   -1.631008778698
C      4.733534036268    6.740022112913   -1.237060627110
H      5.158272520995    5.726682048070   -1.167545979302
H      5.264135790433    7.281155008724   -2.035867935950
H      4.921708530305    7.259360905901   -0.284770384552
C     -2.072887695433    6.561608549898   -3.310415585945
H     -1.945836815563    6.749175767887   -4.387496585653
H     -3.027211305462    6.986747499413   -2.971810447505
H     -1.256302808519    7.053880077484   -2.761486741871
C     -0.468700919557    2.189969067711   -4.707561897169
C     -1.019670146915    1.166966866361   -5.491487465556
C     -0.267989784958    0.561490680284   -6.503110885455
C      1.044942043854    0.974606845029   -6.744750292340
C      1.604773897744    1.992095887351   -5.964835115074
C      0.855712707469    2.593116409316   -4.950420577796
H     -2.046626924544    0.841996418175   -5.305645648585
H     -0.712217441617   -0.234719973995   -7.106113055731
H      1.632321936385    0.503072974249   -7.536897829671
H      2.634242790686    2.314228233636   -6.142860078707
H      1.299621985657    3.370843746377   -4.324143898855
N      1.840752268334    1.099547653588   -0.034672780326
C      1.126873574161   -0.031498988500   -0.000271115421
C      1.790557250514   -1.316852309127    0.054643029027
C      3.214522617374   -1.359082575036    0.036253149650
C      3.918880748213   -0.119471954497   -0.043353606893
C      3.210425216010    1.049254487324   -0.069640580260
C      1.045333078084   -2.518507836948    0.115840663924
C      1.698161139154   -3.736560164410    0.169646501182
C      3.111628967785   -3.785504848944    0.157503372519
C      3.857121692818   -2.622679648097    0.089947654516
H     -0.043499177961   -2.454167873286    0.119166120767
H      1.123671735722   -4.664686332138    0.218266826240
H      3.618112389053   -4.753450100442    0.199299078837
H      4.949352059930   -2.663385007116    0.077558486018
H      5.009689285960   -0.101198250005   -0.072493091227
H      3.716076345765    2.015530154935   -0.109167623909
