77

C     -0.580929248093    4.676639432966   -2.225113354566
H     -2.088608490280   -0.339460440316    0.467626442905
C      0.507816594319    5.048727534343   -1.317007714048
H      2.552401320082    3.753701329330   -0.560448731700
H      1.407968198342    5.421476106002   -1.812755715000
C      0.460024541810    5.203511079173    0.071327624904
H     -0.454248242962    5.023498925004    0.647197495315
C      1.487960869214    5.982820388437    0.829953023561
O      1.436578331258    6.166174690940    2.022769369529
O      2.467760492365    6.480779055937    0.046686103357
Pd     1.201292047707    3.169593972826   -0.202853081053
C     -1.729485625285    2.552341992177    1.012897017586
O     -0.686280992301    2.181800409093    0.319474619478
O     -1.871559387632    3.657728155186    1.513029786935
C     -2.856078796152    1.507037411300    1.198307184377
H     -3.775470744747    2.047366616797    0.932482170888
N     -2.781217284427    0.379090823360    0.291078300873
C     -3.400027769488    0.382801159246   -0.932810474175
O     -4.142308584672    1.281621386434   -1.296194484517
O      0.182643058536    0.033586362656   -0.444442754769
H     -0.284115227297    0.938928242399   -0.148626819777
C     -0.294433791363    4.571618869316   -3.602187251136
C     -1.261763175563    4.201616332332   -4.539777609569
C     -2.572795672130    3.912444323009   -4.088275724867
C     -2.863520474344    4.032429671913   -2.719361594761
C     -1.896392636010    4.418848178412   -1.797152611047
H      0.723234242162    4.781310837723   -3.945680677252
H     -3.865804058235    3.785573775284   -2.363600635872
H     -2.161666558579    4.506129491288   -0.743270184741
C     -0.910431907504    4.103253756751   -6.003920267261
H     -1.072442055617    3.083744408405   -6.393463971360
H     -1.534558612961    4.774734983448   -6.617694274503
H      0.142118595525    4.366795045693   -6.182832790767
C     -3.644620043479    3.480325837595   -5.054731497923
H     -3.860179790471    4.266097508929   -5.799675764420
H     -3.338565561987    2.586469368256   -5.624350138263
H     -4.579646932087    3.240726211540   -4.529741217577
C      3.512237147377    7.212421308870    0.708372090962
H      3.061973714519    8.039192576270    1.280923265524
H      4.005127132999    6.548637227254    1.437950947976
C      4.478599552729    7.711072900169   -0.345805076456
H      3.971996492521    8.374987936119   -1.063432618339
H      5.294137938506    8.277206248035    0.130539118689
H      4.922717934155    6.872498492834   -0.904245137022
C     -3.092323430370   -0.830292871786   -1.797798132913
H     -3.394990602388   -1.761078724759   -1.291161457729
H     -3.638040674638   -0.738479227223   -2.744548930624
H     -2.010339528086   -0.892698712494   -1.996576557054
C     -2.957576361498    1.085284857385    2.687403006161
H     -2.970769921218    2.037995950666    3.243285285330
C     -4.274448886060    0.348231386527    2.957370088431
H     -4.391539945783    0.106946397513    4.024787472414
H     -5.138865996030    0.962376481261    2.659654002817
H     -4.325771288772   -0.595173706025    2.389426503477
C     -1.721485459153    0.289686201758    3.156315285324
H     -1.736712800893   -0.718596309789    2.700200370721
H     -0.810791300008    0.782510108835    2.774225860134
C     -1.597112707245    0.146086669344    4.675290845147
H     -2.441746587104   -0.411186712978    5.110377002197
H     -0.675154836009   -0.391982418020    4.947811772255
H     -1.562442087492    1.133736697302    5.163965400829
N      2.154172416905    1.225756785450   -0.175938858838
C      1.481922485004    0.053492940510   -0.349850054375
C      2.185116478913   -1.176737402454   -0.441379939966
C      3.556984504443   -1.198542250952   -0.323270849990
C      4.246358784527    0.015168237391   -0.113705364721
C      3.498813576395    1.185005388646   -0.053625847083
H      1.597010075237   -2.082450147667   -0.592751646265
H      4.112499581474   -2.135590688285   -0.383686700554
H      4.013311496630    2.133424442508    0.095231153447
C      5.722558272412    0.118415989862    0.035535232086
O      6.325108921436    1.153529374559    0.204158700165
O      6.322696629347   -1.084810896668   -0.038908505077
C      7.744413597447   -1.090422966794    0.095322900639
H      8.045966213205   -0.678556542654    1.070188461611
H      8.055145358476   -2.138957773902    0.011530606301
H      8.213725259936   -0.487629494279   -0.696750301272
