41

Pd     1.257983510396    2.942027488039   -0.645313862913
C      0.522357670140    5.659303835359   -0.570719406326
O      0.835240521090    4.694341344287   -1.414549510090
O      0.399252673292    6.815685604259   -0.907172983188
C      0.343316202973    5.197326952905    0.890415100367
H     -0.632532970173    5.594204540710    1.209510787709
N      0.299604141516    3.725548579331    0.910973407295
C     -0.586767294743    3.018427863004    1.623207211553
O     -0.802672258230    1.799252819457    1.470257929616
O     -0.060420571455    0.008268190130   -0.078776004931
H     -0.382394047621    0.839749084205    0.457750090990
C     -1.398268948484    3.734785748348    2.696201768447
H     -1.812697307188    2.966533593232    3.360392720832
H     -0.810474293561    4.455401153550    3.280159709793
H     -2.237536316084    4.276095401993    2.229074198936
C      1.422523997559    5.798957889568    1.839270450389
H      1.305376912115    5.251938115648    2.793603013756
C      2.851304625344    5.552100047801    1.339419614340
H      3.593428989015    5.859731078964    2.091056673691
H      3.021136384608    4.483754070907    1.132357980212
H      3.054502639923    6.118435056590    0.415539120639
C      1.131258425372    7.287241123248    2.119258942222
H      1.191868100038    7.847392568181    1.172953056725
H      0.080099489437    7.375965013880    2.448315598099
C      2.032843300990    7.926175057061    3.177580764484
H      3.084267903555    7.978128029507    2.853686672616
H      1.710054721884    8.957346985907    3.391921712827
H      2.005154928458    7.366148428715    4.128463325445
N      1.984480077682    1.074371885358   -0.066670963343
C      1.241713224835   -0.058661289186   -0.082183480035
C      1.889603759874   -1.318268707257   -0.121124127090
C      3.267587317918   -1.382535592226   -0.088960807157
C      4.043729836231   -0.202532639163   -0.008627417413
C      3.340068795063    0.991441518829    0.000085150668
H      1.262395636211   -2.209741057864   -0.156847778971
H      3.764439848709   -2.357112602792   -0.107985687201
H      3.869651627901    1.947295606731    0.053862404407
C      5.548108517613   -0.240930081324    0.063193395020
H      5.976227694127    0.771492480410    0.100885347598
H      5.892302522656   -0.783893551934    0.959191311431
H      5.977946387366   -0.755211250576   -0.812253936161
