83

C      1.645752004238    5.913020944451   -0.979621111530
H     -2.787023438222   -0.139157949916   -0.544788065727
C      1.298741219303    5.417185412708    0.360502422326
H      2.272402950867    3.420367350368    1.107466035064
H      2.035158119659    5.618691631223    1.144185619087
C      0.048578985933    4.988886324563    0.797019027993
H     -0.821231356347    4.994991054386    0.135179196835
C     -0.244943765178    4.889282568597    2.262013466944
O      0.552622989619    5.063328508542    3.157590264416
O     -1.533665809955    4.575468108175    2.431243647154
Pd     1.057974516823    3.126151841725    0.252937623441
C     -1.848581076814    2.842319779689   -1.137710295940
O     -1.977750897090    4.019128613030   -1.439760886241
O     -0.749015093376    2.316977953543   -0.678568513378
C     -2.999332778560    1.814244808964   -1.367812791459
H     -2.695981883212    1.258097057254   -2.273158833555
N     -3.019596941338    0.815085195483   -0.303839744004
C     -3.193769712043    1.120112339884    1.016698820062
O     -3.427949837255    2.256052353615    1.399255569231
O     -0.019215582269    0.150307480434    0.259029431337
H     -0.440460125618    1.030157606056   -0.122649897115
C      2.904544316076    6.517359946852   -1.165093224180
C      3.304776834352    7.051150427350   -2.394120732957
C      2.414381943172    6.976206638016   -3.491699133630
C      1.161719012917    6.368366000995   -3.306179118128
C      0.767899800679    5.841541411012   -2.078829479062
H      3.589978776533    6.577805378368   -0.314111357545
H      0.472666756263    6.307935075315   -4.153244707824
H     -0.210288422642    5.364210009047   -1.977457207464
C      4.659878011458    7.698503630822   -2.541816998966
H      5.268743393926    7.198383827683   -3.314246867480
H      4.574417617288    8.755129215098   -2.847825435957
H      5.223788943410    7.668717795907   -1.598242166542
C      2.799494598048    7.538515075719   -4.836003613266
H      3.016643317699    8.618888825823   -4.776879927249
H      3.711519022965    7.058987146843   -5.231147667639
H      1.997742451845    7.396632386120   -5.574671656378
C     -2.028761049878    4.330053756984    3.757790340414
H     -2.821358395427    3.584363115895    3.607434302212
H     -1.219273543343    3.896066286863    4.364429490654
C     -2.561135571491    5.602918547316    4.394804668457
H     -3.337424879791    6.061617647734    3.762864225644
H     -3.008390013642    5.372007805297    5.375285808982
H     -1.753300366658    6.333947133514    4.551127509630
C     -3.034764066845   -0.048608763473    1.976602373881
H     -3.629450601044    0.147301226626    2.878083766208
H     -3.340194321705   -1.009585167031    1.534885665488
H     -1.974087986814   -0.126213713141    2.264887866675
C     -4.368363054881    2.488013555800   -1.670823659802
H     -4.490542547734    3.304075718702   -0.940815017672
C     -4.349547216468    3.092454836098   -3.083343068552
H     -5.257571805307    3.682983860920   -3.276798688297
H     -3.488272484662    3.759402421623   -3.211228846568
H     -4.300890366653    2.297844454382   -3.850314840633
C     -5.543587130452    1.506816697002   -1.493986831873
H     -5.414993100015    0.652775213348   -2.187336769088
H     -5.506711821292    1.081233985924   -0.479987321685
C     -6.927224178740    2.127858361099   -1.703236371543
H     -7.087569660843    2.462517534321   -2.739981625101
H     -7.722170962184    1.401727369383   -1.468159955957
H     -7.071983971936    3.001812592059   -1.046055222484
N      1.979813528311    1.207763487389   -0.129975495947
C      1.279653668597    0.108633895529    0.098229890225
C      1.906569952742   -1.202062595999    0.207377310137
C      3.302840057933   -1.318573769547   -0.001688576681
C      4.043379614466   -0.120300270076   -0.370618935845
C      3.341603443649    1.117247907323   -0.432684747847
C      1.130318993389   -2.336989502191    0.529548412737
C      1.730778610855   -3.578106545098    0.661815834025
C      3.119612560601   -3.703222596155    0.467354757105
C      3.889961514118   -2.597525904549    0.140482713196
C      5.422224513294   -0.134031980376   -0.681689737971
C      6.092483169833    1.019773642980   -1.055068646071
C      5.389797695541    2.234231894193   -1.135333790085
C      4.039042412274    2.280031281017   -0.829199348957
H      0.057650689566   -2.211881547152    0.676503504224
H      1.131594881871   -4.455321628183    0.916576532080
H      3.597239166771   -4.680602864791    0.573291365042
H      4.962969840193   -2.724258531384   -0.005507729518
H      5.973065297608   -1.074250432042   -0.635357627562
H      7.157933567872    0.981347163275   -1.293080516330
H      5.903639948194    3.147694291768   -1.444170373400
H      3.487894765431    3.218269442585   -0.901634614476
