62

C      2.309202779920    5.370308956305    2.631942630093
H     -0.171181028541    4.609207168269   -3.783502561461
C      1.096481095915    4.551349854246    2.263491248459
H      1.532557470570    3.431469481270    2.022756180208
H      0.475195918524    4.282756951685    3.130253124789
C      0.260552776764    4.959837956217    1.113782299447
H      0.584162669498    5.812868178480    0.508116980535
C     -1.222218300898    4.833345943484    1.271840099365
O     -1.762387254532    4.262211297312    2.196277421750
O     -1.870656484363    5.414838999998    0.254118589876
Pd     1.012301920633    3.222419631917    0.359447008700
C     -0.774510771103    2.703518270352   -1.872040335896
O     -1.204927713916    1.714155629578   -1.253067798605
O      0.234802919265    3.415033641950   -1.553375515914
C     -1.496402243861    3.101614806602   -3.163145334434
H     -2.577492455758    3.077753571405   -2.971948681203
N     -1.157058702606    4.414736323422   -3.653745495795
C     -2.000242295264    5.480786179318   -3.491931308817
O     -3.157569202491    5.360574956541   -3.117960278936
O      0.082888438250    0.092141274103    0.154964850258
H     -0.408735807059    0.870279825147   -0.329629481784
C      2.471659506799    5.807437391457    3.953307413870
C      3.562450906739    6.593854249392    4.349403953989
C      4.535162081774    6.953022878687    3.387798258922
C      4.372263993433    6.506859140160    2.068050685619
C      3.280503645293    5.725966945680    1.687985317359
H      1.721613422226    5.532355834938    4.700874319781
H      5.123426449354    6.775608591371    1.320016784290
H      3.186599866442    5.389328940122    0.651144272862
C      3.692427806049    7.045577249374    5.782867380799
H      4.628682958715    6.682148523533    6.239579897721
H      3.713182474467    8.145869518309    5.861090505343
H      2.856176238425    6.681519407885    6.396767784054
C      5.727018175253    7.793916935463    3.770904784231
H      5.419881714640    8.772570964415    4.177478870609
H      6.333787539227    7.307225147327    4.553445157198
H      6.381000609107    7.979923750635    2.906866731841
C     -3.316448421706    5.327133310836    0.232799732973
H     -3.575508041841    5.401106962062   -0.831561569734
H     -3.610251308217    4.339299969505    0.616429857307
C     -3.950188121705    6.440415896164    1.049208300307
H     -3.620202997145    7.428559999924    0.691571266717
H     -5.046561591719    6.392093065161    0.950015269750
H     -3.699211625319    6.345120496984    2.116353639066
C     -1.395329087322    6.839020298310   -3.802555129386
H     -0.493097518621    6.783567254885   -4.429587466688
H     -2.153549378658    7.459695589319   -4.299169204408
H     -1.134599408850    7.328951028014   -2.850191069390
H     -1.279468074328    2.322397367065   -3.915042652582
N      2.035239238230    1.322292432222    0.012626533239
C      1.383455710678    0.138987698741    0.109282323760
C      2.114541373468   -1.077447826197    0.189443831654
C      3.489826657193   -1.055112652393    0.119054873564
C      4.151653569932    0.181651537821   -0.034274421103
C      3.380780409184    1.331838556524   -0.076914399158
H      1.549213607787   -2.004362681403    0.289706931554
H      4.062486601666   -1.984187937952    0.172072914859
H      3.853288563209    2.311277906199   -0.172169193653
C      5.648790568908    0.234736081102   -0.148731725373
F      6.243211640038   -0.393877851219    0.883028289195
F      6.082103680613   -0.373688516581   -1.269404527569
F      6.109323867322    1.496900876706   -0.174129390150
