61

C      1.668992355484    5.884207332651   -1.300880728186
H     -2.657303774150   -0.131924267842   -0.715805851731
C      1.256244853622    5.475381503454    0.047576642120
H      2.324370352256    3.606843030709    0.860294452215
H      1.929860913805    5.760874933714    0.861130160441
C      0.000685294191    5.012874071000    0.428873623806
H     -0.814828338044    4.945252745396   -0.294759538649
C     -0.395888673585    4.973670347985    1.873601123176
O      0.302938236189    5.308908283224    2.803591416353
O     -1.643521801151    4.497903754875    1.977667378376
Pd     1.077146935161    3.139129153977    0.131346841693
C     -1.814729093099    2.713052178911   -1.175120062176
O     -1.854375070685    3.753392058811   -1.812130451254
O     -0.744294739045    2.219060247369   -0.616510358883
C     -3.121475851415    1.925100678657   -0.972829135518
H     -3.576248053277    1.770352290598   -1.963908255190
N     -3.030575629173    0.683315610813   -0.244843557469
C     -3.243786986455    0.612349143369    1.108402218401
O     -3.609985736188    1.574477186569    1.764122784959
O      0.039267072365    0.035736410880    0.151354165668
H     -0.410533304531    0.950808582629   -0.135400735882
C      2.899940427616    6.551947427239   -1.449691742935
C      3.354973860140    7.013145657873   -2.688442200309
C      2.550806090798    6.794963825386   -3.832874761031
C      1.326317619202    6.122363837862   -3.683262503611
C      0.877785238576    5.667585642193   -2.446358079437
H      3.519562983131    6.719153376323   -0.563479544505
H      0.706136559326    5.949869882442   -4.567221542437
H     -0.072868007768    5.132279929472   -2.374575327373
C      4.678342544051    7.729079331598   -2.798877902034
H      5.368564209052    7.204389617042   -3.481072196850
H      4.556228642833    8.749314908243   -3.200617093811
H      5.172904913094    7.811271940523   -1.820384519748
C      2.998586211248    7.272499730410   -5.190097118641
H      3.148611477841    8.365610126305   -5.205535257081
H      3.963212275471    6.822075394821   -5.480360794764
H      2.262179154422    7.022458235500   -5.967014380328
C     -2.207781719391    4.292666480170    3.290208609863
H     -2.865523068404    3.422044543851    3.164741874692
H     -1.392839169809    4.046747083653    3.987151779548
C     -2.970554156241    5.520790482345    3.756342820170
H     -3.754794379418    5.793910730931    3.033313323363
H     -3.455135858168    5.312199530875    4.723807543277
H     -2.296370252930    6.380572426118    3.890277044797
C     -2.972952709812   -0.748586016002    1.726882747108
H     -3.440885541356   -0.787625420614    2.718190400307
H     -3.357415511977   -1.569891429839    1.101875273376
H     -1.885114487205   -0.886465291917    1.835491478894
H     -3.786464724723    2.594845672948   -0.407920891367
N      2.028288575169    1.213742025632   -0.006434942711
C      1.337204532178    0.042361675979    0.093309932317
C      2.023980434371   -1.202523956277    0.145377407412
C      3.396393137730   -1.240332523571    0.053629739431
C      4.077058487915   -0.019987097731   -0.087399602897
C      3.371295389826    1.171320540213   -0.107418392714
H      1.422690234956   -2.106786084410    0.242116662149
H      3.960172863154   -2.173233776635    0.079204004562
H      3.906334587821    2.114465892229   -0.201079229331
N      5.537317884416    0.006891150805   -0.203520127487
O      6.076518923003    1.095064231899   -0.330141565674
O      6.117500512729   -1.066804273951   -0.166833086857
