77

C      2.315933093828    5.397225057360    2.596701348409
H     -0.243590879507    4.800371021057   -3.560932454950
C      1.088284959532    4.587343833141    2.259964776225
H      1.500813335992    3.456263567688    2.036486041719
H      0.473991201332    4.345357520318    3.139436554389
C      0.243005923838    4.988037325035    1.113228071752
H      0.563246812712    5.835133852280    0.497576793080
C     -1.237482618394    4.863512291746    1.293568631613
O     -1.762334493222    4.305915563779    2.235052434546
O     -1.907109233284    5.427919042954    0.278623959946
Pd     0.974887290307    3.234526727683    0.374261882917
C     -0.849756442056    2.801530434512   -1.826750316923
O     -1.367161905439    1.911310990951   -1.124546800223
O      0.235025779217    3.418100410825   -1.557475963204
C     -1.526759114498    3.184401959023   -3.151839175678
H     -2.610775002442    3.139588788383   -2.985225190535
N     -1.227097676699    4.558268195712   -3.512947596515
C     -2.130753967258    5.570762145031   -3.351956467693
O     -3.307020568793    5.377793860932   -3.077333403224
O     -0.062706959947    0.135992858089    0.102412590285
H     -0.535644065042    0.969188993097   -0.284843215520
C      2.477069299494    5.899039322183    3.895198683275
C      3.580753451802    6.682658151086    4.259536767418
C      4.568413254340    6.971022749033    3.289319998634
C      4.406891069208    6.459972076563    1.993297601197
C      3.301860904653    5.683145259279    1.644427634597
H      1.715829354901    5.678125931188    4.649436259097
H      5.170242403185    6.671638041241    1.239389458023
H      3.210154208722    5.293267207197    0.626205308222
C      3.708984657533    7.205460156083    5.668894667862
H      4.634222520813    6.847896065598    6.152017040974
H      3.751101795220    8.307747098552    5.690639007207
H      2.860881784109    6.890157461824    6.293503426249
C      5.775294099615    7.805184979218    3.638997010150
H      5.486751445289    8.810540597015    3.990451140811
H      6.364850965667    7.347539988308    4.451693052384
H      6.440273286031    7.930757091096    2.772454486050
C     -3.353085007640    5.325778502791    0.288247903057
H     -3.637212144377    5.402270398996   -0.769464588330
H     -3.627017269673    4.332114560923    0.670964333972
C     -3.982238146820    6.427386503909    1.123829634021
H     -3.671969242586    7.421493075176    0.764831232250
H     -5.079770704349    6.366350290009    1.046657022829
H     -3.708181355922    6.329428895886    2.184890368916
C     -1.567593662083    6.972307867846   -3.518076387007
H     -0.644416209335    7.003048916792   -4.115855172662
H     -2.331963234917    7.609937674373   -3.982192058706
H     -1.351964151742    7.379054115873   -2.516324988822
C     -1.126695959982    2.219665506680   -4.290770147024
H     -1.636702193318    2.579268058998   -5.201900895950
H     -0.043357073013    2.336507314006   -4.476880477768
C     -1.443034907831    0.725522850227   -4.090052679157
H     -0.891835977622    0.373637802113   -3.200509970613
C     -0.941644764709   -0.075712485566   -5.299157673868
H      0.135927660078    0.080986270477   -5.472861465115
H     -1.104547949990   -1.156048746796   -5.155507900305
H     -1.473186861513    0.220658464149   -6.220165013473
C     -2.933671216711    0.469084811568   -3.833762394726
H     -3.137793632839   -0.612073932027   -3.769258930311
H     -3.261494337478    0.921513021387   -2.886746568956
H     -3.555137781726    0.876963437445   -4.650229426047
N      1.936692141973    1.306420693933    0.039032012855
C      1.241360189249    0.141892371428    0.075506349848
C      1.924170570171   -1.102396325658    0.108183384618
C      3.301476105544   -1.130703528030    0.058032574733
C      4.015274742579    0.084978016772   -0.025922502719
C      3.279522094247    1.265937198376   -0.026820468126
H      1.321377952639   -2.009806003573    0.156009530310
H      3.844052342114   -2.077172831729    0.072037736848
H      3.806217526463    2.221916133375   -0.072178294848
C      5.496527410060    0.177850994505   -0.101561271309
O      6.117228375073    1.214194145047   -0.173451751826
O      6.082289653747   -1.034975571114   -0.081109726115
C      7.507955377878   -1.048671505477   -0.151001182955
H      7.946275573130   -0.505862885909    0.700114550823
H      7.805341166208   -2.104108548544   -0.123893657251
H      7.858235106473   -0.576398425553   -1.081270018214
