65

C     -1.543372478125    3.747694009192    1.998085770100
H     -0.058606262659    4.635110134683   -3.291789245656
C     -0.228149342673    4.357492411487    1.729316659648
H      0.387819325257    4.418217761752    2.631859052362
H      1.774425773367    2.996531037616    1.620341909001
C      0.286977177723    5.089165875780    0.652155465849
H      1.240855414089    5.596443839407    0.826485381633
C     -0.401746200134    5.693865747921   -0.533583969083
O      0.210372062141    6.266810570327   -1.408475887386
O     -1.734864686788    5.614963698592   -0.487966004701
Pd     0.997518925722    3.044718954499    0.311237819989
C     -0.640530861608    2.405912218665   -2.290188240171
O      0.107518957980    3.204812232114   -1.655525379372
O     -1.088026690892    1.315342868698   -1.864950812018
C     -1.026465880442    2.815071149069   -3.708332867654
H     -2.114600219089    2.683847737480   -3.830219600499
N     -0.616256798693    4.167455331661   -4.002657688741
C     -0.801995405748    4.727025169855   -5.233491650244
O     -1.381522076433    4.143032609695   -6.135714786445
O     -0.030663480719    0.045015296339   -0.035803524751
H     -0.490229012026    0.696643062295   -0.744086827653
C     -2.358970641048    3.141156136802    1.024016701172
C     -3.576057886737    2.537196239577    1.346058640539
C     -4.026222995621    2.558884851537    2.689951510008
C     -3.213444714433    3.157474861296    3.662813695092
C     -1.982733132966    3.722209653102    3.334118078226
H     -2.021922051632    3.113571489751   -0.009385576077
H     -3.546135266200    3.165729623896    4.704438566200
H     -1.359637829189    4.157408027598    4.120177175688
C     -4.387199909990    1.863005698659    0.266696466256
H     -4.648281972199    0.828562700654    0.544191570576
H     -5.340544036670    2.389317380591    0.084249068499
H     -3.828837592425    1.820097779299   -0.678920124217
C     -5.342118654268    1.932493159478    3.072272397627
H     -6.180315250441    2.374653087440    2.507572433579
H     -5.354040376035    0.851499576776    2.850839317798
H     -5.551804734168    2.058981059154    4.144127244528
C     -2.469704787587    6.241224413119   -1.560075595507
H     -2.130247088553    7.284769488740   -1.655751475400
H     -2.219099260294    5.725845121864   -2.500069183896
C     -3.945839253508    6.150534480901   -1.235815795327
H     -4.175608579220    6.662052015046   -0.288489828697
H     -4.531018910887    6.626806296804   -2.037795416909
H     -4.271049757102    5.102700445956   -1.149316881476
C     -0.232637568511    6.129180296722   -5.395686898504
H      0.627438434373    6.086321245697   -6.082933627290
H     -0.994178791131    6.764014764547   -5.871755642255
H      0.088313034701    6.581766665168   -4.446188299969
H     -0.568233306109    2.088080796020   -4.404393668725
N      1.957315112317    1.202495945536   -0.072143781983
C      1.273159681592    0.051647355347   -0.055777340213
C      1.969848545796   -1.216640058607   -0.032107208162
C      3.394164002366   -1.225100401681   -0.066669289047
C      4.066247132444    0.032759564722   -0.132467232383
C      3.330846457756    1.184115292470   -0.128259979984
C      1.254790228021   -2.437906569128    0.012678923205
C      1.938131588979   -3.639787912477    0.035568217594
C      3.352230254792   -3.654258571985    0.007606237640
C      4.068609998508   -2.472610575999   -0.044766023045
H      0.164973373986   -2.401167808146    0.029015107326
H      1.387042125374   -4.582473847474    0.071821143539
H      3.882154105727   -4.610224205239    0.024285261615
H      5.161173333078   -2.485922127337   -0.070627608757
H      5.155744356392    0.079154775056   -0.176623643898
H      3.811635755404    2.162796748702   -0.160344976405
