83

C      1.324788691875    3.397349484735   -3.487127798102
H     -3.174746833031    2.313166994705    1.461492155284
C      1.587699904576    4.627683939929   -2.644749655249
H      2.239952528078    5.322513267296   -3.208420226996
H      0.653532394986    5.182250405945   -2.471712405798
C      2.264778597408    4.351556156529   -1.301807279935
H      3.183262987843    3.760265754127   -1.410417300531
C      2.539389769953    5.612973200329   -0.531937356260
O      2.040911757198    6.690668000557   -0.759850168178
O      3.434957047929    5.416208741151    0.472881023922
Pd     0.989783303087    3.269999021066   -0.117371046022
C     -1.336227216129    3.873912721269    0.723656135347
O     -1.002981192019    2.651693832006    0.865938779758
O     -0.534426026626    4.700026923846    0.196603275410
C     -2.684784910821    4.353112888162    1.234069899456
H     -3.093926440379    5.073737846445    0.511393352681
N     -3.592259648148    3.221239254145    1.291457323476
C     -4.936792230050    3.358516135300    1.100362783445
O     -5.461290081356    4.438910550259    0.881124936860
O     -0.104884176220    0.582244048808   -0.745453107693
H     -0.429188041827    1.384558149584   -0.262883631474
C      2.379623050899    2.698724426099   -4.095813803606
C      2.173629103891    1.553722991455   -4.876019655589
C      0.853502603111    1.079120601729   -5.066166264940
C     -0.200286886835    1.779318195678   -4.465719393541
C      0.024869690707    2.919044431715   -3.688510271538
H      3.403841641926    3.063663291895   -3.964671621111
H     -1.225128396462    1.425222318394   -4.611588132562
H     -0.820673072400    3.445594970407   -3.237179269559
C      3.344395140151    0.842174072657   -5.509495172498
H      3.416381065925   -0.205364580161   -5.169873223005
H      3.254928786831    0.808294964857   -6.608935231852
H      4.294922734041    1.339035110725   -5.266320037899
C      0.584991297888   -0.149016708652   -5.900815836469
H      0.953234847168   -0.030787536835   -6.934451340912
H      1.089092309680   -1.040496497364   -5.489207523529
H     -0.491544127821   -0.368258520223   -5.953455963667
C      3.747823381281    6.544549021292    1.307425994288
H      4.758607114225    6.339639244789    1.690806075250
H      3.778067627451    7.450520272672    0.684362471879
C      2.748700242879    6.702669142434    2.441864048427
H      2.695872337044    5.788334992063    3.053519742146
H      3.050939800450    7.537176747682    3.095116665414
H      1.745706141804    6.921571315583    2.047194464793
C     -5.744522214854    2.072250127815    1.187151377572
H     -6.446639873524    2.152946223395    2.031369058796
H     -6.349149070329    1.976100011354    0.273114700580
H     -5.131102257267    1.168272277947    1.315029960658
C     -2.564489530011    5.053224958061    2.613240057224
H     -3.598715636534    5.288712806754    2.916757186681
H     -2.181212761117    4.311722955088    3.336394153447
C     -1.715836680843    6.335204434789    2.688847808436
H     -0.678966032868    6.079923164365    2.408356380112
C     -1.695741133392    6.850264246809    4.134808961181
H     -1.320116990146    6.084994921821    4.834123304516
H     -1.050971618054    7.738702329689    4.231160204817
H     -2.708397022540    7.136698214304    4.467702618732
C     -2.202673665076    7.423462383544    1.722968910844
H     -1.624077487995    8.351491321187    1.858524777663
H     -2.084229544041    7.120151292425    0.672326156161
H     -3.266342550755    7.662288624451    1.895482499389
N      1.996534263593    1.434757817133   -0.323072615617
C      1.209941731258    0.446976068463   -0.708641342879
C      1.718325093840   -0.841090421663   -1.141039824519
C      3.115809367865   -1.072829184869   -1.093503765288
C      3.966007212468   -0.029078532720   -0.539727917002
C      3.365604060835    1.201955644127   -0.150928168973
C      0.836820768267   -1.835126849355   -1.622362265207
C      1.335682633859   -3.046392369511   -2.071463766620
C      2.723843042576   -3.282885313704   -2.042070997300
C      3.596204714072   -2.317943126441   -1.561671785139
C      5.355610383226   -0.194010180758   -0.339597217565
C      6.126599382590    0.804066483859    0.234568563645
C      5.519519290015    2.005359536501    0.638894266925
C      4.159933844039    2.201144848412    0.450590500251
H     -0.232625312552   -1.625840975820   -1.639280191756
H      0.656498413543   -3.814842239518   -2.447491699756
H      3.119601068256   -4.237173519959   -2.398838009994
H      4.665671524203   -2.529426534875   -1.548475424105
H      5.832334690543   -1.131263037091   -0.629124254216
H      7.198111001402    0.650423792057    0.381681407880
H      6.115233037286    2.792579995257    1.107017910586
H      3.692496215505    3.133233861513    0.766103887614
