74

C     -0.175394260485    3.929647366197    3.324444575536
H     -1.400115865900    5.520028348650   -3.384075738016
C      0.970909969281    4.312299821782    2.423023736219
H      1.837807301227    4.710066831337    2.972059786267
H      1.520866342300    3.258617523100    2.088400819989
C      0.701016191416    5.057666228362    1.177582781231
H     -0.322438929942    5.362715950753    0.942557475391
C      1.785010186304    5.969474461519    0.721564462144
O      2.925542837783    5.948926858537    1.141272471501
O      1.379924278580    6.826938570439   -0.237851635120
Pd     1.154605752483    3.225725781338    0.370749660286
C     -0.855297884627    2.937041116247   -1.681526646226
O     -1.193464640731    1.847067319557   -1.181276174335
O      0.229931529587    3.570396940020   -1.475286111675
C     -1.863370233032    3.567197832218   -2.666735900586
H     -2.840376951696    3.227602951696   -2.291313640456
N     -1.850270810808    5.016769994479   -2.629972438110
C     -2.127511386866    5.687808486089   -1.475817274999
O     -2.473415156533    5.107483427663   -0.453476462251
O      0.050833650598    0.084133767475    0.058959936709
H     -0.403267098210    0.912320724918   -0.382238943066
C     -1.466245020865    3.700053415363    2.822106458434
C     -2.534488919293    3.360748678341    3.660114187062
C     -2.308703213714    3.232783171582    5.052542693961
C     -1.017812377482    3.458628775163    5.547583430808
C      0.038850415590    3.803293399342    4.701754712738
H     -1.661041586865    3.790610611410    1.750243681171
H     -0.835043489706    3.365324583532    6.621980439410
H      1.034360269102    3.978516722778    5.119775648860
C     -3.905754680496    3.137554860026    3.071574787383
H     -4.250976692530    2.101321751165    3.230889234506
H     -4.658751397480    3.794409055689    3.539166674539
H     -3.909197475155    3.335668612016    1.990538146006
C     -3.433936225966    2.860764193097    5.985056589071
H     -4.252181431908    3.600360767013    5.949752975945
H     -3.881123357136    1.889194664480    5.714031306560
H     -3.086996178929    2.792892809734    7.026442155348
C      2.397466888223    7.683864197451   -0.784939861159
H      2.852846299151    8.264699694551    0.033260158498
H      3.195771019466    7.055979799911   -1.212979955955
C      1.767184556866    8.580269782894   -1.830062884715
H      0.985187261498    9.218646392385   -1.390518979898
H      2.535680021915    9.235367366678   -2.269409355603
H      1.316914738388    7.988156853586   -2.641556649384
C     -1.956321226188    7.194371684193   -1.523977613312
H     -2.748585381185    7.658653825744   -0.921008242766
H     -0.987209298049    7.442177156836   -1.063638237418
H     -1.981896576378    7.604352685373   -2.544831126941
C     -1.683300839165    3.011093335386   -4.099824275396
H     -1.673503731464    1.915594195634   -3.969784689693
C     -2.880516646592    3.367081438906   -4.991309909135
H     -2.777046816387    2.907884991672   -5.987511281787
H     -3.826411726706    3.013340215876   -4.551742994733
H     -2.968699283072    4.456699502799   -5.134971786273
C     -0.351897731506    3.415514470952   -4.749448824403
H     -0.311553314825    4.496138365686   -4.974466988179
H      0.506944455128    3.179059105156   -4.104401840791
H     -0.219185228280    2.890344198318   -5.708644010889
N      2.022311413845    1.262987343332   -0.006036080397
C      1.355070791307    0.108968805641    0.042381283381
C      2.053373976302   -1.158494421989    0.098942157677
C      3.477558345834   -1.157779342026    0.069309484452
C      4.141922009928    0.102697898379   -0.025102452974
C      3.394102846125    1.247138239133   -0.058562006823
C      1.346275217416   -2.382379147882    0.175107672242
C      2.036756194280   -3.579489861678    0.231144845761
C      3.450889170913   -3.585553817885    0.207028466584
C      4.159283141456   -2.400772231614    0.125867784949
H      0.256067163629   -2.353988614464    0.189138795930
H      1.491221412563   -4.524239700822    0.291869003000
H      3.987145705909   -4.537218654589    0.250846519461
H      5.252115742499   -2.407519862612    0.104297343053
H      5.231323218986    0.155483691597   -0.065363226105
H      3.870139446093    2.228718303402   -0.121549646553
