40

H     -2.542685865278    5.528743747352    0.930007526662
H      2.371069732370    3.651083221411   -0.779158571913
Pd     1.066330598470    3.107966592226   -0.212120663407
C     -1.597256061399    2.764993155597    1.444968414405
O     -2.558214712283    2.187249111947    1.915483531164
O     -0.829067962699    2.321548408469    0.495801716445
C     -1.211470853780    4.203189051511    1.914264809995
H     -0.112537270020    4.255658932938    1.986118795370
N     -1.607677039098    5.142231311395    0.856711140243
C     -0.902203145758    5.465207651026   -0.236537965865
O      0.214141015152    4.993693279288   -0.528613355932
O     -0.007321196442    0.072536257409   -0.213235045977
H     -0.467799740855    0.946653645199    0.059167864037
C     -1.504398949030    6.496165857324   -1.163015660807
H     -2.438984330993    6.932358489978   -0.783668456757
H     -0.766561741859    7.296283404691   -1.322097298001
H     -1.690856166224    6.026179359073   -2.140906473145
C     -1.832031653421    4.603927299948    3.264970733216
H     -2.922193474710    4.447428794312    3.171221294921
C     -1.329638718851    3.675573906201    4.378961988324
H     -1.790082547492    3.948602654370    5.341538600975
H     -1.582445404208    2.628430897182    4.167066188464
H     -0.235525617463    3.759650729638    4.499579836545
C     -1.554555197387    6.071098146445    3.621966268200
H     -0.470956224096    6.257518846412    3.715412532081
H     -1.946384123884    6.777575584391    2.873649145763
H     -2.018890074340    6.325239792049    4.587703304226
N      1.992859826807    1.265828280671   -0.046724698702
C      1.297707708599    0.102746710906   -0.123709543626
C      1.988703140734   -1.135732480946   -0.124906725868
C      3.361728829841   -1.163802209066   -0.013674020422
C      4.087944294651    0.041895418033    0.104671550490
C      3.348568159970    1.213261609426    0.077775649623
H      1.387039198976   -2.042011413452   -0.202089833306
H      3.888325445353   -2.122845560129   -0.008738989384
H      3.846961739924    2.178949083303    0.150399382649
C      5.588574641511    0.058623042551    0.244072213519
H      5.974788246519    1.086241452245    0.312618851431
H      5.914355188364   -0.482874022280    1.148119491617
H      6.077735348101   -0.426433413891   -0.617232735048
