77

C     -0.559830310125    4.649821515135   -2.319167576351
H     -2.218947186918   -0.252829658591    0.507297409684
C      0.493983154642    5.036995975571   -1.376580499940
H      2.480800019428    3.735585377899   -0.567638474466
H      1.414694520308    5.392901664026   -1.846015080064
C      0.392557644680    5.231104044882    0.004037053199
H     -0.548214714654    5.079338198587    0.544476857162
C      1.399873692244    6.017794239704    0.781885662413
O      1.308297819885    6.226826531358    1.968253326186
O      2.412051834165    6.489795488508    0.024047709613
Pd     1.125937833221    3.185743199767   -0.174639685499
C     -1.837332026880    2.655436234938    1.056623955245
O     -0.756584452990    2.241765212728    0.446141164714
O     -2.040540475729    3.814595389292    1.383540234553
C     -2.904981042671    1.575326766133    1.362119993139
H     -3.865785351936    2.093342454749    1.237104926530
N     -2.891289723181    0.496473905980    0.390543444390
C     -3.533959403600    0.596188631075   -0.815198088859
O     -4.242719827010    1.546538911164   -1.108160042788
O      0.068145274107    0.055430641007   -0.243998964146
H     -0.376819299272    0.982190565660    0.033920690546
C     -0.227426071282    4.560015913530   -3.687221769285
C     -1.160951968200    4.194539312907   -4.659955925571
C     -2.484175848768    3.892057207244   -4.254600886390
C     -2.818548747892    3.987034212600   -2.893674448843
C     -1.884745417619    4.370080888442   -1.935691093789
H      0.798723121605    4.782719719731   -3.995472882877
H     -3.827863628607    3.725858620868   -2.568699595728
H     -2.186243360735    4.439495044252   -0.890309541884
C     -0.761972886597    4.117577624333   -6.113146685111
H     -0.910250683233    3.103920233762   -6.522890275693
H     -1.366134525615    4.797899902299   -6.737168441566
H      0.295588308356    4.384234988152   -6.253733164841
C     -3.522464679227    3.473934746002   -5.263296445527
H     -3.698790658611    4.263368760195   -6.014437644431
H     -3.205722421124    2.577389568162   -5.823251701208
H     -4.481509447460    3.247389434293   -4.776964429564
C      3.438605359805    7.227191555195    0.707096122114
H      2.975316747659    8.069430468132    1.245692616943
H      3.899530357977    6.575309610020    1.467645018283
C      4.446068898677    7.695822362697   -0.322073913606
H      3.970895806220    8.348079755703   -1.071196781665
H      5.248763177955    8.265854320246    0.171142895183
H      4.902904610028    6.842228924123   -0.846466964653
C     -3.300766463374   -0.579055889176   -1.753309819738
H     -3.670181945591   -1.516260784332   -1.306233716321
H     -3.833121030282   -0.393049071198   -2.693781350123
H     -2.224581838479   -0.703929114316   -1.954202661127
C     -2.827738847766    1.047477505055    2.836730561736
C     -3.053723124386    2.214041676925    3.817615443985
H     -3.039650951964    1.838266102919    4.853684395917
H     -2.285215112087    2.992652758695    3.720443359660
H     -4.029947263828    2.693775767553    3.643982003927
C     -3.946040161636    0.008088516847    3.048401830692
H     -4.934891818092    0.441152728383    2.827632354676
H     -3.818188920804   -0.875807814514    2.405965832170
H     -3.953430455527   -0.333289740908    4.096153379427
C     -1.458368186558    0.401204152409    3.127335694381
H     -1.240218164165   -0.445920368940    2.455684363111
H     -0.637368154294    1.127701947153    3.026868155187
H     -1.434184016145    0.009400824078    4.156859297131
N      2.059167411753    1.232112374357   -0.084317901649
C      1.369506509191    0.061585713602   -0.189910431297
C      2.056428236588   -1.179753938034   -0.251207810505
C      3.430843732958   -1.213141397163   -0.172573955529
C      4.139079207048   -0.000163093903   -0.032838469272
C      3.406226089270    1.179995231127    0.000964431595
H      1.454258650627   -2.083715828447   -0.347832691837
H      3.974266165083   -2.158424037002   -0.210603086420
H      3.935430250550    2.127223083946    0.095982404090
C      5.619945062574    0.091641780944    0.069332430825
O      6.238130251613    1.125493565204    0.179318690430
O      6.205120295794   -1.120447403814    0.025117925428
C      7.630014434375   -1.137155803367    0.118004054011
H      7.964533701474   -0.691086785803    1.066720964662
H      7.927299290720   -2.191658315024    0.066489074529
H      8.081951743113   -0.571135641820   -0.710476890009
