61

C      1.183415488811    4.092743860820   -3.371312789871
H     -3.182928034583    2.310625478052    2.009933667830
C      1.748908047057    4.914582027398   -2.231529641049
H      2.510958489510    5.613258875769   -2.626076731807
H      0.969829809428    5.549058223527   -1.784458885880
C      2.416832392401    4.085605286026   -1.136079873122
H      3.127054905675    3.357706033498   -1.552364160208
C      3.069955908787    4.920444167905   -0.072169993744
O      2.820425522463    6.078137167317    0.167675332485
O      4.004573490991    4.214034179821    0.618030953768
Pd     0.997479335840    3.010855662379   -0.131203628810
C     -1.380706161982    3.594381410499    0.536313628852
O     -1.019585904367    2.397658082892    0.778161277829
O     -0.578171216584    4.414885351171    0.005609996948
C     -2.763335202002    4.070228442837    0.931110863733
H     -3.256397276766    4.530521263258    0.060963900020
N     -3.609233899763    3.009723328281    1.413886971880
C     -4.849393276110    2.773669515791    0.876550460893
O     -5.350104876908    3.501038633739    0.037129105930
O      0.073601660105    0.105296921722   -0.109766002500
H     -0.331623720232    0.985805755979    0.115031866249
C      2.026712862630    3.553858913856   -4.355490585959
C      1.545015227858    2.774770814235   -5.415755311695
C      0.155719359800    2.520434154859   -5.505430871459
C     -0.687498497194    3.063691503463   -4.527375039073
C     -0.189570611110    3.837461231938   -3.475259307739
H      3.101980485933    3.756507735332   -4.302605456025
H     -1.764206190173    2.880877180544   -4.593117455055
H     -0.872589309180    4.253487157250   -2.730656921031
C      2.495583013834    2.225914970773   -6.451782269040
H      2.454569241050    1.124146864701   -6.501037981974
H      2.250451803598    2.591233092850   -7.463868137054
H      3.535001184163    2.513163202288   -6.235716853091
C     -0.408495947522    1.692472831145   -6.633734766952
H     -0.187941777873    2.139125021108   -7.618606221651
H      0.020455885854    0.675643781154   -6.650121583454
H     -1.500512742874    1.593366754722   -6.549352857881
C      4.701910692277    4.903616897892    1.671372721729
H      5.322647758862    5.695534594702    1.220237679086
H      3.965231904779    5.403307428264    2.319901218025
C      5.540642942704    3.894131188723    2.428174913394
H      6.238007625217    3.370447844064    1.756854088420
H      6.125528622228    4.405648131065    3.208504797988
H      4.905290070691    3.139826413873    2.918745519116
C     -5.571185357143    1.552768158145    1.422290189852
H     -6.491270769672    1.884838918699    1.927292934127
H     -5.877778647655    0.920039215989    0.576248279693
H     -4.971620908752    0.956417346940    2.125510100529
H     -2.627314133331    4.878612667908    1.674195819047
N      2.103532547670    1.244020455033   -0.087887452396
C      1.386878276084    0.089784368722   -0.118153652859
C      2.027666342041   -1.171159462539   -0.164829824196
C      3.404456919122   -1.238553853923   -0.132904744300
C      4.117503027828   -0.033510247724   -0.052125921929
C      3.448039616873    1.179710660236   -0.034030950781
H      1.399665545673   -2.061045230614   -0.210151845026
H      3.943640769388   -2.185821818705   -0.156794524730
H      3.996031483897    2.120095437285    0.038973540262
N      5.583902450608   -0.046982557603    0.014660053854
O      6.158416411877    1.027490096738    0.088880503409
O      6.130307021935   -1.137788807181   -0.009671943148
