65

C      0.200286493901    4.959494184043   -2.678792963185
H     -2.920080122111   -0.058607501235    0.139454031092
C     -0.095903898328    4.852774985488   -1.246165640879
H     -1.096421089931    4.443684541343   -1.075713361210
H      2.352247811187    3.742220039135   -0.729126956256
C      0.484837703038    5.305966609123   -0.050474413115
H     -0.178439571684    5.237404722522    0.817523213786
C      1.650950501276    6.213916147994    0.167149668458
O      2.413058491433    6.675904855087   -0.653302013222
O      1.747385506889    6.494813565432    1.481046607662
Pd     1.051349485352    3.193262343392   -0.175828938232
C     -1.921706842179    2.848532327249    0.867944728472
O     -2.032814352729    3.994340619807    1.268312116695
O     -0.797522018046    2.284192810178    0.518889508509
C     -3.185279709225    1.958918647720    0.777630068296
H     -3.978206467687    2.645103690564    0.443895121726
N     -3.069298043898    0.886347110291   -0.194855502703
C     -2.925327311776    1.140201413576   -1.527852565390
O     -2.965384286081    2.278817255695   -1.976803445264
O      0.019725355033    0.061539084686   -0.104680222876
H     -0.433307125637    0.980063328427    0.138689970835
C     -0.742267935091    4.350762318779   -3.540297366863
C     -0.613120975671    4.382077633954   -4.930612103435
C      0.496394296626    5.051852288790   -5.499201867617
C      1.432939208479    5.655295135855   -4.643223264271
C      1.305529427663    5.615464613488   -3.257546688816
H     -1.594588236832    3.823232781508   -3.102114408015
H      2.290828996734    6.173753794694   -5.081084845204
H      2.044464321434    6.094743009409   -2.617711917262
C     -1.648765317705    3.710686418954   -5.799325429138
H     -2.157126562413    4.433931221597   -6.460158724141
H     -1.196697094839    2.949525805764   -6.458097254756
H     -2.414929025129    3.216370033372   -5.185293028436
C      0.673079329064    5.117663052334   -6.993998478387
H      0.748669559548    4.109826336285   -7.437321299068
H     -0.187702656145    5.606690265626   -7.481502979349
H      1.579349819054    5.676277168920   -7.268697285978
C      2.810599795819    7.373327279169    1.881129334871
H      3.773370687752    6.932586556702    1.573442257014
H      2.708627942111    8.327246773910    1.338263074653
C      2.723864855115    7.561215041166    3.381495678727
H      2.834427354249    6.600286329220    3.907150688164
H      3.524488298017    8.236150065687    3.722167493954
H      1.755719137457    7.999934426069    3.667803203598
C     -2.677928285547   -0.077543633523   -2.400537375898
H     -2.974652138106    0.153131434628   -3.431363861109
H     -1.600915141896   -0.310729186120   -2.384561881922
H     -3.223682362991   -0.965851767582   -2.047179817631
C     -3.541169536559    1.400729698466    2.156872205615
H     -4.491809285837    0.845697697014    2.121787280643
H     -2.752133208022    0.724617338910    2.527135926489
H     -3.644525500066    2.227055612611    2.873704647740
N      2.004918321145    1.262138417283   -0.018351974799
C      1.322647114387    0.088502084673   -0.066673783132
C      2.019140105626   -1.150340856190   -0.087470631878
C      3.393408464077   -1.168583780560   -0.024992258889
C      4.089784987657    0.054913849792    0.057043472660
C      3.357029523847    1.228346361759    0.051191241992
H      1.424564843056   -2.062747187835   -0.140054018765
H      3.937510355611   -2.116044978366   -0.033444985998
H      3.860900520480    2.192087612478    0.096320979194
C      5.590621305114    0.068597580399    0.144525727666
F      6.022788106733   -0.556088274211    1.256838696101
F      6.147832120864   -0.575895546780   -0.898099246205
F      6.085945017158    1.315564676077    0.163377494436
