72

C      1.607277013570    5.817513587832   -1.193306069573
H     -3.045933622181   -0.169777848700   -0.486240649431
C      1.322892054256    5.423157904779    0.193490131970
H      2.273738680616    3.475223946610    1.103355789159
H      2.103647295277    5.665145362937    0.920714396425
C      0.093258588239    5.046210694418    0.727411434248
H     -0.811044555652    5.019337308799    0.114131996770
C     -0.115929838065    5.051207910602    2.210010551798
O      0.732671653240    5.284752076912    3.043015370637
O     -1.391820788450    4.750697082877    2.478890952786
Pd     1.048306795536    3.130625643958    0.282830011467
C     -1.887112385799    2.856575395798   -1.021247437618
O     -2.047963895194    4.025203816653   -1.333243182655
O     -0.767504453127    2.327874964755   -0.625803521968
C     -3.046435168956    1.832627462950   -1.204871880021
H     -2.777015962222    1.308344560840   -2.137082430720
N     -3.043275184498    0.793035806642   -0.175844931864
C     -3.008576825139    1.032147311026    1.168657940386
O     -3.005558865406    2.159498232702    1.639213980341
O     -0.023589637709    0.038901771572   -0.008765464220
H     -0.436396180104    0.960400373878   -0.246025115171
C      2.873516569336    6.360473431806   -1.486914277591
C      3.221451149187    6.798609641758   -2.767971526006
C      2.267042683005    6.688991005315   -3.807528553915
C      1.006148887793    6.144263525413   -3.513831028276
C      0.665278856676    5.711287083476   -2.234993199095
H      3.608911382055    6.446720657395   -0.681090717983
H      0.267136537741    6.058581460230   -4.315409549740
H     -0.322196321253    5.281129199107   -2.048901658101
C      4.588575014589    7.379974930481   -3.032626030789
H      5.134509124072    6.804741714060   -3.799797329909
H      4.524849445526    8.416327265409   -3.405874450253
H      5.203271353027    7.390296738178   -2.120904403642
C      2.594192407533    7.149112376428   -5.204993248796
H      2.852677356453    8.221732865773   -5.229014908228
H      3.464673789049    6.610190988123   -5.617025323315
H      1.746896050987    6.992028308675   -5.887642749007
C     -1.791992725701    4.563124295564    3.846239609165
H     -2.547180914047    3.766539489978    3.795879472146
H     -0.924634320828    4.211369657831    4.424710136603
C     -2.354232460897    5.845047499550    4.437414573123
H     -3.190495208499    6.224400634866    3.829748552970
H     -2.728301061341    5.655418837688    5.456628038919
H     -1.579386335249    6.624572603229    4.497149737808
C     -2.912686267224   -0.212988733127    2.035651902223
H     -3.264901534803    0.028835030860    3.046228392532
H     -3.495909960324   -1.055412871041    1.632500068265
H     -1.856417558270   -0.522213358332    2.090801953449
C     -4.410234987806    2.470498824292   -1.429484460773
C     -5.165288031767    2.105473515334   -2.552667876844
C     -6.437746649565    2.643662111186   -2.772750698998
C     -6.970799813368    3.559344502463   -1.863607651729
C     -6.223154193622    3.932521794668   -0.740504816874
C     -4.952800496609    3.396842923777   -0.522822684074
H     -4.751494566676    1.392147867012   -3.272868934796
H     -7.009085480346    2.348011048315   -3.656800425095
H     -7.963869048539    3.985368516283   -2.030131048464
H     -6.632953531960    4.653827602298   -0.028232432378
H     -4.369818443270    3.686425420263    0.351352703997
N      1.978966166136    1.207248223634    0.003227486527
C      1.290397731158    0.044317827431   -0.027817297090
C      1.951850674912   -1.219461407107   -0.074969171282
C      3.336666819150   -1.221940152062   -0.124661942243
C      4.049085664560   -0.011076903543   -0.128837411485
C      3.335113440670    1.168569492261   -0.059769411221
H      3.871343610829   -2.175003910017   -0.169441118409
H      5.138560035894    0.011728943359   -0.176311931045
H      3.841495693729    2.133215745417   -0.047892957560
C      1.121527080894   -2.471981356350   -0.084837205458
H      0.507308411417   -2.549488982945    0.827420748729
H      0.417528795046   -2.471548752468   -0.932716923410
H      1.756337031046   -3.366951935754   -0.154067012875
