40

H     -2.616788101449    5.474381956881    0.950890932044
H      2.232261056851    3.626014132653   -1.021074658707
Pd     1.037763420525    3.100852300443   -0.240304408334
C     -1.555796784797    2.778986123100    1.560916239879
O     -2.555884903249    2.245398264720    2.003302572648
O     -0.722608365909    2.265742606915    0.711309751862
C     -1.200179753213    4.249444801772    1.946154289932
H     -0.102952096313    4.347597297904    1.976471556706
N     -1.671644243215    5.117430331703    0.858321745155
C     -1.029267817999    5.391286268154   -0.286274263420
O      0.086202846326    4.934420980171   -0.603586284319
O      0.015946551268    0.182097207202   -0.478724062477
H     -0.428418581781    0.971542455410   -0.009604206456
C     -1.706894545840    6.346091335035   -1.242183479172
H     -2.639351357099    6.772738274891   -0.847135529606
H     -1.005383649209    7.159563186903   -1.479170273500
H     -1.917767632293    5.814120319175   -2.182590196987
C     -1.795802886458    4.692982392140    3.293784876941
H     -2.884204357896    4.511351026853    3.229845432947
C     -1.252039129607    3.816790089771    4.429895187531
H     -1.693357889120    4.119331660319    5.392577186848
H     -1.493363547102    2.758019476090    4.265452174016
H     -0.156724500206    3.920481159577    4.520507034412
C     -1.539629751602    6.178084504208    3.585079291018
H     -0.458290101773    6.386961177937    3.654476674647
H     -1.954075274402    6.844061350804    2.812143544125
H     -1.995044526298    6.466008040368    4.545628561337
N      2.025102125498    1.283414069295   -0.052911997514
C      1.317094286833    0.150341717829   -0.314676571931
C      1.966169659996   -1.099565250233   -0.433911837548
C      3.325774622881   -1.179395233003   -0.211219364465
C      4.030949193873   -0.020472986298    0.142242004979
C      3.361623392663    1.197827940869    0.214354375062
H      1.350342684859   -1.966612227868   -0.673570051551
H      3.842601142151   -2.139579014947   -0.286371305908
H      5.098717916277   -0.057567171538    0.360525322378
C      4.107662818951    2.446355214307    0.592987242273
H      4.222782556953    3.114027687400   -0.275398519902
H      3.558037278925    3.014614723985    1.358376600281
H      5.106167535008    2.196218612676    0.978206524695
