25

N     -0.504305674398    0.559948676043    1.228582577634
C     -1.719803612531    1.127966147925    1.413308645699
O     -2.550159504523    1.184753556311    0.501635669746
H      0.156633687345    0.520148017586    1.995903783061
H     -2.343157327308   -0.218524770390   -0.410585310115
C     -0.693896297622   -1.206183122097   -0.534274831190
O     -2.013326493589   -1.117670595858   -0.679136491350
O     -0.086154642835   -2.222700652529   -0.743245643989
C     -0.017276872515    0.129249717780   -0.094598204558
H     -0.363114807816    0.890138211789   -0.815203262621
C     -2.015554707876    1.692489864022    2.784627478096
H     -2.919411790191    1.204858875545    3.179408925505
H     -1.190879434275    1.569947156262    3.500683180860
H     -2.246789950859    2.763245661623    2.677541367659
C      1.494900607015    0.090719816991   -0.098365353074
C      2.217444021979    1.083073997886   -0.776097295207
C      3.615127404905    1.090672483152   -0.752731624639
C      4.306462399959    0.105234952554   -0.043538891846
C      3.594577951574   -0.888947471260    0.635595410562
C      2.198306987512   -0.900179573297    0.606734849609
H      1.680011838555    1.857143638231   -1.331355802723
H      4.163413157010    1.868512702838   -1.290087988418
H      5.399283635380    0.107729866670   -0.024155000401
H      4.130418836919   -1.669264452923    1.181944684707
H      1.651373789610   -1.699853361779    1.109117848796
