65

C      1.591001972233    5.838165377603   -1.226000223843
H     -2.738010645460   -0.276443738291   -0.747186688241
C      1.227684530327    5.427897867828    0.136715106413
H      2.201327439386    3.515050568541    1.053144083337
H      1.947984693605    5.690355564243    0.917405777444
C     -0.020682631434    5.001043740041    0.581704624681
H     -0.878768603568    4.950341570084   -0.093339602480
C     -0.335242049441    4.978938473667    2.046649960323
O      0.438584806874    5.248642714048    2.938996203092
O     -1.607397164365    4.604796513335    2.216582375878
Pd     1.013703324982    3.116813558864    0.200566760067
C     -1.854441783351    2.747949500998   -1.235887967300
O     -1.997675793582    3.902136890469   -1.607100771627
O     -0.746624552872    2.253870433028   -0.755977968318
C     -3.012040205612    1.728279250927   -1.414977363536
H     -2.798265839479    1.244700657121   -2.384787818688
N     -2.981235193647    0.652999912269   -0.429319185955
C     -3.073350579634    0.862699737318    0.919522012962
O     -3.261114890169    1.969754887656    1.400059689243
O      0.022283571126   -0.001034416182   -0.177735791227
H     -0.409869515682    0.934732649550   -0.409690661562
C      2.850075338612    6.435768194750   -1.430543064391
C      3.266726351141    6.892320720572   -2.684353415691
C      2.392127646761    6.744431957550   -3.787576235398
C      1.138664337882    6.144224569608   -3.582555311376
C      0.728982790801    5.693198245646   -2.330649642002
H      3.523594978486    6.550658448931   -0.575788065408
H      0.462354216301    6.028396982454   -4.434109685839
H     -0.248857497107    5.218873780586   -2.213663254951
C      4.622707096585    7.532061896818   -2.853661265701
H      5.244150912615    6.982336357552   -3.580912694535
H      4.540512517436    8.565674647153   -3.230734505351
H      5.171941152267    7.565861885620   -1.901721703570
C      2.795359716685    7.221901452487   -5.158888413443
H      3.008709516476    8.304586945424   -5.164633764669
H      3.714820901290    6.721922376929   -5.508734587738
H      2.005284892233    7.030618088539   -5.898971074607
C     -2.107126368161    4.392891832918    3.548634168400
H     -2.818222377751    3.563263499239    3.434694139238
H     -1.272611221644    4.080294404291    4.194207446529
C     -2.774518567714    5.645232719661    4.091409538949
H     -3.576829321575    5.985049189616    3.418247392653
H     -3.219635952801    5.434410193106    5.077322579094
H     -2.045461506690    6.460942350850    4.213060127946
C     -2.886773766467   -0.381709249601    1.773843143609
H     -3.287846809352   -0.188412784054    2.776477468901
H     -3.382883324286   -1.264085014250    1.340294184770
H     -1.810209007593   -0.602951943444    1.854690819604
C     -4.372460688970    2.422888811580   -1.510541971126
H     -5.155439423801    1.689383247459   -1.757502948407
H     -4.618407422081    2.902327930883   -0.553841288224
H     -4.341222607873    3.196634287726   -2.288763833310
N      1.994173947851    1.205661093943   -0.014949580853
C      1.322518839124    0.028791895019   -0.102044899216
C      2.027187735060   -1.205726192821   -0.104097727179
C      3.402125173311   -1.213151461044   -0.055264162474
C      4.090354922646    0.016660657498   -0.002967564226
C      3.347391980428    1.183599518490    0.020198994840
H      1.439576972158   -2.122468606767   -0.159427160540
H      3.953495072956   -2.156387949289   -0.062356013271
H      3.844321566573    2.150485006611    0.075601640316
C      5.593151763307    0.044637887793    0.024423648801
F      6.078225506344   -0.696027099843    1.038446931556
F      6.115206823230   -0.465778996754   -1.107481639396
F      6.074305001038    1.290053025360    0.163737865740
