73

C     -0.199541162017    3.980544986044    3.345357995287
H     -1.425210124384    5.536790997953   -3.404785438317
C      0.944723731620    4.384056471349    2.451869049680
H      1.802380918765    4.797562880642    3.003834017372
H      1.523266397619    3.337832544005    2.125284780738
C      0.678476646876    5.112931814961    1.198153226536
H     -0.346772371934    5.394997154379    0.941973754890
C      1.756298046431    6.039911752338    0.748199827148
O      2.885798777692    6.045706759426    1.194811634765
O      1.355212862282    6.871280267727   -0.232730023062
Pd     1.169507269212    3.285316267218    0.411981697309
C     -0.812268919369    2.964084890346   -1.669508657992
O     -1.144129236561    1.867138824666   -1.171822602133
O      0.264662955878    3.603222016784   -1.451656589277
C     -1.824565706311    3.578168538380   -2.658722377930
H     -2.796608909389    3.228715439069   -2.278833490315
N     -1.826432067669    5.027785658597   -2.627570961955
C     -2.101647900124    5.700704989556   -1.475031937528
O     -2.411016447829    5.116953093048   -0.442219986271
O      0.083019047048    0.138891442189    0.069296667733
H     -0.377397134084    0.979117915611   -0.390198750821
C     -1.487181412422    3.742278407659    2.838568965343
C     -2.552067725579    3.381877449723    3.672116674201
C     -2.325998685778    3.242057337135    5.063519876604
C     -1.038224764955    3.477346192318    5.562493552153
C      0.015313722154    3.842294410131    4.721592011736
H     -1.682605208077    3.843546183063    1.767756471846
H     -0.855583895492    3.375398760238    6.636034019515
H      1.008292734322    4.024453761825    5.142606152155
C     -3.920493886310    3.149144832890    3.080912898067
H     -4.256489927333    2.109178253828    3.234939780700
H     -4.679836918872    3.796789586084    3.551005689990
H     -3.925001802845    3.352221022186    2.000810251311
C     -3.447806297829    2.848236008389    5.990927947063
H     -4.274011489154    3.579115942462    5.961722949514
H     -3.883763164938    1.874568907541    5.709514647455
H     -3.101362887113    2.773904767572    7.031939726749
C      2.368445733661    7.740047788933   -0.773815415932
H      2.787485248004    8.349328782582    0.042946906940
H      3.191373134530    7.120200579184   -1.164749364775
C      1.746070450427    8.596500575836   -1.856087409543
H      0.941100133129    9.230055168972   -1.452552116704
H      2.512309539314    9.255802074232   -2.292847737993
H      1.328716693287    7.974807247973   -2.663056706430
C     -1.976066945913    7.210696348337   -1.535761625404
H     -2.785540060378    7.655692063877   -0.940989648831
H     -1.018179073518    7.491749571145   -1.071391117671
H     -2.008247307976    7.611903342485   -2.559757382945
C     -1.645306516345    3.016149621309   -4.090793867617
H     -1.605792564786    1.921341763959   -3.953365886343
C     -2.871906345697    3.336479186485   -4.957193388066
H     -2.795786089904    2.870293523399   -5.950970468900
H     -3.796072397984    2.966296483982   -4.486489374694
H     -2.988224118520    4.422791779309   -5.106164531949
C     -0.317484114225    3.448107919307   -4.748744659550
H     -0.368767666095    4.518894502738   -5.025072960412
H      0.492346579374    3.368683586842   -4.005869959770
C      0.061328755771    2.638257011001   -5.991607085874
H     -0.675585432639    2.746284403692   -6.803201919707
H      1.035949436011    2.961707159695   -6.389985752629
H      0.139889227245    1.563837455391   -5.755775056578
N      2.066460839535    1.314940596273    0.045237404164
C      1.376194667366    0.142792431454    0.085402968762
C      2.069052108837   -1.100207080309    0.163589509714
C      3.444644132295   -1.124993738414    0.143207314813
C      4.125772842618    0.101537047627    0.047383486535
C      3.409055465909    1.288075982818    0.008081646704
H      1.470543817052   -2.009941596298    0.217783994080
H      4.014014031351   -2.053824395082    0.187232992489
H      3.939385768501    2.240909427604   -0.040536057842
N      5.587011402048    0.137902342648    0.003421059518
O      6.126035937998    1.230202123146   -0.094156187835
O      6.174900346600   -0.931470224773    0.066613835161
