74

C      0.227126237434    4.941904354840   -2.697597925139
H     -2.919532473745    0.003553903041    0.126697348320
C     -0.080839395513    4.847856284973   -1.265243386820
H     -1.088277751345    4.454010427169   -1.098381642394
H      2.342958279169    3.705440427993   -0.750110641406
C      0.494253237767    5.311255145995   -0.071430418402
H     -0.177885751009    5.261348525706    0.790782938932
C      1.669280156139    6.205877995391    0.146066843522
O      2.458847266419    6.633663968736   -0.667391551702
O      1.741939622481    6.522071616272    1.454728061652
Pd     1.040188323393    3.190167343167   -0.169613968735
C     -1.936452058702    2.900800111424    0.882803025951
O     -2.053623661955    4.067796694281    1.226512715767
O     -0.812015818705    2.323562597147    0.570958167817
C     -3.191650365781    1.998024774646    0.827231643499
H     -4.012542982714    2.671074819741    0.541447491629
N     -3.089404629454    0.954307811465   -0.180934001950
C     -2.944520222375    1.242965404052   -1.505740575831
O     -2.988241972080    2.392126212322   -1.927751732861
O     -0.014627192810    0.071550108299   -0.081675581112
H     -0.448040394733    0.979315498822    0.166363911640
C     -0.724755888615    4.355615281413   -3.563813032237
C     -0.586870824599    4.382631523366   -4.953717468419
C      0.542564226662    5.022441785497   -5.516937779343
C      1.488872415011    5.602841274688   -4.656128844839
C      1.351537339475    5.568766839399   -3.271080728354
H     -1.592695131797    3.850914054614   -3.129233910538
H      2.362542662666    6.098507229722   -5.089409539100
H      2.098394724730    6.030601191560   -2.627646133285
C     -1.634625050467    3.738263344326   -5.828511458314
H     -2.113745461228    4.472602556697   -6.498898896972
H     -1.200555869894    2.958790943832   -6.478086595774
H     -2.422346114820    3.272397549278   -5.219517151044
C      0.729701973105    5.081363042788   -7.010981919801
H      0.780169411721    4.071411147228   -7.453216981504
H     -0.114044725912    5.593646057416   -7.504509988730
H      1.652756929485    5.614511623447   -7.280760468915
C      2.809366229541    7.394360610493    1.853158286501
H      3.772056901976    6.930067565908    1.581480868504
H      2.736572901866    8.333730325636    1.280848983072
C      2.691510102126    7.628033693695    3.345139628731
H      2.772933422504    6.681187180308    3.900868814508
H      3.495243801008    8.299650552416    3.685254036888
H      1.724444827588    8.090516534199    3.595451437100
C     -2.689628691353    0.047259309750   -2.406972523307
H     -2.959915796133    0.309265379850   -3.437511070212
H     -1.616178149518   -0.199874561632   -2.370144664367
H     -3.254092855640   -0.843264607560   -2.090168145230
C     -3.490278065908    1.349755021008    2.191418742978
H     -4.402302166457    0.735709259962    2.071646427689
H     -2.668011656024    0.648235416853    2.425712141832
C     -3.683638572602    2.300212830277    3.387731722180
H     -2.741641007826    2.856375358775    3.534284856349
C     -3.948908495250    1.480876535625    4.657846492945
H     -3.142994734361    0.752808823000    4.848537647774
H     -4.025986089458    2.133766330167    5.541971659031
H     -4.894921862215    0.917124243561    4.578050163254
C     -4.791147334092    3.334522627584    3.149481930931
H     -4.960320664192    3.937547613505    4.056375169588
H     -4.518856791429    4.026682602581    2.339985173194
H     -5.748097980162    2.846196544688    2.892824835559
N      1.977067992087    1.264042159953    0.027159911925
C      1.296344146494    0.093091521456   -0.017665565546
C      1.980821143331   -1.146533583634   -0.009016035353
C      3.363064610002   -1.197733936660    0.073707109102
C      4.051366713797    0.034651067385    0.148781185814
C      3.331914064451    1.211418379349    0.118019522997
H      1.371832899616   -2.050822424248   -0.055609945678
H      5.139980127701    0.071336744905    0.221565308368
H      3.840863354767    2.174018775833    0.160635466400
C      4.112002280109   -2.502774774613    0.090441993403
H      4.718873601288   -2.593635863695    1.006391668025
H      3.432151488048   -3.364845511865    0.040435038643
H      4.808748393307   -2.562913669279   -0.762040338964
