74

C      1.567750244959    3.972690944868    2.317387298732
H      0.588406861663    4.359719431219   -3.705430052391
C      0.850221200752    5.235767023923    1.840436862457
H      0.123130814323    5.566660569156    2.599541022973
H      1.584747606799    6.040296813662    1.692451609189
C      0.170870485098    4.869238882350    0.522514050965
H      0.454560353862    5.472844966936   -0.347546021540
C     -1.302151447382    4.641386599045    0.599716770056
O     -1.890263189414    4.302398964802    1.610675962859
O     -1.912803239922    4.838400473831   -0.582963407423
Pd     1.046472729926    3.034999876318    0.231150104256
C     -0.384939883160    2.515029206033   -2.220534294910
O      0.631953532605    3.165863099889   -1.804340720864
O     -1.004744952178    1.650743680152   -1.569893944667
C     -0.844616537202    2.822094942721   -3.650986393004
H     -1.939716625171    2.920416468288   -3.626784127905
N     -0.314247786243    4.101191865498   -4.088416158136
C     -1.110867580892    5.069667899890   -4.627281197215
O     -2.286198165044    4.881983800445   -4.909454272273
O      0.082833545633   -0.064412422130   -0.058407220747
H     -0.334154829869    0.738661342007   -0.551383554069
C      0.807133512334    2.817157965025    2.635410041796
C      1.400894860867    1.670940013623    3.222440779243
C      2.781180928451    1.669797453847    3.476452648027
C      3.539889789672    2.812604277522    3.134910496120
C      2.962030160903    3.935654857038    2.563322237131
H     -0.283460383980    2.878468559760    2.575880946170
H      4.614706484394    2.808714481465    3.337900455854
H      3.572467814432    4.812868268459    2.332987780689
C      0.539459122577    0.488013409279    3.582458378524
H      0.876310662813   -0.428531021717    3.070288242088
H      0.578944636551    0.276288768981    4.664669025626
H     -0.509842197572    0.657838390584    3.305460805424
C      3.451244450704    0.475464652762    4.106750560400
H      3.003196371617    0.228396849064    5.083849294511
H      3.345668821538   -0.423198110627    3.475924582152
H      4.525046530439    0.652175609838    4.263230454056
C     -3.320066058383    4.529386830304   -0.677037227803
H     -3.404439740109    3.458489888461   -0.927672278514
H     -3.779430562432    4.681588095454    0.309994971518
C     -3.947741570152    5.406491649728   -1.741955057447
H     -3.496273329951    5.245329091246   -2.732827921404
H     -5.022475984523    5.175450982868   -1.817963264731
H     -3.847860589180    6.471615221473   -1.478462822190
C     -0.442172803376    6.419305822227   -4.836895837889
H     -0.802340769761    6.848666368963   -5.781893616195
H     -0.752204083146    7.097558024666   -4.025262934569
H      0.656548623700    6.364738999233   -4.850280093011
C     -0.506548346258    1.674352033961   -4.651339773958
H     -0.829175673046    2.075947039869   -5.627906022479
C      0.997614535038    1.390637495407   -4.732330240886
H      1.214412463013    0.671740509572   -5.538722634033
H      1.572105601854    2.306741872456   -4.941291252365
H      1.380236910874    0.957518453948   -3.792731708729
C     -1.312820876373    0.398691855961   -4.384202097235
H     -1.042380573817   -0.058037669114   -3.420893847778
H     -2.394367627397    0.606480664737   -4.357588086008
H     -1.130927551820   -0.340324332885   -5.181598787025
N      2.067597611607    1.101084742868   -0.015367602298
C      1.394346315704   -0.047698027830   -0.014005791663
C      2.077029310807   -1.319543410429    0.065444166354
C      3.502612783122   -1.325494234077    0.097041128385
C      4.176861230128   -0.068879681397    0.040274670197
C      3.436465812899    1.081254903591   -0.011781059111
C      1.361310578109   -2.541637812224    0.097306006066
C      2.043481404042   -3.741900833199    0.173091297680
C      3.457920487299   -3.754767237850    0.211165664941
C      4.174973145744   -2.573532294837    0.171496517028
H      0.271758454140   -2.509301038729    0.059481192931
H      1.491888768637   -4.684656605948    0.198490128840
H      3.986969858683   -4.709670710335    0.268187339757
H      5.267690901758   -2.586399269146    0.194942826498
H      5.267413844175   -0.023820982614    0.040084857177
H      3.916381069199    2.061538993278   -0.046341404963
