53

C      2.011633961340    3.319737220418   -2.310723155648
H      2.867241137311    2.640936194179   -2.350700550712
H      2.197039792427    4.395535166566   -2.284045672562
C      0.753230891682    2.835329289440   -2.585663587462
H     -0.087610267623    3.514996274773   -2.745572896363
C      0.534275482876    1.390725240334   -2.941965009978
O      1.421443871589    0.574418891899   -3.033976019154
O     -0.758845516918    1.147252677793   -3.143548889034
Pd     0.937760530258    3.044196794460   -0.356682483200
C     -0.056597218006    5.553268586766    0.480501883993
O      0.128980326803    4.849196294571   -0.617746341491
O     -0.458797765231    6.696210759345    0.482324105620
C      0.314211392492    4.829551948030    1.795449458360
H     -0.433815456727    5.140888836472    2.535458365791
N      0.234604065875    3.378218456957    1.555068917363
C     -0.439975618839    2.585465432827    2.343216503450
O     -0.717601240426    1.350658400632    2.070556429789
O     -0.110327607416    0.226382081825   -0.056124649385
H     -0.488073535024    0.978587187864    1.114648375872
C     -1.138534233270   -0.229241334792   -3.367198571633
H     -0.568480754402   -0.614366610379   -4.227602003933
H     -0.844036511129   -0.806790318181   -2.477552264631
C     -2.632532322028   -0.267258530301   -3.603459704873
H     -2.912968703569    0.333430265792   -4.482612093874
H     -2.953705228686   -1.305847532299   -3.778088302042
H     -3.177810346822    0.118881750642   -2.728967971608
C     -0.995916026040    3.035238663218    3.674798030348
H     -1.231139268014    2.143194053218    4.267962428033
H     -0.296614564788    3.675531087277    4.227842911657
H     -1.930330296811    3.599279632416    3.520333318649
C      1.718941704882    5.229248419322    2.297362748002
H      1.911664533934    4.657718242998    3.224180534092
H      2.461029262559    4.870191194888    1.561639038237
C      1.960071909055    6.726777079589    2.567447298072
H      1.843795547581    7.264752202669    1.611395241801
C      3.399228037314    6.934383588480    3.057600231512
H      4.135136036733    6.529386143467    2.343442060380
H      3.620258248463    8.004943959858    3.193642238464
H      3.567030359224    6.434359681186    4.027485979331
C      0.944404907610    7.324161962183    3.550020308682
H      1.207100082405    8.366037688915    3.793811420403
H     -0.066934026288    7.337388352033    3.117853493735
H      0.921228459823    6.760026813054    4.499760619282
N      1.921251076508    1.251056310188   -0.026968053013
C      1.149102761381    0.120103963726   -0.042219516677
C      1.851988306136   -1.139292336603   -0.036385778114
C      3.225467585431   -1.195417768796    0.046639401718
C      3.953119053998    0.011023589886    0.117395285117
C      3.269605006933    1.209217385244    0.067205510351
H      3.741498166283   -2.156273071640    0.062180195988
H      3.802326958928    2.161699573512    0.096997310166
Cl     0.900352113238   -2.587153416340   -0.126127936168
Cl     5.692247516049   -0.007533207762    0.249679790174
