68

C      1.609293648452    3.976877460948    2.458516105679
H     -2.112726398174    1.646239968211   -3.485200191700
C      0.878756797847    5.272730705158    2.101127812945
H      0.252756149831    5.602574966081    2.946236996099
H      1.615498827882    6.059784169546    1.887460409117
C      0.043814011618    4.958880581983    0.860422271366
H      0.200791477262    5.606208160764   -0.010117432500
C     -1.402584153184    4.700473136409    1.125335725312
O     -1.863995434034    4.412086960561    2.214525610635
O     -2.166675105685    4.798847409547    0.021653743334
Pd     0.920561387158    3.170496413752    0.374629016386
C     -0.374948874124    2.796975628776   -2.201474617155
O     -1.034196207084    1.885732884876   -1.652820959910
O      0.542154263644    3.476809793287   -1.641051972494
C     -0.680820481750    3.158444263283   -3.666305624967
H      0.254949020257    3.073196075593   -4.244101622561
N     -1.597406174634    2.163230739079   -4.191236671997
C     -1.451505117687    1.627569731769   -5.440238313303
O     -0.652314916741    2.056122952181   -6.258425249202
O     -0.079378945180    0.143282221841   -0.063678017009
H     -0.460264216329    0.941301051886   -0.588115815660
C      0.858215181212    2.812142991182    2.769902742688
C      1.478321879306    1.625276638220    3.240566735443
C      2.874254515175    1.591790052470    3.377695454938
C      3.621098313064    2.745705480801    3.043946454054
C      3.018056415881    3.908757304971    2.590281614021
H     -0.231143447213    2.889777562681    2.816328620025
H      4.708778764685    2.716398051534    3.155455401808
H      3.623249084119    4.789913520971    2.361659631427
C      0.626293877501    0.435998764437    3.604094812633
H      0.842130680298   -0.433433103738    2.960121948927
H      0.808452911072    0.111559368705    4.642209372615
H     -0.443283594720    0.664160631490    3.500086714929
C      3.574597004279    0.355823072425    3.883141408205
H      3.257694222718    0.103967569073    4.909587959251
H      3.341967395744   -0.523129527008    3.259474221484
H      4.666197413076    0.485022639991    3.889342722080
C     -3.559841605933    4.475054109739    0.183603276755
H     -3.639843415094    3.479382482022    0.647825020423
H     -4.010731085190    5.194395041478    0.886913370992
C     -4.228106288394    4.517203826019   -1.174020741912
H     -3.781574899460    3.776287375573   -1.853674500511
H     -5.299695317346    4.286512971005   -1.067246548396
H     -4.135240897362    5.512796384190   -1.634539009185
C     -2.388225655850    0.473096335164   -5.764384617028
H     -1.798999714160   -0.345005182220   -6.203625382868
H     -2.949021939658    0.097814053510   -4.895796706424
H     -3.103807863034    0.805467403657   -6.532898950862
C     -1.170310790353    4.644379266956   -3.796459394720
H     -1.775449184209    4.876107485931   -2.902742788585
C      0.022842799970    5.608528915972   -3.823512032659
H     -0.325045762430    6.654137420309   -3.843761961923
H      0.671091773919    5.474493003203   -2.947389519516
H      0.632208664828    5.441952777597   -4.728398401869
C     -2.052408786290    4.851000663987   -5.033743189261
H     -1.512133317059    4.578599163228   -5.953580827429
H     -2.967983257488    4.243075349010   -4.990378177179
H     -2.352592741650    5.908871609795   -5.108325992351
N      1.945007576955    1.255416214900   -0.064088519316
C      1.230080111544    0.114787897013   -0.059164200085
C      1.912604252843   -1.133929708415   -0.008279339618
C      3.297785791404   -1.171447383880   -0.040249969760
C      4.001056506609    0.039923333974   -0.112016446693
C      3.288842139464    1.231017389884   -0.116237124692
H      3.824393678793   -2.126264344585   -0.019208392080
H      3.802987327948    2.193118415355   -0.145053403540
Cl     0.987547538335   -2.598271711960    0.087626239670
Cl     5.742237244119    0.056012980252   -0.164998683859
