74

C      1.325010480750    3.960674115826    2.742767995196
H     -2.170582894764    1.683574625699   -3.202635386959
C      0.437924633595    5.146170395381    2.369950229067
H     -0.310324401691    5.321484325645    3.160233461416
H      1.056467736177    6.050051173257    2.275429027968
C     -0.217104735101    4.794496461436    1.035130985267
H     -0.051485774834    5.503000400863    0.215302624934
C     -1.638094685922    4.350424956577    1.128425376364
O     -2.150278326783    3.879801174182    2.128004514278
O     -2.315161923945    4.504313958310   -0.025703936481
Pd     0.888292712031    3.132007492788    0.548519815534
C     -0.364884652715    2.762836357506   -2.022879028054
O     -0.972661029004    1.813717223046   -1.485012221387
O      0.536260706462    3.471543236063   -1.468249703270
C     -0.695076302789    3.140168174930   -3.476604044210
H      0.196583632652    2.888627750524   -4.078940408110
N     -1.798569091700    2.303376872677   -3.916944839502
C     -2.046497419714    2.073065071668   -5.237999330170
O     -1.433980908528    2.637705145193   -6.132376601858
O      0.091212661873    0.121030954284    0.171612381013
H     -0.334563109178    0.879965286611   -0.349395356029
C      0.743245287560    2.677066531557    2.914413907433
C      1.499231256274    1.574188705213    3.391028787079
C      2.861970911741    1.748908959838    3.676361762546
C      3.439579330771    3.024872707508    3.487022314110
C      2.703532147255    4.105922815379    3.025581931808
H     -0.344890672428    2.583614051799    2.855888569301
H      4.499374275235    3.161113926990    3.721685747242
H      3.176253147467    5.084818807354    2.909743083419
C      0.818973089506    0.249204201835    3.619313533239
H      1.330129354300   -0.565348023790    3.081165960133
H      0.829359686132   -0.024219340912    4.688794032617
H     -0.224933039916    0.270026554758    3.279789684134
C      3.698972672684    0.605854845948    4.193124896726
H      3.286066905146    0.190838719731    5.127879165555
H      3.734543584575   -0.225367175551    3.468793474658
H      4.732765911179    0.922289878450    4.393311788039
C     -3.658981329759    3.988857287452   -0.048341955113
H     -3.621922311140    2.906594096226    0.155844661347
H     -4.230849159316    4.453986946913    0.770437411643
C     -4.269133587563    4.282822673605   -1.402773300426
H     -3.714042967041    3.780071926235   -2.208622284270
H     -5.309993010374    3.922944914710   -1.424650964945
H     -4.276014316258    5.364442821258   -1.608791120277
C     -3.159451086678    1.077272822228   -5.531527145756
H     -2.761375346134    0.285617928131   -6.184071650911
H     -3.598369298748    0.622881038000   -4.631349479263
H     -3.951700868436    1.592285329574   -6.096374941330
C     -0.977095320701    4.655463772069   -3.642884740107
H     -1.674089912961    4.767120317729   -4.488400226634
H     -1.499568278147    5.016673874744   -2.742875709551
C      0.264856710568    5.528012669588   -3.910027250897
H      1.043416554774    5.223855639029   -3.189866780651
C     -0.055463373655    7.006036000757   -3.652763079519
H     -0.375392403026    7.175371563355   -2.611346900051
H      0.821829199434    7.645772928250   -3.844452424795
H     -0.869180889146    7.355467426405   -4.312308432813
C      0.809033990786    5.331284035827   -5.332009754071
H      1.752312458593    5.884407178098   -5.474396243337
H      0.995609244222    4.272826843097   -5.567954010132
H      0.086284943722    5.696660024879   -6.080951434554
N      2.062967975793    1.317686649881    0.037104832700
C      1.410560385108    0.138496149406    0.075847753634
C      2.109233151913   -1.086880361195    0.038768505035
C      3.486087234245   -1.060841110975   -0.110437739517
C      4.145535466703    0.170081977303   -0.235941806729
C      3.403986886345    1.349015926934   -0.162804059826
H      1.536968800316   -2.013407964269    0.093697722919
H      4.051456992993   -1.995344285445   -0.157668225676
H      5.223846478164    0.217093128424   -0.394104527969
C      4.049338242528    2.698328164215   -0.316096686098
H      3.562414224982    3.260990422304   -1.128207896847
H      3.937144676087    3.292260091934    0.603958662316
H      5.120264973486    2.601943074891   -0.542022132500
