73

C      1.144815431097    4.030951000689   -3.409992330251
H     -3.222899314631    2.211067166435    1.479875065843
C      1.732194195510    4.891929155317   -2.310825537135
H      2.491674999162    5.570660654437   -2.743510136353
H      0.962991638478    5.547192650434   -1.877026040667
C      2.412389617472    4.101646369020   -1.194368916892
H      3.111477498330    3.353179695180   -1.592354654233
C      3.085627380622    4.971955670032   -0.172820609555
O      2.834345994230    6.135139461144    0.038275942955
O      4.040183601156    4.291999068529    0.516683666568
Pd     1.002670433914    3.079529500110   -0.122205431923
C     -1.361765484885    3.718093625959    0.563799021506
O     -0.997782582356    2.527885290896    0.848199974419
O     -0.559550051226    4.498110269332   -0.026788376887
C     -2.747193162949    4.201259935555    0.967916060684
H     -3.140102015631    4.819566101843    0.146910571474
N     -3.624687189705    3.051268462181    1.080566462816
C     -4.818139487914    2.973481852025    0.410067954672
O     -5.276703701939    3.902551798294   -0.232502102157
O      0.063643895616    0.186525253891    0.053164150590
H     -0.327597349041    1.081586750867    0.242660065463
C      1.971713287508    3.437271739369   -4.376518273653
C      1.469318493949    2.622632198145   -5.399777083688
C      0.075334130287    2.388249816360   -5.469260657076
C     -0.751345953522    2.986096300994   -4.509151853656
C     -0.232928910107    3.794689872380   -3.493678606960
H      3.050509727281    3.624196801398   -4.339934925266
H     -1.831480424255    2.819458313786   -4.560101204078
H     -0.903933878403    4.252857753973   -2.762991135418
C      2.402839501901    2.015208983973   -6.418491421383
H      2.343652694485    0.913167387173   -6.421095619368
H      2.155852719203    2.341775385791   -7.443290169400
H      3.448417476451    2.294063948209   -6.222032263264
C     -0.510962264470    1.523844023340   -6.558314928882
H     -0.290618560914    1.925641982330   -7.562374161386
H     -0.098962241992    0.500139446083   -6.535604666583
H     -1.603814749774    1.446722549063   -6.462412011053
C      4.756890831412    5.016880052868    1.532719361170
H      5.361313218608    5.799022580603    1.044012364625
H      4.032066860081    5.530932750708    2.183386291980
C      5.620022709477    4.035720142078    2.299216135480
H      6.305009375979    3.496410604491    1.627584315278
H      6.219396340945    4.574023689545    3.049972284473
H      5.001694137079    3.292402286755    2.826855131128
C     -5.552531038067    1.649039545686    0.545850307801
H     -6.504318910825    1.827624302146    1.069659812896
H     -5.802369586207    1.281365990326   -0.460336824500
H     -4.985819955280    0.877344138613    1.087154860430
C     -2.719422123820    5.107424615772    2.259991778554
C     -2.065643904068    4.360044133091    3.436000544875
H     -2.119535753547    4.970734855836    4.351442300644
H     -2.578885722066    3.407489202582    3.645217757390
H     -1.002785763154    4.139641153391    3.247607063645
C     -1.947458296037    6.407275461106    1.969572213086
H     -0.893963951511    6.222417768437    1.717646491762
H     -2.399360568818    6.958108554258    1.129023601369
H     -1.977292578668    7.063557146674    2.854220058339
C     -4.173259275513    5.464005273657    2.623436077701
H     -4.694482522940    5.938185282989    1.778314503687
H     -4.748376914383    4.572095486395    2.912960324415
H     -4.184589554017    6.163137233278    3.474908421668
N      2.100761223911    1.308638301576   -0.019426636604
C      1.376573442694    0.159530151498    0.018235057758
C      2.007644256438   -1.106966785533    0.016489373332
C      3.384423012745   -1.182954062451    0.022408636631
C      4.106692762492    0.019184170035    0.032184336484
C      3.445630458539    1.236968556946    0.008825213514
H      1.373228231964   -1.993390724247    0.025753649947
H      3.916944872798   -2.134243616393    0.030926952188
H      4.001247009804    2.175520535091    0.027161984971
N      5.574159160736   -0.002143518750    0.068032209712
O      6.156961101210    1.070299984962    0.080183121530
O      6.112806086513   -1.096965182773    0.082340937418
