62

C      1.591940713099    3.994459983251    2.436059662345
H     -2.092931232413    1.423918239387   -3.408367679294
C      0.822375182618    5.233925353220    1.981073409437
H      0.106275916072    5.542401001212    2.759993137995
H      1.526546540678    6.060841609116    1.811701614737
C      0.118430726640    4.843496960192    0.683435420959
H      0.351167054209    5.454077081849   -0.196621238459
C     -1.338780160597    4.554855052753    0.807678535870
O     -1.899636906703    4.245956890339    1.843505440404
O     -1.987146932217    4.647693304296   -0.368686038525
Pd     1.047932047643    3.043656809851    0.352052442231
C     -0.287445953086    2.556194515204   -2.172515934420
O     -0.917887198020    1.643269761326   -1.599178604790
O      0.666214065034    3.235774291729   -1.676962104499
C     -0.658783248985    2.928822189777   -3.604028567359
H      0.233942611398    2.826911709864   -4.245243802192
N     -1.746395795302    2.106678610397   -4.075904554766
C     -2.180764583395    2.146651734287   -5.367279114455
O     -1.703294962506    2.906760413441   -6.194491295530
O      0.137807793560   -0.052777713329    0.011757225788
H     -0.270510000853    0.726036003936   -0.503179920234
C      0.879774883891    2.807805143450    2.752456032802
C      1.527464685064    1.675806184429    3.311324392304
C      2.911447885738    1.720832017096    3.536945329468
C      3.620731595904    2.895331771699    3.196539606473
C      2.991063123354    4.004309660585    2.652709508948
H     -0.213423963113    2.831152638572    2.724728256540
H      4.698954655542    2.928421530484    3.378001065481
H      3.564853835551    4.905378265624    2.420705293012
C      0.717082954664    0.458040796610    3.673109749714
H      1.088273604057   -0.441487826555    3.154517093044
H      0.773886067525    0.243891250431    4.754173592393
H     -0.340401802091    0.585682666802    3.404917198011
C      3.637544964497    0.542788298701    4.135426393541
H      3.217814911105    0.262670402508    5.116139542875
H      3.554534123545   -0.348381035295    3.490563094675
H      4.706651907479    0.757650046618    4.275596219832
C     -3.377953916461    4.281756692337   -0.367315147572
H     -3.468217994465    3.239270174170   -0.021581167284
H     -3.911139075378    4.913094838779    0.361807076245
C     -3.917685409074    4.456920100848   -1.771487988076
H     -3.409084525997    3.784871982010   -2.479043616086
H     -4.993604176672    4.221733237826   -1.788555664774
H     -3.787201196765    5.493466936674   -2.119166253588
C     -3.313968330975    1.188517081531   -5.706402894443
H     -3.011893733955    0.575986290939   -6.569082221423
H     -3.603911226054    0.529311595464   -4.875030110066
H     -4.189927636650    1.777118538876   -6.019935124712
H     -0.917259364506    4.001591510578   -3.621480456484
N      2.117522744637    1.141231344185    0.052473995561
C      1.458547280656   -0.031583641562    0.032837513778
C      2.144815281381   -1.279188471461    0.063077608031
C      3.533996015410   -1.243252758822    0.060965055108
C      4.217077396587   -0.016437175032    0.029342347920
C      3.466664321567    1.147026284471    0.029558750196
H      4.094123032474   -2.182852384119    0.067005849673
H      5.306815782328    0.029837596602    0.007840868679
H      3.941052580714    2.131130819303    0.020316717321
C      1.348445086660   -2.553916458003    0.064439586056
H      0.687825991611   -2.611078314932    0.945076509559
H      0.687655718909   -2.603507112315   -0.815952607078
H      2.007108612821   -3.434352690210    0.062863973731
