65

C      1.484570630999    4.029057027109    2.550148249009
H     -2.157266354345    1.671239325121   -3.285674268995
C      0.658694120707    5.238351325724    2.118103383796
H     -0.077718830047    5.491456443761    2.898382649881
H      1.322851114860    6.103197293659    1.978461440943
C     -0.016624685857    4.854610485581    0.802487921029
H      0.183280066794    5.511126796127   -0.052205426368
C     -1.458414727634    4.489476591436    0.916656514723
O     -1.992213615599    4.095104834824    1.937825842828
O     -2.127570440075    4.621593819813   -0.244266003233
Pd     0.996221754724    3.113015261820    0.400210685150
C     -0.277596486648    2.677237263048   -2.150156284803
O     -0.937995740584    1.790434176512   -1.569629187971
O      0.654745088501    3.369516605778   -1.629187476668
C     -0.567896351141    2.982957578600   -3.628862397165
H      0.302175284856    2.609931247177   -4.202196676909
N     -1.745687117897    2.230398577180   -4.028085156003
C     -2.030319567801    1.962216259602   -5.335626683408
O     -1.388887543850    2.432944011877   -6.262616693494
O      0.035844074790    0.131833295246    0.170610010139
H     -0.351546899101    0.884961165244   -0.388244142355
C      0.838507563000    2.787006172349    2.785534014241
C      1.538767784100    1.671822039257    3.315786746544
C      2.909408860064    1.790690155399    3.591883137529
C      3.550706950399    3.024594891093    3.339496237425
C      2.869456762247    4.117549263187    2.824993018495
H     -0.253183444020    2.746451004075    2.732140208321
H      4.616704328913    3.118022216426    3.566962174546
H      3.391166151552    5.064015597853    2.660259602786
C      0.792818621978    0.395751326145    3.608356328363
H      1.258820389901   -0.468125752317    3.107344713307
H      0.795042114402    0.172427270814    4.689435954028
H     -0.250462909197    0.454062961779    3.271247024300
C      3.688529968707    0.633344226600    4.164367504761
H      3.258591422828    0.287722210900    5.119477872205
H      3.678415641581   -0.234031912835    3.482915029264
H      4.738030063780    0.905719427841    4.346881962745
C     -3.495911678281    4.176623595752   -0.244115046443
H     -3.514981312600    3.102819376076    0.003042380749
H     -4.040761872127    4.703568259728    0.555418049424
C     -4.092678910847    4.447768847256   -1.609259175456
H     -3.568445657941    3.881453044550   -2.393409519611
H     -5.152039585070    4.146077481363   -1.616848352817
H     -4.039694689373    5.518875457782   -1.859234682836
C     -3.225636816375    1.048619665288   -5.568978065208
H     -2.906952061946    0.205411554178   -6.200046383931
H     -3.678483703096    0.662710565140   -4.644073126573
H     -3.987605224240    1.605454429164   -6.135864189284
C     -0.688406600012    4.487616391425   -3.900838626811
H     -1.492155518621    4.934077698524   -3.296987715393
H      0.255052994532    4.990538651037   -3.647102401543
H     -0.902276168991    4.642221791836   -4.967112822015
N      2.068499228177    1.213478484295   -0.022346627382
C      1.353729183574    0.074165053495    0.072622976364
C      1.985635515380   -1.187426396711    0.092688141199
C      3.361309794738   -1.242712264067   -0.058983540744
C      4.085527218904   -0.056301763589   -0.242730186799
C      3.408630827959    1.162949269333   -0.224305432968
H      1.364546042945   -2.078145971724    0.191845868133
H      3.875418982345   -2.207522754320   -0.062775366291
H      5.164278141747   -0.074915463455   -0.403809430376
C      4.125356491410    2.466897788027   -0.440426375897
H      3.666754526725    3.017248011748   -1.277103214111
H      4.048478183306    3.107631274996    0.451416207880
H      5.188775731898    2.302392732707   -0.662529530118
