78

C     -0.584802917965    4.656337155280   -2.318896149291
H     -2.318793683453   -0.388217043243    0.619580407691
C      0.461269445427    5.037451108269   -1.365697153655
H      2.453751812492    3.740079541280   -0.539535175388
H      1.383317919851    5.402666970248   -1.825318770011
C      0.351279112475    5.215324056356    0.016475437523
H     -0.590729510040    5.052894612316    0.551729339242
C      1.349366763996    6.001322085193    0.807246558874
O      1.246745143980    6.204506037863    1.993594704441
O      2.366320854416    6.480876495390    0.060437192401
Pd     1.094523796430    3.175246689507   -0.183924030148
C     -1.862118415108    2.616900063132    1.014775245855
O     -0.798380934982    2.219358830161    0.371510974189
O     -2.061655076283    3.756935960890    1.403186278937
C     -2.921700782463    1.529912543108    1.319357867218
H     -3.888578671069    2.038618771892    1.199635672019
N     -2.903569429692    0.410739525886    0.402983366041
C     -3.484372161243    0.481054460193   -0.834739174729
O     -4.113838646645    1.459604566704   -1.205496192584
O      0.061646171212    0.024179640479   -0.272093564556
H     -0.399827458560    0.943738851442   -0.021438079665
C     -0.243051181337    4.582424124611   -3.685618074447
C     -1.168315604809    4.221998714785   -4.667967516380
C     -2.492355284603    3.908306518808   -4.274082635981
C     -2.835929797550    3.987941464300   -2.914599768837
C     -1.910551085384    4.366055794939   -1.946877959565
H      0.783976102496    4.813393933399   -3.984729045875
H     -3.845404318941    3.716958527600   -2.599247054328
H     -2.218513090422    4.422496564608   -0.902635758760
C     -0.759527554680    4.161192910735   -6.119190555104
H     -0.899264427942    3.150614865646   -6.539425470765
H     -1.363528896407    4.843928347230   -6.740738861715
H      0.297381273242    4.435208634149   -6.250293999378
C     -3.521322612831    3.492833248655   -5.293283621008
H     -3.696407770675    4.286833993904   -6.039889330929
H     -3.195946335336    2.601870833399   -5.857168753207
H     -4.482438786798    3.257267109488   -4.815461937635
C      3.384275500922    7.218366542645    0.755916086808
H      2.913641566433    8.056957346089    1.293873433009
H      3.840277657438    6.564678566082    1.517882973112
C      4.399647448881    7.694321258259   -0.262085451422
H      3.929402780491    8.348513028893   -1.012641017903
H      5.196303521033    8.264408764698    0.240774203945
H      4.863498779670    6.844256910551   -0.786048105126
C     -3.277909606445   -0.749917651871   -1.703133574730
H     -3.631720038249   -1.659495128655   -1.191648370382
H     -3.830536265248   -0.619521248143   -2.641256545539
H     -2.205747363661   -0.881253700527   -1.921775935915
C     -2.761865143781    1.068551993247    2.784768023407
H     -1.768762488266    0.602273417749    2.906326277724
H     -2.760845874396    1.978463695910    3.404673350123
C     -3.838061641296    0.113516538975    3.252627297795
C     -5.152781684318    0.563899978473    3.459257007293
C     -3.557395013067   -1.242110233132    3.479379166250
C     -6.155049368029   -0.314762209767    3.875163032115
H     -5.392983506178    1.618410476032    3.294507059800
C     -4.557912107841   -2.126371783167    3.896633392738
H     -2.536662972923   -1.610460924035    3.336989001248
C     -5.861403639695   -1.665203215408    4.094440300662
H     -7.171071651178    0.056786672484    4.032485638136
H     -4.315740022009   -3.178272934977    4.070461967968
H     -6.645477926936   -2.352778513477    4.421807118423
N      2.038465243309    1.225863133082   -0.091142523253
C      1.362020302013    0.048323448269   -0.204016714858
C      2.062458412341   -1.186165506503   -0.256892399854
C      3.435937538977   -1.206227615591   -0.161938279000
C      4.130220835503    0.013873213364   -0.014529299185
C      3.385108512812    1.186469779108    0.009993937925
H      1.470237945836   -2.095891370724   -0.360920283043
H      3.989086729743   -2.146091660587   -0.193438351419
H      3.903805540843    2.138799733411    0.110779569180
C      5.608730274209    0.120549645035    0.105377031149
O      6.215343010583    1.160491096923    0.221967233886
O      6.206368871965   -1.085779748653    0.069244686242
C      7.630135143503   -1.088271165017    0.179168829686
H      7.948854445323   -0.638179821341    1.131419640627
H      7.938469688019   -2.139808979504    0.132132664768
H      8.086329320192   -0.518429481083   -0.644343171009
