70

C      0.173783892463    4.978760652483   -2.609877448698
H     -2.784901510317   -0.131710861979    0.139189555442
C     -0.087923168144    4.876927934605   -1.171525664125
H     -1.082013349864    4.465384539767   -0.975653877570
H      2.395755748245    3.797179791457   -0.662422836939
C      0.519951848503    5.323772267592    0.012755188875
H     -0.120194909011    5.245114249951    0.896989583314
C      1.684621754921    6.240337542880    0.204844156342
O      2.402815734361    6.730310309956   -0.638164739646
O      1.833496171508    6.491847414865    1.518951996050
Pd     1.095044597105    3.213541033972   -0.146457053258
C     -1.889423486905    2.779331669463    0.841688727311
O     -2.008110914815    3.908944831774    1.283806857769
O     -0.753154797146    2.244936027739    0.476778057373
C     -3.150930759635    1.896859217491    0.690689309609
H     -3.896896808432    2.578519513644    0.255272089000
N     -2.984009453383    0.789555023722   -0.231502134418
C     -2.876025748728    0.986571555218   -1.578598577740
O     -2.975398668371    2.098133564138   -2.082348389711
O      0.115456353816    0.060884331140   -0.147675918949
H     -0.367282031736    0.979405352154    0.095609091682
C     -0.772334989869    4.335202463043   -3.441968988227
C     -0.673256916271    4.346355663733   -4.834628780208
C      0.405844292404    5.037052777894   -5.436316663467
C      1.344837485314    5.677304266499   -4.609721188582
C      1.250032080142    5.653567306062   -3.221043399036
H     -1.602855297153    3.793572102383   -2.979984343410
H      2.178796445323    6.211515327236   -5.073950068150
H      1.990876252705    6.159111388648   -2.603916201731
C     -1.708969027436    3.630964002988   -5.667365924507
H     -2.270377105350    4.331816714051   -6.309318988618
H     -1.247420866995    2.890154146717   -6.342299480004
H     -2.429522571234    3.104169309743   -5.025736526591
C      0.548202070933    5.085769781102   -6.935261781841
H      0.646153833820    4.073981153740   -7.365004733863
H     -0.338392158705    5.539454736441   -7.410339211140
H      1.430030886658    5.668318149479   -7.238174342347
C      2.904840137343    7.372968749955    1.894258693207
H      3.857240433768    6.949645660244    1.534679678258
H      2.769225502181    8.337889440681    1.379066764381
C      2.881394357801    7.524507626823    3.400892300587
H      3.025387799468    6.553036153575    3.898283922104
H      3.689182759809    8.200319133700    3.722198837606
H      1.922344508140    7.945646267584    3.739502360818
C     -2.590777221711   -0.259567988907   -2.398207044240
H     -2.945276952609   -0.102041536962   -3.424698032734
H     -1.501629357260   -0.425815551533   -2.422666759348
H     -3.063265906249   -1.159790645447   -1.976425612365
C     -3.666992878178    1.440040731351    2.076669529454
H     -3.722175266479    2.370773075157    2.664753073757
C     -5.078656979860    0.848106555724    1.986913382860
H     -5.461766736207    0.597485696690    2.989013242168
H     -5.781509041772    1.558853779232    1.524396929458
H     -5.095043403264   -0.074897967307    1.384066910710
C     -2.696646866290    0.491288144399    2.795704256219
H     -2.618334162968   -0.488019444840    2.290740407690
H     -1.682216086606    0.913806662223    2.862966212689
H     -3.044997102944    0.288857181409    3.820659578119
N      2.077660817805    1.291433058059   -0.015189710205
C      1.411463066821    0.102410814504   -0.093230088595
C      2.126644942027   -1.128290354248   -0.126341470614
C      3.499590018732   -1.135238842772   -0.044804419939
C      4.154746730840    0.102376444084    0.066574868893
C      3.423087113933    1.277848162395    0.071525759424
H      1.543725661822   -2.046473217815   -0.202324818143
H      4.083397337759   -2.056008388184   -0.057308705605
H      3.938767784385    2.233616035049    0.140900705511
N      5.614828895308    0.162598324483    0.167464846233
O      6.131842297251    1.263383746691    0.275523444811
O      6.218060075455   -0.898906909609    0.137958688471
