37

H     -2.527605526691    5.537352166853    0.906895195471
H      2.409017227591    3.636285741153   -0.705128989918
Pd     1.090604440148    3.099119461449   -0.165142044222
C     -1.606205872662    2.767968169225    1.440880876237
O     -2.576690469999    2.192102598704    1.893041875750
O     -0.821855307342    2.322401926406    0.505104740683
C     -1.224040688987    4.204310249667    1.917781464778
H     -0.126595011338    4.251637371590    2.012518535893
N     -1.593620955595    5.145290650360    0.852374986074
C     -0.863108562649    5.466903651861   -0.224631054817
O      0.256931292252    4.990053011227   -0.493511099279
O     -0.000556819978    0.069322384846   -0.171570340593
H     -0.460101432913    0.950958438608    0.086890323617
C     -1.439438368923    6.503034154620   -1.161564451812
H     -2.380714831089    6.941986764439   -0.802544601355
H     -0.694842415691    7.300584417860   -1.300950571922
H     -1.605047540831    6.036845388460   -2.144974266694
C     -1.870569557725    4.607781136862    3.255510017953
H     -2.959229491118    4.455775274467    3.139524845834
C     -1.394752625016    3.677853125556    4.379840514119
H     -1.873958406634    3.953047841625    5.332571051887
H     -1.647076030387    2.631544260760    4.163336695431
H     -0.303074479397    3.757932875937    4.523063620523
C     -1.594467959567    6.073920898588    3.617813662074
H     -0.512267661328    6.255999394699    3.733407082060
H     -1.968163665425    6.781911484120    2.861687554818
H     -2.077401372822    6.330016483695    4.573844259766
N      2.003660055134    1.250879969464    0.012207088920
C      1.301804434612    0.087545867841   -0.070282461301
C      1.978717830087   -1.159524719826   -0.063641387091
C      3.351896533047   -1.202950686908    0.061521849130
C      4.065174773779    0.002586251361    0.182973768671
C      3.356099790102    1.187780206954    0.149395225572
H      1.365472675759   -2.057519985037   -0.145711016886
H      3.873491841833   -2.163433747386    0.073616625755
H      5.150096965266    0.022707443606    0.292881409697
H      3.865909454569    2.146575651786    0.225541816330
