32

Pd     1.154685188716    3.034880584984   -0.632426543403
C      0.311311529507    5.709279546599   -0.496374594219
O      0.643709381604    4.779102702787   -1.372159163258
O      0.169926369093    6.876124050632   -0.777626804078
C      0.146908261037    5.192658431805    0.948939959618
H     -0.828754693490    5.568886450117    1.293660888641
N      0.135149752523    3.722509009397    0.928381845018
C     -0.734093066967    2.965405225233    1.607080650992
O     -0.910166995363    1.745643801271    1.412225098866
O     -0.017027463492    0.030202297117   -0.141363453291
H     -0.402217547464    0.833053411467    0.399443836147
C     -1.572962807962    3.623458415131    2.696110312431
H     -1.964429670643    2.823647836618    3.336563069356
H     -1.008698087463    4.344340188140    3.303003870609
H     -2.427696836687    4.151555360724    2.242325878993
C      1.244916686456    5.780664505120    1.842028790139
H      1.106956608985    5.484108407761    2.893201873505
H      2.239159717701    5.435964878393    1.515583231791
H      1.217975674888    6.878312240271    1.774152175782
N      1.967858898272    1.202860914174   -0.065226992969
C      1.286277628910    0.032647062065   -0.109711562465
C      2.001433947825   -1.190347518694   -0.141631173646
C      3.379534965064   -1.181920656264   -0.073284001613
C      4.089670532858    0.036644444065    0.037167130155
C      3.323714982228    1.191590882004    0.036949016642
H      1.423698410477   -2.113409164871   -0.201388307273
H      3.927762234692   -2.128642883726   -0.087037146786
H      3.799461649417    2.173920759048    0.112283396301
C      5.591606500685    0.077022438501    0.148107294841
H      5.964383963544    1.110195156260    0.205250518581
H      5.940962221787   -0.455569437549    1.048315650053
H      6.070417057440   -0.405482625776   -0.719977726369
