74

C     -0.173460222593    4.004228688288    3.382632158076
H     -1.573507782099    5.482159676284   -3.381631893732
C      0.948072298450    4.371430504050    2.444301163435
H      1.823059905026    4.794161743315    2.960702850482
H      1.497117314218    3.312977842330    2.127007408334
C      0.638494401931    5.080393461460    1.186070299120
H     -0.395502629928    5.361880769985    0.967299045653
C      1.695293934717    5.996534753893    0.679137253072
O      2.845640604492    6.009197698351    1.071743374329
O      1.251965552726    6.816791284407   -0.295978095151
Pd     1.095672433914    3.234558850705    0.418228521300
C     -0.931432015862    2.918485093415   -1.590485579450
O     -1.308749061636    1.890945875705   -0.998092558235
O      0.178826991070    3.526003116310   -1.435918013524
C     -1.887900598884    3.505718955261   -2.649983780057
H     -2.880456259658    3.112869491810   -2.385042907358
N     -1.937879399503    4.957863365783   -2.595686648462
C     -2.224665619995    5.620229195611   -1.440740358933
O     -2.512356795295    5.029764978142   -0.406417328252
O     -0.061612714208    0.118859419306    0.295200542197
H     -0.507818322497    0.930688967126   -0.151230495342
C     -1.460279804877    3.700347725929    2.910252199197
C     -2.507367971426    3.374791765164    3.779648407405
C     -2.263482254021    3.339572648120    5.174537456882
C     -0.976599290719    3.639245103818    5.639722355123
C      0.059169581264    3.968098319108    4.762100917632
H     -1.667009810488    3.718660516374    1.836814024979
H     -0.780137176904    3.617280794701    6.715559240514
H      1.052114408991    4.202086351105    5.156794845944
C     -3.875191682843    3.067006323294    3.222241284070
H     -4.183244233548    2.032681907320    3.453572947016
H     -4.646144270194    3.728013277073    3.653416246378
H     -3.894810370773    3.191986539393    2.130543695886
C     -3.365645756719    2.985633852562    6.141074447539
H     -4.210694175443    3.691761462969    6.070005762576
H     -3.779579970484    1.983775125074    5.935299057964
H     -3.006713269371    2.994589106272    7.180593816305
C      2.241390927590    7.667878844992   -0.899426637749
H      2.699604540966    8.294368445153   -0.117100501443
H      3.044692884423    7.037522378767   -1.314214269402
C      1.573578134867    8.502996496856   -1.971733556004
H      0.789116790644    9.147931369033   -1.546373983146
H      2.320461359824    9.149693196759   -2.458280772383
H      1.117427411058    7.864341723458   -2.743739188069
C     -2.136131361604    7.134047851908   -1.501272926648
H     -2.945625765795    7.558761447932   -0.892004554892
H     -1.176941189030    7.436513854041   -1.053086083597
H     -2.194889770652    7.536313177644   -2.523848578878
C     -1.503219472595    3.062235726107   -4.070666914313
H     -2.238116168059    3.503111147807   -4.770326037246
H     -0.522665540479    3.510429690976   -4.312498819968
C     -1.429361776647    1.544016043856   -4.318914718515
H     -0.650145574596    1.130546321348   -3.653956838968
C     -0.994513491519    1.277355236669   -5.766133974253
H     -0.036172047786    1.769642304117   -6.000069553951
H     -0.871269655949    0.198288892753   -5.951467208696
H     -1.746040151414    1.653238090141   -6.482256332410
C     -2.743350191982    0.822942264164   -3.990756279910
H     -2.676959836646   -0.244849961098   -4.255461413727
H     -2.975926215252    0.882382574142   -2.917721869714
H     -3.587349010276    1.253155916277   -4.558529228307
N      1.938065082662    1.256902201870    0.060081893457
C      1.244289145605    0.107794080027    0.181833538414
C      1.927060697510   -1.133976954856    0.212985318174
C      3.301163639297   -1.161275591150    0.082662315553
C      4.028195947243    0.038134796868   -0.088199898898
C      3.283192372606    1.209726809626   -0.087515851290
H      1.331878562622   -2.040725784899    0.327944541339
H      3.829211033037   -2.119592908279    0.101092279350
H      3.779445417864    2.178486528380   -0.199302090800
C      5.525915259357    0.047670032534   -0.254976329103
H      5.913467159155    1.073142289672   -0.346524071427
H      6.030151857024   -0.425629950058    0.604125159526
H      5.834291977448   -0.508018720346   -1.156636345483
