74

C      1.436699426216    3.916487417179    2.410340807514
H      0.754585835498    4.321149192258   -3.895143290838
C      0.678490604946    5.171762032559    1.976315049362
H     -0.084031133996    5.431223937634    2.728421865530
H      1.381426455583    6.013077846042    1.893625463016
C      0.054295249042    4.850071309407    0.620895120663
H      0.333206828259    5.513207120320   -0.206436970584
C     -1.409029699293    4.554578903772    0.639429288178
O     -2.011574240058    4.135168459046    1.610878184824
O     -1.991151660540    4.793619955945   -0.549027689121
Pd     1.023571871706    3.080666408347    0.249960193416
C     -0.341739064385    2.588932946717   -2.245279329192
O      0.615411822356    3.290470964869   -1.779948921988
O     -0.927478999611    1.663050904703   -1.650129026242
C     -0.780427607561    2.896953630954   -3.683945127634
H     -1.869692308690    3.048824076824   -3.657934326411
N     -0.204173835877    4.136243757832   -4.167483187068
C     -0.971227928754    5.167022882442   -4.628458730225
O     -2.179438152489    5.075243823219   -4.794827670322
O      0.120255610157    0.046481218179   -0.022298254100
H     -0.291852917749    0.815287161866   -0.580470641232
C      0.717892640202    2.716609391763    2.651551525438
C      1.341577371821    1.572827819140    3.208376238068
C      2.714316034044    1.616375311062    3.501064722459
C      3.433328280031    2.802458944320    3.231803485091
C      2.822672170844    3.926489952044    2.697985068644
H     -0.371500921600    2.733502210600    2.555119402745
H      4.502524140767    2.831656169664    3.458910867656
H      3.402200248001    4.836882097123    2.523730878365
C      0.518789820734    0.345661327963    3.506140710605
H      0.918853247304   -0.545882074371    2.996054559424
H      0.519224850134    0.116564441965    4.585811490748
H     -0.523225637067    0.474785678402    3.184073030875
C      3.415280790952    0.425101983132    4.103292711163
H      2.958989809540    0.130255209066    5.063364860045
H      3.352041401094   -0.455570496093    3.442202557407
H      4.479290647966    0.633713784259    4.284613739314
C     -3.382984224675    4.444874087391   -0.705547423703
H     -3.423653319361    3.385893965708   -1.012112603258
H     -3.879162515081    4.530725698783    0.271764880905
C     -4.001483477771    5.355915214612   -1.747071944894
H     -3.496621830003    5.271105280387   -2.721550151808
H     -5.061048221345    5.086849937677   -1.885748810992
H     -3.958127503195    6.407074648818   -1.419878545511
C     -0.221751069763    6.458050873482   -4.917833358634
H     -0.583844456926    6.869400166635   -5.870593135688
H     -0.464686438530    7.190249244519   -4.131060560725
H      0.870330799769    6.333344798473   -4.962031499105
C     -0.478954053298    1.701554447945   -4.601423812883
H      0.607267699641    1.534380888135   -4.689095236416
H     -0.940990728166    0.790095025169   -4.195916304624
H     -0.882020840328    1.890019485089   -5.607496204532
N      2.115492801700    1.170193878480   -0.090643882517
C      1.431750106123    0.046641366214   -0.011373404066
C      2.083413792549   -1.249108463887    0.136075282875
C      3.500696521898   -1.310727389065    0.136933404902
C      4.242248986420   -0.071826876163   -0.056075971710
C      3.503039632665    1.139518338563   -0.174226692187
C      1.312034662847   -2.423893825411    0.275912976810
C      1.934510852508   -3.651046595339    0.438320374626
C      3.340786346404   -3.722246432113    0.455350057330
C      4.108792832420   -2.577048149071    0.305139356420
C      5.652072461380   -0.014409928906   -0.145006778857
C      6.315277697370    1.185349877943   -0.351206272712
C      5.578533108130    2.376900152472   -0.479903578212
C      4.196117674532    2.352341300430   -0.391173425235
H      0.225346104833   -2.337275758100    0.253909726798
H      1.338446047954   -4.559821196494    0.549414948081
H      3.834301886950   -4.689061484409    0.583643496290
H      5.195938735579   -2.662579045756    0.316335151215
H      6.234509002006   -0.932950554573   -0.059305522236
H      7.405376920188    1.202017128475   -0.421501640419
H      6.094565212715    3.324176522295   -0.655110257381
H      3.611937221871    3.268626020395   -0.495620793744
