72

C      1.605860246494    5.830558470011   -1.191105526463
H     -3.024774317638   -0.165201480064   -0.495234355273
C      1.316507136947    5.437027137416    0.195024093246
H      2.271821608418    3.493101816566    1.105789966358
H      2.093421125760    5.681673020770    0.925454627082
C      0.085274057662    5.058347361156    0.723480773786
H     -0.815918023042    5.028429275146    0.105720438310
C     -0.130893786460    5.062075438295    2.205128629990
O      0.712740567710    5.299591106648    3.042113234375
O     -1.406343189710    4.754769234585    2.467730005130
Pd     1.045979853773    3.143317406401    0.287359572963
C     -1.884688829152    2.863455241895   -1.022908137576
O     -2.044128563689    4.030856130116   -1.341398199193
O     -0.767671550275    2.336329608801   -0.619391360155
C     -3.043507524286    1.839030595376   -1.208154690383
H     -2.773524074196    1.317070065052   -2.141470624910
N     -3.040770431920    0.796678452464   -0.182110296492
C     -3.012893918506    1.031429804448    1.163488303995
O     -3.021114294489    2.157382282462    1.637613993894
O     -0.032957623535    0.047426557486    0.028779705255
H     -0.442982799722    0.963579706460   -0.221576715124
C      2.871053658276    6.378549564920   -1.479649487577
C      3.222866637331    6.816801525821   -2.759642944509
C      2.273717328520    6.701824177523   -3.803393023072
C      1.013933460169    6.151860193204   -3.514751413448
C      0.669088202392    5.718970624861   -2.236929403303
H      3.602328681470    6.469142113407   -0.670540186845
H      0.278920331092    6.061984600956   -4.319540394075
H     -0.317454773225    5.284890585403   -2.054716963394
C      4.588495977696    7.404245466815   -3.018681690284
H      5.140482056601    6.831189291444   -3.783158997828
H      4.521704878931    8.440092855395   -3.392814890458
H      5.199096969423    7.418015788598   -2.104255121582
C      2.605058862732    7.162036343567   -5.199863610177
H      2.858683434494    8.235818514880   -5.223864788782
H      3.479809431509    6.626736620736   -5.607549941819
H      1.761541875756    7.000392570481   -5.886107059742
C     -1.812221961312    4.563101335844    3.832957289012
H     -2.563859457961    3.763575286204    3.777328927407
H     -0.946100858247    4.213751073708    4.414715573553
C     -2.382191108014    5.841714884782    4.423828853355
H     -3.217146250129    6.218884550016    3.813021222941
H     -2.760298200360    5.648609067133    5.440898239663
H     -1.610759643083    6.624211328589    4.488680248083
C     -2.911870585121   -0.217017273523    2.025034138286
H     -3.235697936379    0.026583084397    3.044526938227
H     -3.518460241645   -1.048343750831    1.633166844874
H     -1.859663866534   -0.543446825960    2.050715030772
C     -4.407597762162    2.476659271854   -1.432745590555
C     -5.164046605857    2.108363373230   -2.553967251917
C     -6.436634169251    2.646069848871   -2.774371198579
C     -6.968512478523    3.564780639873   -1.867564858702
C     -6.219586741119    3.941156759337   -0.746406119678
C     -4.949140161215    3.405777470817   -0.528372365533
H     -4.751237027273    1.392649715536   -3.272354456307
H     -7.008967793195    2.347735829899   -3.656879119056
H     -7.961665468250    3.990529575186   -2.034362830341
H     -6.628492074050    4.664639393091   -0.035811709473
H     -4.365525946309    3.697339002881    0.344687714087
N      1.973397149966    1.217519249019    0.023494231747
C      1.279747472141    0.057317532325    0.007370777413
C      1.962804325090   -1.183311922878   -0.024503742208
C      3.341060690951   -1.207125224061   -0.072839567662
C      4.072425361436    0.000567926661   -0.094166987250
C      3.330163740020    1.170860934554   -0.039952418059
H      1.361625559466   -2.093329818162   -0.024065598710
H      3.867884160511   -2.165586018531   -0.103321991564
H      3.833666032502    2.138123005073   -0.040794055815
C      5.577766525746    0.020465849828   -0.162439757628
H      5.966861133185    1.049227260823   -0.159294298093
H      6.025860332001   -0.509850020886    0.694361538233
H      5.945013300056   -0.473913970062   -1.077378073647
