74

C     -0.577152122619    4.619003088445   -2.372791839969
H     -2.398499324276   -0.220044306274    0.359899114651
C      0.454279881042    5.018629544005   -1.410136129310
H      2.427883710644    3.735517189650   -0.538693440729
H      1.385008256349    5.369991221827   -1.862877080598
C      0.319187065032    5.235773863096   -0.035966872827
H     -0.634955571547    5.092064514362    0.483083669336
C      1.305933146835    6.037961946713    0.752658283466
O      1.186292234119    6.264873242588    1.933203721564
O      2.333721371549    6.501446426462    0.010997410812
Pd     1.065797169881    3.192256542616   -0.161247132612
C     -1.922999299859    2.684478812294    1.030134212333
O     -0.825312098781    2.274695111140    0.444266365457
O     -2.165890406758    3.845777137606    1.311043279437
C     -2.934438694583    1.568802282106    1.381936466371
H     -3.907441843874    2.075967162260    1.452693827292
N     -3.034513036639    0.569489468502    0.329745990097
C     -3.727031012199    0.800786243998   -0.826467697786
O     -4.391086328723    1.810581854437   -1.004241018646
O      0.011763304943    0.048609684593   -0.049032625523
H     -0.435052162697    0.999417634684    0.145284300766
C     -0.213658110563    4.525001864795   -3.732697685249
C     -1.124869150113    4.158761245474   -4.726086805074
C     -2.457788100568    3.859914414837   -4.350769480272
C     -2.822421832872    3.954761178819   -2.997428752757
C     -1.909839509904    4.337615635006   -2.018414212478
H      0.819153758855    4.747347633148   -4.018097702522
H     -3.838758847711    3.696233458086   -2.691817807967
H     -2.237190145821    4.406869292273   -0.980714987745
C     -0.692795486539    4.080341669053   -6.169749732297
H     -0.835971535790    3.067591122253   -6.583571855935
H     -1.279218353774    4.763700518787   -6.807270116165
H      0.368889497751    4.342369245247   -6.285711772972
C     -3.474957494105    3.449033988493   -5.384062126914
H     -3.627600709967    4.240141227145   -6.138564231105
H     -3.152338614033    2.550591500597   -5.937728150821
H     -4.447551192470    3.230920076476   -4.921149756804
C      3.342791628144    7.251815603936    0.705906469279
H      2.865356822095    8.100606087916    1.221357499260
H      3.788069701249    6.612501076587    1.486189033159
C      4.371977585099    7.707913492898   -0.307270236816
H      3.912180135606    8.347793023973   -1.076396049823
H      5.162066473727    8.287307050983    0.195306471357
H      4.842441315402    6.847895520245   -0.808601034515
C     -3.597968648264   -0.278266141192   -1.890044066247
H     -3.247638958819   -1.243906183641   -1.496789586113
H     -4.573377146909   -0.409565692717   -2.378414833375
H     -2.885014525354    0.067057912813   -2.656234959580
C     -2.596860162726    0.897021788751    2.738146090195
H     -1.653296153702    0.336353970188    2.589522070349
C     -2.362073143234    1.924205262392    3.853047473748
H     -2.154929794547    1.409446903934    4.804685963416
H     -1.515992472872    2.592890592762    3.639359010903
H     -3.251210158182    2.559337192019    3.997359642564
C     -3.692451651999   -0.099205675179    3.141611648177
H     -4.644120696397    0.426421129361    3.327294526889
H     -3.876319107521   -0.852358068993    2.361160539128
H     -3.415665560763   -0.628503127121    4.067322180160
N      1.999859777114    1.241209631858    0.010969034933
C      1.311909491099    0.063560486875   -0.008670872749
C      2.003327892859   -1.177583793065    0.006572639136
C      3.378343098125   -1.202932792018    0.068847353888
C      4.084629556880    0.018543168058    0.115263437810
C      3.348369304569    1.196401232510    0.080389452552
H      1.402086348782   -2.086917415272   -0.020932572704
H      3.924088998625   -2.147462727933    0.087898182099
H      3.876522890960    2.148487490286    0.104887786450
C      5.566140572920    0.120665174348    0.189972197418
O      6.182837367536    1.160876435439    0.221312726765
O      6.154905273821   -1.090391541134    0.219276628645
C      7.580860317844   -1.097180108769    0.293050333759
H      7.927048108303   -0.587654190795    1.204930296973
H      7.881158613646   -2.152002542577    0.308183988531
H      8.019466591207   -0.586863404419   -0.577722804016
