63

C      2.113013352476    3.109195607177   -2.388384669454
H      2.932468169352    2.387854976693   -2.416145231143
H      2.356348250408    4.173863424330   -2.396632356672
C      0.824813643028    2.687296830589   -2.625272679340
H      0.020079071381    3.407995197889   -2.789244765914
C      0.517695417906    1.253723802936   -2.952301309085
O      1.346781427896    0.380137780186   -3.049085506158
O     -0.793684285627    1.090077336445   -3.138821457838
Pd     1.053649116620    2.957327970471   -0.410830820377
C      0.035308260007    5.505657984055    0.303085812145
O      0.236527547583    4.752798664155   -0.751104075876
O     -0.361480364158    6.649388315984    0.254713443598
C      0.351765788809    4.832767091723    1.670939176198
H     -0.473052111334    5.148775133911    2.327296450809
N      0.330212569300    3.376562020233    1.486421009607
C     -0.321135043621    2.604613958963    2.314778436751
O     -0.578490904123    1.356364069301    2.090222174372
O      0.004186939252    0.183864942821   -0.013522418170
H     -0.356065552817    0.968220384825    1.138814922840
C     -1.256974661282   -0.255715023853   -3.367470512579
H     -0.707762023505   -0.677902488342   -4.224176398179
H     -1.003549563142   -0.853940922831   -2.478605756070
C     -2.749535209823   -0.200948272216   -3.612525675135
H     -2.984872887655    0.415808430466   -4.493697549317
H     -3.135676047812   -1.216871014362   -3.789426432865
H     -3.275583008578    0.221606773635   -2.742999132283
C     -0.860611487088    3.096726593658    3.637137683704
H     -1.050180700929    2.226350110950    4.277287728006
H     -0.167657455639    3.785637626072    4.137512458249
H     -1.818848112703    3.619248817374    3.481748181271
C      1.656393322753    5.363848663270    2.273056648099
C      2.648178100220    4.501025289604    2.759768313469
C      3.816880070596    5.012276921880    3.337419788942
C      4.006399350054    6.391300430441    3.438772994538
C      3.018511471207    7.258401217720    2.957853614372
C      1.852920649051    6.752316713056    2.380859907034
H      2.514234920109    3.420692904928    2.686599448249
H      4.579745873456    4.322397453596    3.707482744138
H      4.917875341221    6.790899207401    3.890711838065
H      3.156187836152    8.340322335417    3.032191230120
H      1.087256804121    7.428042881546    1.995105367184
N      2.037423624427    1.172426177183   -0.018504355621
C      1.267075685282    0.070138677056   -0.011500884578
C      1.901052809543   -1.254199569291    0.008751497543
C      3.311033126739   -1.370218946260    0.041997960777
C      4.105524168844   -0.146853454224    0.098454912807
C      3.424618728724    1.104637844808    0.076028539772
C      1.085285109934   -2.402548019281   -0.004986251528
C      1.655267118592   -3.666611587727   -0.005270184980
C      3.055989487312   -3.794454308603    0.012159061018
C      3.868493206798   -2.669347957461    0.037925734368
C      5.514340471884   -0.144775225435    0.187189530865
C      6.241776858036    1.035036252761    0.256598119363
C      5.564550629452    2.264652652773    0.245525004608
C      4.179877249680    2.296480081987    0.158381893401
H      0.003613951571   -2.261825726290   -0.013812167443
H      1.023033963232   -4.557642814843   -0.018436381638
H      3.512025381959   -4.787918806578    0.008596830465
H      4.951058455760   -2.800118924906    0.054936244918
H      6.049091496696   -1.095387666415    0.205629861982
H      7.331495163908    1.004151968774    0.324674351734
H      6.121434203526    3.202544851976    0.311831786047
H      3.656773277053    3.254517741534    0.166894385675
