71

C      3.935617210320    4.910758865464   -0.258486578380
H     -3.006491140806    4.957818382805    1.208908259966
C      3.029980550566    5.187566556238    0.923374055737
H      3.612830185488    5.684279809036    1.721052556084
H      2.232619092570    5.890872488233    0.645076991643
C      2.400357824365    3.921935448324    1.511898787702
H      3.154352606243    3.149977698348    1.714729762290
C      1.614021068289    4.164108900816    2.764028415065
O      1.052340800725    5.196183300871    3.072351696296
O      1.581799283795    3.064902044121    3.557104676038
Pd     1.024942593421    3.073382393001    0.226672036156
C     -1.660961943563    2.900270623373   -0.927913327888
O     -0.580184319868    2.166633427992   -0.999525973010
O     -2.222112231209    3.438572441013   -1.855343617353
C     -2.211095141527    3.102726423669    0.533734307359
H     -1.554055462724    2.554447623400    1.227464115502
N     -2.152865534314    4.530641642629    0.866666774320
C     -1.084258906432    5.316091146857    0.688117935434
O      0.013374168126    4.904408170441    0.253461929343
O      0.040226600297    0.135350903141    0.295074920613
H     -0.326868093174    0.986189173578   -0.187539160907
C      5.301145711236    4.649110339948   -0.069730119907
C      6.162557319855    4.329017617753   -1.128411770831
C      5.640663905422    4.271673879843   -2.441620426024
C      4.279747873904    4.548166550257   -2.634468473028
C      3.434771206113    4.862562505848   -1.566937270101
H      5.713025588128    4.691114881047    0.944068060977
H      3.869170800667    4.514945819401   -3.647979005487
H      2.378306542267    5.072911206939   -1.754837662541
C      7.615600710861    4.026294638892   -0.861682934145
H      7.846215515095    2.971580119431   -1.087135311317
H      8.285636649707    4.645571961428   -1.481143354215
H      7.872894384709    4.201278943752    0.193123585795
C      6.525889364731    3.915524292683   -3.610240614583
H      7.359107152731    4.629986544478   -3.725515163898
H      6.983813705891    2.919887972579   -3.481958959921
H      5.959749915237    3.906758277608   -4.553128580500
C      0.833536858573    3.166735497807    4.776761433576
H      1.202564564666    4.029840229285    5.354320312771
H     -0.223003885083    3.374175359507    4.535676426236
C      0.992455976660    1.866997994179    5.538845932522
H      2.051562615794    1.673740962939    5.769113052107
H      0.436585887507    1.916235031292    6.488254774967
H      0.606390049685    1.015454013681    4.957246236241
C     -1.206374947806    6.771260929838    1.051117837580
H     -0.542864482236    6.942527523856    1.913424756943
H     -0.834672780454    7.378811324847    0.213555117905
H     -2.233265201417    7.073592116687    1.298646290730
C     -3.629185263068    2.592991720345    0.695703077085
C     -3.909683405884    1.569788900922    1.613020348513
C     -5.215009766004    1.094922688157    1.771146577971
C     -6.255107459619    1.643095135941    1.015949373067
C     -5.982712127718    2.661316588479    0.096066140101
C     -4.678398038737    3.132814902123   -0.068427740878
H     -3.098575951535    1.138725735101    2.206518917776
H     -5.418782129902    0.295855036466    2.488427272564
H     -7.276490868311    1.274243656056    1.139940805422
H     -6.790373637650    3.084395607112   -0.506748905979
H     -4.453504448135    3.895506941831   -0.816436646413
N      2.054658740052    1.264382794382    0.159741953386
C      1.340575950734    0.106843130484    0.280500104362
C      2.003241008444   -1.142833808400    0.393044018975
C      3.375293640603   -1.204410960535    0.294807683562
C      4.074675030286   -0.004663733290    0.089036964956
C      3.393256027072    1.202564190700    0.033483058708
H      1.386290969435   -2.032239699496    0.522418297029
H      3.924099906913   -2.144631677403    0.352627842673
H      3.938775476091    2.136104295234   -0.109448190209
N      5.531877120896   -0.021926502573   -0.058048141926
O      6.097892585312    1.045412341193   -0.237832361173
O      6.086545931342   -1.107680147438    0.010568946061
