69

C      2.328862122557    5.406706319923    2.550679323231
H     -0.298566055560    4.793188158567   -3.523457616013
C      1.116506870858    4.572496588941    2.216893775803
H      1.554858989347    3.456775373316    1.965094128933
H      0.523884631330    4.298285693629    3.101740127450
C      0.242312758323    4.975083637432    1.092667763279
H      0.533478818584    5.839816949434    0.487223805991
C     -1.231250099858    4.818473575202    1.296292421802
O     -1.730100559203    4.237811604991    2.237772321380
O     -1.929900830359    5.383836990168    0.300113900962
Pd     0.999208299743    3.249188967756    0.311313147074
C     -0.839370605135    2.765881670549   -1.868905793771
O     -1.314982682826    1.846466378717   -1.181454643389
O      0.210271414862    3.438735951167   -1.598264666331
C     -1.551611992646    3.150084409592   -3.186024884819
H     -2.630983468488    3.093213100900   -2.978599239062
N     -1.278364123265    4.529810146269   -3.529194898857
C     -2.200908249111    5.520375588238   -3.315317797432
O     -3.371822106197    5.292515997780   -3.051452246346
O      0.035043257727    0.148666663959    0.170191453568
H     -0.456788119826    0.934315801167   -0.258570603257
C      2.520559767958    5.851878771837    3.865511523094
C      3.610743333867    6.654344366449    4.229849749732
C      4.552827703471    7.022651173676    3.241645700552
C      4.361229378265    6.568522428874    1.928509793068
C      3.270576116905    5.771207912232    1.580377397707
H      1.793938004368    5.570332885723    4.633530289226
H      5.088271894176    6.845188270250    1.159675631808
H      3.153284026542    5.428737559699    0.547866604896
C      3.771800552684    7.114343970222    5.657590411298
H      4.725198219788    6.767269123049    6.091037180660
H      3.777717092052    8.215181817775    5.730917016621
H      2.957670962248    6.740394973542    6.294829685748
C      5.742185147243    7.882304590270    3.589666742994
H      5.431894542144    8.858854853900    3.998922736240
H      6.375978445372    7.408890912177    4.358874342944
H      6.370887908830    8.073005790238    2.708001678917
C     -3.372990279561    5.253317395908    0.334650432490
H     -3.678661092057    5.335138650564   -0.716681126625
H     -3.621073228123    4.250478474821    0.710958422537
C     -4.008433922056    6.332991397648    1.193790592787
H     -3.724195376644    7.337122536147    0.841145233407
H     -5.105783444044    6.251107854321    1.135903506488
H     -3.713057521957    6.228280475034    2.248450170163
C     -1.658629183057    6.936129572309   -3.405741241792
H     -0.742002824127    7.013183862342   -4.009249214545
H     -2.435947041635    7.589408758736   -3.824048128661
H     -1.437386454213    7.284495295639   -2.383332202903
C     -1.210240396965    2.159317536221   -4.304872282141
C     -0.798513283223    2.603769546916   -5.568511371940
C     -0.512357068733    1.691200865494   -6.589597403994
C     -0.636352190514    0.319068543574   -6.363068751699
C     -1.052212928552   -0.133267826524   -5.106378299735
C     -1.338091305487    0.776313114705   -4.086294676215
H     -0.713972870140    3.675030474182   -5.758508606033
H     -0.194211741481    2.059396500138   -7.568761931638
H     -0.414461685021   -0.394474781318   -7.160899521550
H     -1.159180356074   -1.204905949736   -4.917842780865
H     -1.659926187086    0.418780421404   -3.106464634880
N      1.997553395625    1.355427817862   -0.076372648035
C      1.339967172075    0.179609817208    0.032247934487
C      2.051355802799   -1.045376455539    0.028986255275
C      3.425332438006   -1.036306110212   -0.125548981929
C      4.094784629451    0.190129147662   -0.282669937682
C      3.338635361946    1.349283019848   -0.248848019182
H      1.478083330500   -1.967091267990    0.134440232224
H      3.981885135097   -1.977053929432   -0.136874700902
H      5.175420309323    0.242531616970   -0.421097272656
H      3.809856209362    2.330139116949   -0.352188807898
