62

C     -1.604683210483    3.765341399302    2.041311785457
H     -0.013504388995    4.682472669766   -3.265821947872
C     -0.293118036939    4.390779028038    1.793259159794
H      0.308516359993    4.454968472910    2.705203565223
H      1.712318597007    3.038936913459    1.714123600983
C      0.231067085600    5.134694531172    0.729222356628
H      1.172967942707    5.656132179844    0.925429471770
C     -0.440855302306    5.734879568226   -0.468452678248
O      0.180338177355    6.339795067532   -1.315014208429
O     -1.771213847846    5.611186278029   -0.468273529095
Pd     0.985953257542    3.110377304756    0.374440102200
C     -0.601558727264    2.478133901588   -2.223205744605
O      0.173061538087    3.280412347271   -1.617559411809
O     -1.082346207080    1.423213184176   -1.757055740904
C     -0.967425324059    2.851619909336   -3.657849458368
H     -2.053207637510    2.715480973910   -3.792111382234
N     -0.554790536551    4.198081135562   -3.977939177126
C     -0.714181353194    4.728019606224   -5.225116748157
O     -1.268989745318    4.120916984054   -6.127600040327
O     -0.058801620845    0.189002350289    0.175865000569
H     -0.496213383200    0.797504581959   -0.548455953400
C     -2.396006598139    3.144204239789    1.056999509181
C     -3.611887071427    2.528799775134    1.361509219281
C     -4.085892828383    2.553513909864    2.697004164257
C     -3.296787543143    3.166379082210    3.680498719355
C     -2.066647135784    3.742332340747    3.369901757907
H     -2.040173605772    3.109032553709    0.030394806230
H     -3.647604842904    3.176724531274    4.716153251166
H     -1.461996526273    4.188520275286    4.164212331561
C     -4.395268093562    1.838394557710    0.271938831228
H     -4.645756134698    0.801467141914    0.550094849283
H     -5.353035651324    2.350088196636    0.071770236428
H     -3.820172658316    1.799586398814   -0.663765263172
C     -5.401083246083    1.914273101732    3.059874809068
H     -6.234083820753    2.343172527570    2.477509897087
H     -5.396416034232    0.831924970085    2.844821922217
H     -5.631334210918    2.044706030290    4.127060177613
C     -2.490700790071    6.229739018738   -1.555177625890
H     -2.180548630042    7.284304452047   -1.626486201874
H     -2.194966356242    5.735364133351   -2.493434715863
C     -3.972930598055    6.089637458343   -1.279818860055
H     -4.248360633846    6.580568320422   -0.333764698717
H     -4.546666686341    6.559092096795   -2.093992762336
H     -4.268264510492    5.031293178346   -1.217626337182
C     -0.148874944216    6.129746454644   -5.406391560720
H      0.721769669890    6.078069748510   -6.079522741231
H     -0.906134097568    6.751122999638   -5.906498433338
H      0.154445020273    6.603905166145   -4.461550302695
H     -0.496694083279    2.110648682987   -4.330549023738
N      1.973085015008    1.271646369616   -0.032061474372
C      1.248267919278    0.129757877112    0.067908801092
C      1.894042022257   -1.126497807365    0.084318404902
C      3.268002006840   -1.181643823722   -0.062341840276
C      3.993327772013    0.006549263515   -0.233190905361
C      3.320971197500    1.225177088177   -0.208757324555
H      1.273281371367   -2.016665697135    0.188194558250
H      3.783407926768   -2.145632004470   -0.064662888581
H      5.074370533319   -0.009499210142   -0.376932751876
C      4.053150929149    2.528175601937   -0.366386883296
H      3.604920694116    3.133107040082   -1.170532059307
H      3.991170434732    3.122973381418    0.559657377276
H      5.112984673230    2.359465556679   -0.601575763804
