77

C      1.616634011928    5.890364837707   -1.102406949764
H     -2.763470066061   -0.114388414905   -0.585533386214
C      1.287056137376    5.458137216393    0.262361772932
H      2.217169350460    3.491067543350    1.125100636791
H      2.041854999317    5.679810740974    1.022806085730
C      0.041157027665    5.059501045441    0.740101622662
H     -0.841152269193    5.047910473014    0.094956206330
C     -0.226110761014    5.017828513982    2.213416735395
O      0.585339599104    5.233447212335    3.086960766648
O     -1.508517520144    4.697880487757    2.417189647069
Pd     1.012854613789    3.161392494541    0.269097687089
C     -1.902832169395    2.895594978226   -1.118819306394
O     -2.056919180556    4.077630133518   -1.381973598704
O     -0.778863033839    2.374617584102   -0.707512220088
C     -3.046823189226    1.858207607503   -1.337453213312
H     -2.775944001353    1.336196904341   -2.273096003612
N     -3.010203922236    0.826364926860   -0.306567774020
C     -3.095107036988    1.096837553823    1.030863686652
O     -3.307994720530    2.221704802266    1.455944245908
O     -0.049963795079    0.085332944935   -0.209245256292
H     -0.459561424977    1.038682654620   -0.407884399978
C      2.892003829258    6.438612076263   -1.340784503246
C      3.280843677569    6.909151907386   -2.598351377122
C      2.359685802730    6.828453219260   -3.670111557007
C      1.089475365776    6.278009648589   -3.431535117714
C      0.708305203437    5.812234508567   -2.176063531621
H      3.602149677623    6.500368633357   -0.510632707483
H      0.376967494956    6.214200387595   -4.258733220975
H     -0.284132377648    5.377837478270   -2.032300643207
C      4.657005930870    7.492509142284   -2.804480754600
H      5.225412730483    6.933890150771   -3.567466584486
H      4.607625701434    8.537887616410   -3.153908204229
H      5.242280155357    7.477551769605   -1.873826516155
C      2.731929826842    7.323663842792   -5.043955948920
H      2.992881874235    8.395840151581   -5.031632021104
H      3.614456376665    6.793438494240   -5.441215980408
H      1.906859078553    7.186289130367   -5.757391166326
C     -1.975611135928    4.487363029284    3.759859986182
H     -2.749322131813    3.714857203902    3.651241497457
H     -1.145087252909    4.097456306220    4.367786032455
C     -2.532266776671    5.767936379973    4.359277531310
H     -3.330243756093    6.183033161078    3.724250281976
H     -2.957648332841    5.561282542124    5.354757988115
H     -1.742045793710    6.525221048165    4.475640836418
C     -2.870625930415   -0.100243898702    1.941447688690
H     -3.249425425259    0.136791585754    2.943272657372
H     -3.365826318148   -1.008626066864    1.564158353477
H     -1.789909656514   -0.306639380251    2.004428395852
C     -4.435143599714    2.524502548388   -1.560179589013
H     -4.532924543976    3.318059310705   -0.802114996594
C     -4.486335499651    3.169231512130   -2.953905804011
H     -5.408492622821    3.753918257737   -3.089543978822
H     -3.639277496326    3.850312031195   -3.101283795437
H     -4.463544541188    2.397444844686   -3.744981236552
C     -5.590382755325    1.524727101262   -1.358440555528
H     -5.484697912093    0.692226798252   -2.081087494356
H     -5.501378056059    1.070969329248   -0.360018574802
C     -6.988617826199    2.135031453120   -1.486046505562
H     -7.200318113403    2.496943494168   -2.504255663400
H     -7.764026122215    1.393054353740   -1.235819905924
H     -7.112316661718    2.988243801333   -0.797993498133
N      1.950644653522    1.241885998915   -0.037966514853
C      1.252272780728    0.079491228223   -0.157027251090
C      1.928863288291   -1.166852692347   -0.219016597259
C      3.305608692736   -1.206062827756   -0.197031027575
C      4.025126157290    0.005110531496   -0.111840606577
C      3.299236462859    1.187935990787   -0.030164375763
H      1.319098625058   -2.067273615798   -0.299926250255
H      3.842740685758   -2.154057277474   -0.252433519015
H      3.834875152703    2.133287372526    0.050585057829
C      5.509624806330    0.090757370344   -0.094658500740
O      6.137925668527    1.122186460069   -0.028891446484
O      6.086311266071   -1.124730545719   -0.162055868479
C      7.513902737028   -1.147042281489   -0.150715131337
H      7.904169945695   -0.695404890328    0.773798637186
H      7.803638815502   -2.203219403000   -0.211020027427
H      7.920085671306   -0.589240566357   -1.007996550603
