78

C      1.604557285166    5.862390665341   -1.219269469978
H     -2.873029306035   -0.193324257649   -0.585146004610
C      1.250993247667    5.469760270806    0.151486636154
H      2.231944282385    3.557720439382    1.039656472870
H      1.982918926856    5.730139543631    0.921875838158
C      0.001734099431    5.064371918521    0.612649434201
H     -0.862852398694    5.018939388555   -0.054076469521
C     -0.299485288860    5.058365090179    2.080067803374
O      0.483404472578    5.333256615210    2.962757921132
O     -1.572488025561    4.692121355770    2.266359154474
Pd     1.006925823978    3.161555338561    0.240798418324
C     -1.894145737114    2.806339653170   -1.122290231307
O     -2.009588193718    3.946183792414   -1.547534790210
O     -0.801745047187    2.303056845281   -0.626939999604
C     -3.087483178585    1.817324075609   -1.241421145884
H     -2.941671632152    1.324767993675   -2.218715977352
N     -3.044587425121    0.747738137408   -0.255968522205
C     -3.139094923884    0.946458433098    1.093086328500
O     -3.322176189900    2.051468795280    1.582857873260
O     -0.039404075489    0.052335506849    0.024255901890
H     -0.467205720124    0.975179636296   -0.228501287447
C      2.868366942191    6.442365306986   -1.443068352222
C      3.276888804446    6.881568724421   -2.705751692081
C      2.388680508161    6.733988316080   -3.797932049302
C      1.130523005379    6.150723322288   -3.573787467478
C      0.729196914254    5.716582661996   -2.313210552147
H      3.553094190309    6.555652959660   -0.597145120292
H      0.443955250210    6.034259107323   -4.417036360332
H     -0.252163689174    5.253502888302   -2.181854213016
C      4.639313677607    7.501424407152   -2.895870416763
H      5.245745634258    6.935281216205   -3.623192413524
H      4.567008183664    8.531970349461   -3.283316743584
H      5.198821965622    7.537502890268   -1.950072756164
C      2.783035911982    7.192928981978   -5.178187501316
H      3.009884535463    8.272736675880   -5.197087013949
H      3.692336666622    6.677937711294   -5.532815794577
H      1.982662065266    7.004360488700   -5.907879500200
C     -2.060044506298    4.502491127192    3.606564249685
H     -2.779219445122    3.677517844395    3.511912326953
H     -1.221192891272    4.191894674946    4.247431604326
C     -2.710751821901    5.768027677601    4.139074959810
H     -3.517612739523    6.105498285498    3.470131032637
H     -3.146818281548    5.574716974471    5.132612549844
H     -1.973591165700    6.579093782026    4.241451453559
C     -2.967212192588   -0.308019096154    1.934987628219
H     -3.297159678564   -0.096851647188    2.959508101955
H     -3.540507043690   -1.156547499718    1.529504056572
H     -1.902481177790   -0.591480170705    1.948189308987
C     -4.435814660966    2.572154479545   -1.291126037831
H     -4.574706566459    3.079351144751   -0.327042934531
H     -4.331422883861    3.352163819567   -2.057726744994
C     -5.612029671294    1.674631275402   -1.596944381810
C     -5.930016142696    1.327468420134   -2.921033211163
C     -6.404629037311    1.144759188012   -0.565431437476
C     -6.999453383978    0.474427352208   -3.207015104330
H     -5.334969855539    1.740956722853   -3.741620532704
C     -7.476889417072    0.292377104755   -0.846393631352
H     -6.179627255821    1.415868601696    0.469844311061
C     -7.776984955951   -0.048256300005   -2.168610806306
H     -7.231970563082    0.222770380239   -4.245438032200
H     -8.084356620459   -0.103896880122   -0.028019141900
H     -8.617063398650   -0.711822544411   -2.389968742263
N      1.953892827945    1.237391733311    0.028628161315
C      1.265038617384    0.063973982101    0.025747328325
C      1.952026682098   -1.177734361257    0.032018799314
C      3.329060783844   -1.203831664901    0.001534439775
C      4.037566988574    0.016064580606   -0.035396256674
C      3.302302958869    1.195673994218   -0.014595733209
H      1.349872307694   -2.086765182683    0.044464518113
H      3.874154945593   -2.148869289364   -0.002770147761
H      3.829677204282    2.148999668261   -0.027720027809
C      5.520733619558    0.115040489769   -0.084664703568
O      6.139132618733    1.153784916405   -0.122147390458
O      6.107861101238   -1.097117119312   -0.083473291150
C      7.535039937548   -1.106815115382   -0.127737364885
H      7.956194009207   -0.583307880228    0.743788426926
H      7.833937682843   -2.162110981287   -0.119900422922
H      7.900802323807   -0.612165361498   -1.040194968441
