53

C      1.979056065669    3.166712509960   -2.403535844023
H      2.797764722990    2.447156827739   -2.481690335232
H      2.217793488085    4.231865758682   -2.385278298662
C      0.687118040162    2.744849418807   -2.603858945612
H     -0.127678669342    3.463569140925   -2.719378604105
C      0.379998949868    1.315351801458   -2.940521271609
O      1.213860404870    0.450016314099   -3.078962706354
O     -0.936074697733    1.136335783067   -3.072431139551
Pd     0.989134534614    2.960421865088   -0.373779084993
C      0.183538904251    5.529832533813    0.465800456367
O      0.229693032370    4.782105569088   -0.622937610048
O     -0.039111546339    6.719551748200    0.442309434785
C      0.469669153141    4.787423551705    1.791841708679
H     -0.342905307814    5.086011488911    2.470607390844
N      0.430188256770    3.341470885901    1.548297801050
C     -0.411226209240    2.521549877710    2.188534857559
O     -0.683924365583    1.359949311185    1.801923387096
O      0.017032287200   -0.063312994278   -0.079744319801
H     -0.328837124666    0.633734419323    0.631945528070
C     -1.395852226048   -0.212150054012   -3.298098720986
H     -0.854475384103   -0.630008310933   -4.161711089242
H     -1.130352678412   -0.808833622953   -2.411443417233
C     -2.891438782978   -0.163817778024   -3.526019272619
H     -3.139736470543    0.450708833224   -4.405173997723
H     -3.274960384298   -1.181770891532   -3.696763071847
H     -3.409756960587    0.257171355720   -2.651096595373
C     -1.120182479808    2.981256470884    3.455925823493
H     -1.527723847950    2.090173708542    3.948492878578
H     -0.464112742356    3.522441224727    4.148549823864
H     -1.961733781320    3.644397729504    3.195479139459
C      1.789078992894    5.326717980693    2.414406112637
H      1.636779840231    6.419380002610    2.442538277704
C      1.998097984177    4.832227455980    3.849233374854
H      2.923102515292    5.252967551994    4.275344728404
H      1.167675620353    5.130970224865    4.508883200020
H      2.086692232223    3.733628353542    3.884069714239
C      3.029065500479    5.051089025329    1.556199908090
H      3.250755828682    3.972079702665    1.514858294595
H      2.910186810312    5.421189608029    0.525615208580
H      3.911420064654    5.551474235595    1.986200893182
N      1.976854509433    1.136388858388   -0.051011272487
C      1.327219625032   -0.047553056205   -0.075827653635
C      2.066633053642   -1.252624778204   -0.104970503499
C      3.445210628907   -1.212219518372   -0.060306153755
C      4.123436522374    0.024698271916    0.023984706911
C      3.329654017976    1.161866805065    0.020217993138
H      1.509690058490   -2.189125944933   -0.145449496092
H      4.017190165022   -2.144677749597   -0.076026282614
H      3.784771661026    2.154699419594    0.061659751571
C      5.625969897423    0.105794635477    0.102590007903
H      5.972851243342    1.148937876339    0.140795867328
H      6.008240038060   -0.406946190592    1.001013817228
H      6.099056618470   -0.374170520409   -0.770066037034
