70

C     -0.193392459400    3.986339704470    3.348468409809
H     -1.441059639424    5.514274623220   -3.402584756236
C      0.947366671785    4.382071474464    2.447020674890
H      1.808445744408    4.797381062492    2.992258233948
H      1.522049450667    3.332644310862    2.124136783380
C      0.676191283034    5.103825221842    1.190192600609
H     -0.349976237471    5.385616209492    0.937494930270
C      1.752796350437    6.026716892979    0.729235694221
O      2.884546615639    6.033984816670    1.170032179792
O      1.347612264250    6.852419643314   -0.254850856701
Pd     1.160566430974    3.270860555162    0.412785777673
C     -0.828070661368    2.944509176485   -1.660178904535
O     -1.163956648708    1.852433017651   -1.154711650971
O      0.252054690548    3.580426939075   -1.450020527317
C     -1.835869979199    3.555830909417   -2.655122797135
H     -2.810829459327    3.202487590656   -2.286176287255
N     -1.840413108950    5.005121487548   -2.624427728889
C     -2.114871941359    5.679145019827   -1.472276312224
O     -2.421470550782    5.096242064009   -0.438273887787
O      0.062649050531    0.126772164384    0.090312429468
H     -0.397041605901    0.966225261308   -0.371661142972
C     -1.483207490194    3.744806316986    2.848798336284
C     -2.544946892261    3.391762207829    3.689462888189
C     -2.313351614061    3.262984157067    5.081027340730
C     -1.023430988052    3.501420258985    5.572899457022
C      0.026952259128    3.858941086766    4.724866835142
H     -1.682820177372    3.837538830650    1.777980061517
H     -0.836519822522    3.407940640298    6.646475726067
H      1.021732793337    4.043808375608    5.140404478714
C     -3.915866827121    3.155104708538    3.105633764512
H     -4.251872671332    2.116641866595    3.269459853096
H     -4.672931591975    3.807028312426    3.573484069358
H     -3.924569216320    3.349395934749    2.023941793529
C     -3.431658875971    2.877331032423    6.016067276052
H     -4.257515974957    3.608500675947    5.984348424164
H     -3.869364597290    1.901739613871    5.744197957806
H     -3.081068417389    2.811091487217    7.056236349359
C      2.359184373855    7.716046816685   -0.807113825510
H      2.783238184876    8.330432277091    0.003211794930
H      3.179238529297    7.092391883835   -1.198012821997
C      1.732293138721    8.565783312575   -1.892068729334
H      0.930293076293    9.203264679509   -1.488798241211
H      2.497087307629    9.220925809351   -2.337522729677
H      1.309893230389    7.938967582633   -2.692431996901
C     -1.991500712124    7.189240008947   -1.535467838779
H     -2.798137428016    7.633955140398   -0.936693031786
H     -1.031229063326    7.472053671780   -1.077067919490
H     -2.029975252821    7.589065628625   -2.559794378150
C     -1.636686733384    2.995609570437   -4.084623505653
H     -1.612760595172    1.900889134521   -3.949847182504
C     -2.833275248086    3.329495298947   -4.985679947469
H     -2.716912341451    2.864386823902   -5.977544854346
H     -3.777132359173    2.966140546225   -4.549722966368
H     -2.935459020636    4.416542461994   -5.139481312749
C     -0.307054430155    3.416696620322   -4.727111380753
H     -0.279633581277    4.497034690437   -4.954545388165
H      0.551665894089    3.193905425730   -4.077057544350
H     -0.161749440868    2.890691229952   -5.683883951581
N      2.050077397817    1.295924037795    0.054056160280
C      1.355857102382    0.126382092594    0.102146030722
C      2.044713335146   -1.118605662451    0.184168567029
C      3.420132718745   -1.148259290276    0.159699480253
C      4.105197490263    0.075431444088    0.055910865912
C      3.392460387743    1.264231647939    0.012960796968
H      1.443242796234   -2.025989255455    0.244603711390
H      3.986425724730   -2.078834093618    0.206478478841
H      3.925916088764    2.214974250842   -0.041971438095
N      5.566417038758    0.106525855424    0.007484850421
O      6.108925211181    1.196487984710   -0.096681281026
O      6.150786081981   -0.964580596727    0.073899859755
