78

C     -1.638621097718    3.705201832289    1.959340260726
H      1.035059905985    4.242695398191   -4.030487006946
C     -0.355198397812    4.397928958569    1.745388169673
H      0.227127555016    4.476982595665    2.668631188960
H      1.596355158471    3.105032010619    1.720563858769
C      0.142270035631    5.190827648750    0.701763443648
H      1.055648363672    5.751421713917    0.925116831985
C     -0.571301546131    5.847132316722   -0.444684652285
O     -0.006834207219    6.642367057517   -1.162462073071
O     -1.872052748060    5.560068424637   -0.519987159021
Pd     1.016724612599    3.225369342370    0.315921391798
C     -0.361462392845    2.696972418939   -2.372889170630
O      0.448780318787    3.444898692972   -1.758036931555
O     -0.922701833704    1.677347088477   -1.897733690903
C     -0.703368551815    3.074812591062   -3.826135743395
H     -1.759827745248    3.387857002563   -3.826272610755
N      0.049485783084    4.228468413652   -4.267906564176
C     -0.556829731525    5.427085205345   -4.529009793586
O     -1.773671934439    5.542828125080   -4.610996679340
O      0.170505914544    0.158131395216   -0.270466178061
H     -0.283282610917    0.915807090157   -0.844703813724
C     -2.378713125920    3.061342804484    0.949893103784
C     -3.572971512575    2.389886155076    1.220567541290
C     -4.075288655973    2.374368527304    2.545733542760
C     -3.335264272741    3.007837289685    3.554252277523
C     -2.126784050865    3.643817976233    3.277419354501
H     -2.002013912041    3.053817794961   -0.070451362685
H     -3.708151925294    2.988420831120    4.582050326219
H     -1.560705768262    4.107756949975    4.089849534216
C     -4.305199287543    1.687412670739    0.103446909536
H     -4.501678331890    0.630748868438    0.349995540491
H     -5.287115537564    2.151992105926   -0.093715692178
H     -3.720031228007    1.709999747329   -0.826547609774
C     -5.369071271024    1.674039441822    2.870934725299
H     -6.208128021954    2.080614278835    2.281230296963
H     -5.316112290883    0.597489362355    2.634376289230
H     -5.624262814107    1.773117971928    3.935830486802
C     -2.673936409499    6.319157616828   -1.457561743000
H     -2.449391175170    7.387895153760   -1.313468861194
H     -2.385700485048    6.053950791624   -2.485263278310
C     -4.129709109789    6.003606673780   -1.186086475876
H     -4.413326454074    6.267811131429   -0.155423247504
H     -4.763998899669    6.576335126637   -1.880379380861
H     -4.339098002211    4.933814621025   -1.339124559291
C      0.378708492984    6.611404204556   -4.661759485262
H      1.376561330887    6.330546743723   -5.030956444438
H     -0.073511416818    7.354446757606   -5.331509514928
H      0.486987212593    7.060122579856   -3.660126864542
C     -0.586697717005    1.858673264053   -4.780168979265
H     -1.239244056956    1.069299135301   -4.380754698115
H     -0.994429664280    2.169557220375   -5.754396188933
C      0.819815418055    1.329816796085   -4.956818511919
C      1.670933681259    1.861405013866   -5.940702732335
C      1.318638649719    0.309932112757   -4.127607978933
C      2.979479536329    1.392868518529   -6.091030352743
H      1.297540575994    2.648792283012   -6.601082572182
C      2.626205898588   -0.161726926409   -4.277038239160
H      0.669652415208   -0.115681907788   -3.357982507317
C      3.462386897414    0.378930632917   -5.258568557533
H      3.622752883351    1.817606259416   -6.866459137776
H      2.991729844469   -0.959332329051   -3.624699315157
H      4.483725851725    0.008104450396   -5.378132020866
N      2.093878591823    1.429105662607   -0.028694011900
C      1.462957699705    0.229340142581   -0.135654911887
C      2.214457867967   -0.974191150815   -0.075789565048
C      3.587650272055   -0.927177878138    0.034521801987
C      4.233524277455    0.327373620786    0.086650607879
C      3.437370421375    1.466618781044    0.060724110924
H      1.664237625633   -1.913477133355   -0.139383109156
H      4.179982649903   -1.842736181401    0.071394810735
H      3.906822554162    2.449252006954    0.131366817625
C      5.706687481576    0.501771770597    0.189898453775
O      6.268868702355    1.570911170044    0.251341525959
O      6.355250531739   -0.678530094113    0.208555366492
C      7.778282310389   -0.614774021124    0.306561070480
H      8.083571323656   -0.106772717425    1.233812142058
H      8.131527560794   -1.653183401723    0.306519832490
H      8.204204851190   -0.065478607099   -0.546587665868
