74

C      2.299710272490    5.344546930024    2.654684551792
H     -0.069505483136    4.670702137922   -3.617228694373
C      1.091656533349    4.535400224153    2.250046724199
H      1.528516023969    3.417845171738    2.008876606118
H      0.446803210022    4.265758447475    3.098996255880
C      0.286906420306    4.963420579355    1.084219726865
H      0.639517896248    5.814489136346    0.491940886969
C     -1.200404328411    4.866424677867    1.210282943534
O     -1.773063353597    4.297067581358    2.115987871399
O     -1.817171615489    5.475298540521    0.187026482877
Pd     1.034318508408    3.221653303504    0.333648808099
C     -0.740411528658    2.734215673548   -1.917856860481
O     -1.170703477538    1.733897986682   -1.314217755903
O      0.275769241011    3.430762666883   -1.584554968242
C     -1.482842697533    3.174399340804   -3.189380142854
H     -2.541743335732    3.264605160818   -2.905646128544
N     -1.068163439112    4.496387330594   -3.618900218252
C     -1.892874932453    5.582858737683   -3.504666633751
O     -3.084993681345    5.490825457426   -3.247978436776
O      0.109895632625    0.088098850640    0.078759841211
H     -0.374432571325    0.874542083348   -0.395991667857
C      2.403259928654    5.820802281934    3.968501040079
C      3.485952817624    6.602927289768    4.393978851312
C      4.511385341775    6.916072926376    3.471798845476
C      4.407277609791    6.430319006065    2.160254870759
C      3.322513104860    5.654777396551    1.750279703086
H      1.612656457453    5.580695684796    4.685739198764
H      5.200004443702    6.661112897930    1.443188000093
H      3.275583347136    5.285329794856    0.721449464058
C      3.552192393549    7.098198445289    5.817489644188
H      4.458415289799    6.735491125824    6.331817639426
H      3.587380635887    8.200019392243    5.862501995193
H      2.680469116120    6.766617975042    6.399703282606
C      5.697203419597    7.749675536467    3.888448183635
H      5.387585967330    8.745721727223    4.248350046631
H      6.255481199094    7.278525899362    4.715391554317
H      6.396720469015    7.897201596002    3.053121433603
C     -3.263961036271    5.424862790846    0.142781215378
H     -3.506643803981    5.524601943797   -0.923572897526
H     -3.588858415322    4.438187479692    0.503717266231
C     -3.882849301568    6.539007965012    0.969562890665
H     -3.522821428512    7.524841794165    0.635283369494
H     -4.978389065776    6.519983281066    0.852753446456
H     -3.650945033408    6.418045811012    2.038361184178
C     -1.218904466312    6.930282876959   -3.700591138301
H     -0.279486497394    6.868635360714   -4.269810065794
H     -1.917903829587    7.607362875929   -4.209833428685
H     -1.001883290327    7.356110056366   -2.707131710651
C     -1.380396414083    2.092214298467   -4.297724190452
H     -1.713275900883    1.158700339172   -3.813966857438
C     -2.332206904588    2.404934896874   -5.456627337795
H     -2.306578339348    1.602048534154   -6.210995963052
H     -3.371084002654    2.512272333830   -5.107612689327
H     -2.050872598899    3.346082561215   -5.956435739259
C      0.058135694631    1.889855897194   -4.789742927662
H      0.451450823202    2.805374648189   -5.263391327213
H      0.741042584356    1.611285523310   -3.970988095082
H      0.102017938876    1.088432232707   -5.544376166032
N      2.060992718080    1.326484636369   -0.014604631205
C      1.411441352959    0.136185122113    0.054097353552
C      2.143694608766   -1.078183463973    0.124731960341
C      3.521166938678   -1.052871192574    0.073600621576
C      4.186055487312    0.187114574492   -0.049121537263
C      3.403913186648    1.337678184885   -0.082942592803
H      1.577654802772   -2.007242103889    0.199165387680
H      4.101252863185   -1.976034675117    0.115020971147
H      3.892626595213    2.312044647466   -0.155914635453
C      5.662174144210    0.336384363704   -0.130759192800
O      6.241361719737    1.393869616314   -0.235386279852
O      6.295955748092   -0.851031011898   -0.074663268747
C      7.720872555531   -0.810041320361   -0.147179902288
H      8.138099702757   -0.224707287445    0.686188293286
H      8.060171355438   -1.851492277040   -0.088827793721
H      8.051260651674   -0.352586766480   -1.092028484657
