74

C     -0.169938618641    3.978319520517    3.342043836197
H     -1.404351587132    5.492954803933   -3.363059003623
C      0.969846426256    4.361293563101    2.432446799469
H      1.832755884553    4.778694658372    2.972990310869
H      1.529267541466    3.310421550148    2.110541660746
C      0.684208431243    5.087816000799    1.178273828560
H     -0.345242884460    5.376030379318    0.947663297152
C      1.751362967809    6.011020109938    0.706646591675
O      2.894189241440    6.014410415657    1.120618851869
O      1.327291075218    6.850606125750   -0.260639897430
Pd     1.155477490520    3.252245049941    0.393408201626
C     -0.855314564386    2.934774166808   -1.629218691886
O     -1.222359086714    1.906651457989   -1.032966783592
O      0.248894992147    3.554635541589   -1.467409587267
C     -1.834978129917    3.523458571174   -2.671324517016
H     -2.819378408728    3.159344399385   -2.340100330635
N     -1.857748267537    4.975230231537   -2.621226827745
C     -2.166787091587    5.637014059444   -1.470041201996
O     -2.513569986548    5.049383452462   -0.452588398669
O      0.029513585721    0.118062611594    0.225015066083
H     -0.418697613060    0.938230398661   -0.205498780054
C     -1.448423719148    3.687201149852    2.839971755185
C     -2.512707609969    3.348629784184    3.683131069524
C     -2.295052235430    3.285504149797    5.081339696148
C     -1.016250076183    3.572132617266    5.576236448966
C      0.036600217953    3.915042223512    4.724751324789
H     -1.635683986083    3.725623518304    1.763581910378
H     -0.840069549572    3.528748441156    6.654933967766
H      1.022471476682    4.138760268368    5.142485365442
C     -3.870596225001    3.056892696705    3.093698876218
H     -4.183813558813    2.017582249795    3.293814094188
H     -4.648363294045    3.708224465669    3.527265256309
H     -3.870114026450    3.209293807878    2.005315704028
C     -3.416121643350    2.916366204570    6.020031878356
H     -4.256962165078    3.627418822922    5.948084491119
H     -3.830098610910    1.920778120809    5.785922592097
H     -3.076366943431    2.902371390108    7.065925916914
C      2.327245708320    7.717256224108   -0.823861813398
H      2.776715172308    8.316615882092   -0.015765890269
H      3.134121260719    7.097618230881   -1.247879730525
C      1.676309500877    8.588856217834   -1.877328487433
H      0.885647812148    9.219407816263   -1.442025065295
H      2.431021843257    9.251123349753   -2.329643766053
H      1.231921642804    7.978195433648   -2.678262407312
C     -2.027785047640    7.147657067975   -1.515732354449
H     -2.831335899623    7.593400026783   -0.913817709559
H     -1.064902453450    7.416411073528   -1.053907057940
H     -2.060452285519    7.558313590919   -2.536167516799
C     -1.597489015406    2.996424951754   -4.123450796143
C     -1.616344962474    1.455553669755   -4.113112331130
H     -1.539987640787    1.073431320341   -5.143837153988
H     -0.782475487867    1.035780249939   -3.532421547234
H     -2.548402975050    1.069169832775   -3.672536703774
C     -2.747088742536    3.493141966372   -5.023845072722
H     -3.720914657881    3.132796167661   -4.655323495979
H     -2.795644957468    4.592004128107   -5.069507395726
H     -2.616390886406    3.121017461562   -6.052844150057
C     -0.246262888777    3.477293853717   -4.689146695057
H     -0.198777175511    4.574110105999   -4.798335576276
H      0.591240842883    3.173099127740   -4.044816965353
H     -0.085716605209    3.052905354599   -5.693305536536
N      2.015467268905    1.283460777914    0.030821355402
C      1.336100990379    0.121471995248    0.134871683179
C      2.023294011889   -1.117382361969    0.170811803707
C      3.405069275529   -1.165002488904    0.066270205652
C      4.090238893217    0.063595566016   -0.082162227880
C      3.362865452606    1.237981440333   -0.091243097629
H      1.420096003059   -2.021508446229    0.268705790070
H      5.177017059991    0.097207108251   -0.180804187250
H      3.864315823118    2.204800027302   -0.189010524052
C      4.159206291618   -2.467847871580    0.096833049282
H      4.871486109838   -2.487391498234    0.938430821934
H      3.482772945243   -3.327998581796    0.199834074215
H      4.749381473149   -2.601393282347   -0.824890961735
