53

C      2.015746239238    3.094664637008   -2.380542531057
H      2.819238530413    2.356489176174   -2.440787072198
H      2.278248765682    4.154459561165   -2.378872215199
C      0.715725712091    2.699189513610   -2.582125576633
H     -0.080983425944    3.435205065820   -2.713399791675
C      0.373070267157    1.273521043806   -2.900032799846
O      1.182065940447    0.381981832208   -3.019443682196
O     -0.946875841299    1.131128221457   -3.042010613707
Pd     1.007698638548    2.942237514263   -0.353591510026
C      0.185395227676    5.520948729926    0.441942633071
O      0.249781927815    4.759892282040   -0.636510649265
O     -0.043795059526    6.708908483223    0.400737442820
C      0.459528451934    4.797466967633    1.781043929973
H     -0.361230293477    5.101975997581    2.447215792876
N      0.427381965905    3.348213860555    1.556031293828
C     -0.413745723480    2.532632345822    2.200302089128
O     -0.676599803600    1.363207454921    1.827280539866
O      0.040448617971   -0.069196727665   -0.033257757394
H     -0.307587494203    0.638299864349    0.675000521739
C     -1.445120903121   -0.203262025387   -3.265056268834
H     -0.901099655009   -0.646511551864   -4.114191215999
H     -1.216124330963   -0.800404564242   -2.368328154218
C     -2.933910818589   -0.109863385659   -3.522298109503
H     -3.145114463699    0.503021853933   -4.412161483353
H     -3.346710237117   -1.116716483430   -3.690528130394
H     -3.455225046674    0.336967806477   -2.662107045536
C     -1.136938002485    3.004302326257    3.454749164263
H     -1.544080441525    2.117564532199    3.955406159506
H     -0.490123772977    3.558217009600    4.145960546462
H     -1.979614536837    3.659320023239    3.177885130778
C      1.770723800185    5.349462620979    2.409861481309
H      1.613968726310    6.441775768376    2.422257522012
C      1.967151885240    4.874589201856    3.853069259417
H      2.885976774277    5.304987291208    4.282796701585
H      1.128859074835    5.178305381554    4.500416198118
H      2.060472410697    3.776987030668    3.903309596119
C      3.020349295543    5.067659998019    1.567795513469
H      3.247310119014    3.989243250277    1.543269998926
H      2.910404598844    5.423476905076    0.531220877220
H      3.896232689794    5.577439502678    1.999911319315
N      1.996555834095    1.126723229900    0.004925685054
C      1.351264268612   -0.059089551380   -0.029977757224
C      2.070155139420   -1.288631929302   -0.067789220456
C      3.453605135173   -1.228299273640    0.000538254439
C      4.112323867865    0.009809192172    0.103257539020
C      3.347529852316    1.159089475058    0.094176612563
H      4.032920725038   -2.155746275787   -0.012893358095
H      5.198676242251    0.075202162346    0.175733981326
H      3.804812167637    2.149512647230    0.144380117668
C      1.299045253915   -2.572905637016   -0.169760854629
H      0.536690913113   -2.638023247887    0.622192915475
H      0.759903602435   -2.624660063332   -1.130210060909
H      1.966019236851   -3.443970207627   -0.099090813375
