44

H     -2.711850042076    5.359007799003    1.018665696869
H      2.080090650875    3.577807201714   -1.175698346699
Pd     0.947493197143    3.019480297640   -0.331225487235
C     -1.547297262125    2.602709726916    1.605701759621
O     -2.466433976233    2.003343104628    2.126113279489
O     -0.734753277748    2.132982221386    0.712002887248
C     -1.256170220488    4.110488239872    1.924075456707
H     -0.164435154697    4.241324432707    1.894987600053
N     -1.805703291375    4.941759090101    0.835585008865
C     -1.224627991130    5.222543688407   -0.339295678257
O     -0.127542018286    4.772386654225   -0.722701432171
O      0.106538758500    0.013002588835   -0.305073761002
H     -0.373068361845    0.820047719723    0.109618949933
C     -1.958447743632    6.178262058784   -1.252332014209
H     -2.875604631008    6.590126155012   -0.809026903376
H     -1.278684786232    7.001963405460   -1.516054477764
H     -2.208838632822    5.651339366675   -2.185742295803
C     -1.778000106179    4.614232156653    3.253295053737
C     -0.920404864588    5.310908719112    4.117996463585
C     -1.387625492720    5.820109731488    5.332951157775
C     -2.725575099336    5.643395379569    5.695372287527
C     -3.588382162067    4.949601370929    4.840907527944
C     -3.120317121983    4.433829753789    3.629714449670
H      0.126943103870    5.454652510719    3.837017892443
H     -0.704326765867    6.356582582286    5.996292228665
H     -3.094456310662    6.040474865900    6.644653644311
H     -4.632769098100    4.796577154351    5.125110468556
H     -3.782913617177    3.850637055154    2.988913018326
N      2.049787759628    1.268837643481   -0.112209479019
C      1.410284856234    0.098436573855   -0.260435492296
C      2.128490730518   -1.135890637698   -0.396437344379
C      3.487655874972   -1.145496630512   -0.298744714951
C      4.189589315254    0.069241543293   -0.042864939352
C      3.428449310810    1.275648889852    0.054074510554
C      5.596841768939    0.108079936741    0.121397128571
C      6.247023715404    1.296682940863    0.389673673093
C      5.494363629557    2.485438422376    0.503126731333
C      4.120448725513    2.478761717658    0.338014033461
H      1.535798030204   -2.036855682960   -0.556682883073
H      4.048807754275   -2.079135579949   -0.393127873111
H      6.157071531749   -0.826900678307    0.035523576137
H      7.331548804143    1.318619682299    0.518167641477
H      6.000684267048    3.428129061599    0.725606966984
H      3.543911675584    3.399547130637    0.426125917039
