59

C      2.043828951712    3.260039898541   -2.343661198702
H      2.873669154029    2.550680127120   -2.389909860281
H      2.268585552855    4.328420234246   -2.315127328354
C      0.766783689787    2.823669168502   -2.613371617532
H     -0.048781737265    3.535421320256   -2.763700161434
C      0.487444864498    1.392349141803   -2.975713658024
O      1.336777365996    0.543824719986   -3.109848589752
O     -0.823230741973    1.200847098899   -3.136033525583
Pd     0.965387213080    3.005871912701   -0.391910447511
C     -0.049018030379    5.507300037446    0.458441858667
O      0.147505200994    4.816395984007   -0.643408056659
O     -0.457885332960    6.648948965697    0.473883635902
C      0.317756248769    4.772802423279    1.769548326736
H     -0.434967768451    5.075819987706    2.508212179869
N      0.246665926606    3.322901410086    1.518808117826
C     -0.431773921602    2.523535874115    2.296341666967
O     -0.696429326037    1.287048792689    2.019444208070
O     -0.012141893183    0.125422160519   -0.055586026876
H     -0.429514484176    0.905044927083    1.074036913751
C     -1.262154126531   -0.154480497704   -3.363025587423
H     -0.704496801477   -0.568085511999   -4.218203806741
H     -0.999165412761   -0.742617618047   -2.470098792925
C     -2.755212137367   -0.126938783975   -3.609341001686
H     -3.001416154771    0.481899544949   -4.493121063040
H     -3.122734959027   -1.150438190873   -3.782263569551
H     -3.289540829979    0.288948013541   -2.741628529937
C     -1.010886047709    2.967655586832    3.620725202798
H     -1.263082904485    2.073212159988    4.203079250972
H     -0.316738696590    3.598313165075    4.191411803476
H     -1.937259315176    3.541214654576    3.453981888691
C      1.718045706160    5.174097002366    2.282554792432
H      1.907518411067    4.597221041962    3.206818296629
H      2.465574040577    4.822123925922    1.549020465379
C      1.952825273683    6.670570706142    2.563510963856
H      1.840336321000    7.214076873660    1.610149878908
C      3.388240632618    6.880005526570    3.063797157471
H      4.129756114566    6.481497688216    2.351721290218
H      3.605223145752    7.950441067541    3.207791492674
H      3.551725348172    6.374477975556    4.031640792395
C      0.929211530065    7.258992256704    3.543225254588
H      1.187572312374    8.299914462371    3.795980409927
H     -0.078684651415    7.272149696832    3.103256574067
H      0.900713355353    6.688191819904    4.488884526163
N      1.966135634721    1.235639117227   -0.061556487576
C      1.255587932207    0.080100435169   -0.040536841643
C      1.985248934269   -1.182889182153    0.023161089344
C      3.406609772730   -1.176938728434    0.087843855703
C      4.076599840065    0.088595883124    0.099530941078
C      3.335018755607    1.232379562200    0.023343214295
C      1.281464222104   -2.406408244818    0.034851744285
C      1.969737442937   -3.606945348591    0.095026860872
C      3.380752043715   -3.608762306967    0.150445818980
C      4.087781027675   -2.418195556524    0.149625129159
H      0.191400425531   -2.373271209428   -0.001322678368
H      1.424137542278   -4.553661472858    0.102241237235
H      3.918772127381   -4.559346493893    0.197459253703
H      5.179939001700   -2.423000197619    0.196851420049
H      5.164290036285    0.142611323160    0.167841801963
H      3.811840772410    2.215707290448    0.028642038948
