41

H     -2.721404110440    5.391880416261    1.018007446098
H      2.078731314735    3.599062494987   -1.162476747927
Pd     0.972229713313    3.036783387732   -0.284538765225
C     -1.560435611537    2.631199041580    1.596715514199
O     -2.554778932976    2.065075175430    2.006416616917
O     -0.659207868887    2.128392652813    0.815287320163
C     -1.276564795618    4.136231522867    1.935990361362
H     -0.185914626960    4.275007869849    1.926247648993
N     -1.814190143497    4.972349209026    0.845698712224
C     -1.222028987338    5.236626634581   -0.327046622681
O     -0.125503356205    4.772502042797   -0.695227610224
O      0.159933102847    0.048541328064   -0.338304661714
H     -0.318007529057    0.825798228878    0.115378200929
C     -1.939335494242    6.189136230983   -1.256245142251
H     -2.857800692421    6.611551200394   -0.825808771288
H     -1.250978167226    7.005464364648   -1.520629081040
H     -2.184396757861    5.655416709617   -2.187196479420
C     -1.822687390558    4.624104108809    3.261697272427
C     -0.978835589039    5.306471811283    4.151259911047
C     -1.466024779492    5.799378133988    5.365028644818
C     -2.810526570681    5.620783466932    5.701570019598
C     -3.659651476749    4.941433610426    4.822215886244
C     -3.172047892560    4.442088035090    3.611743987558
H      0.073464792335    5.452161400491    3.890439874337
H     -0.793290042358    6.324973992385    6.047637951840
H     -3.195082960895    6.005404498340    6.649767524271
H     -4.709264862093    4.787152829228    5.085803126356
H     -3.822606448561    3.868559338967    2.950298287938
N      2.100184137675    1.308977232025   -0.061247096860
C      1.466225481825    0.116861131909   -0.234501451375
C      2.198982675517   -1.088186528157   -0.324816569393
C      3.569521081622   -1.059411102636   -0.165064611458
C      4.203150824492    0.163392258006    0.096826408229
C      3.450081748769    1.333054210780    0.143175407902
H      1.638441295324   -2.008048893943   -0.492370311409
H      4.151502182153   -1.983030106851   -0.218952450220
H      5.279645415825    0.213595780058    0.263496668146
C      4.117823738692    2.650067369026    0.422803371650
H      4.138276608982    3.279770218912   -0.480637631312
H      3.565950560133    3.214274068283    1.189616671726
H      5.150404816880    2.493403858597    0.765046024045
