28

N     -0.487411700754    0.733937272161    1.156763042053
C     -1.747573536016    1.220046319461    1.255884764721
O     -2.627586663251    0.906370933359    0.448954761682
H      0.210576692574    1.049243891279    1.821136276658
H     -2.306554775038   -0.659378376541   -0.036784627746
C     -0.562825649424   -1.466291309041   -0.040971910287
O     -1.886686446712   -1.561208216083   -0.087849328134
O      0.160975728540   -2.429221203379   -0.050536938001
C     -0.009645687145   -0.014384735779   -0.010868871146
H     -0.416387979243    0.491230906172   -0.906123916521
C     -2.034385249589    2.162835855836    2.402848997515
H     -2.845183571034    1.739611081868    3.014606449264
H     -1.161191141908    2.363385610846    3.039258137385
H     -2.404918229903    3.111937204850    1.986809570452
C      1.524754029796   -0.017412710563   -0.060042648632
H      1.899480147568   -0.636328047854    0.769715443113
H      1.815822858366   -0.550369011877   -0.977349721598
C      2.146596326875    1.362022627604   -0.020390079598
C      2.016532930911    2.245169023967   -1.106270021879
C      2.858559309145    1.798829779355    1.108063179232
C      2.573651962968    3.524551469436   -1.061897180651
H      1.476925585723    1.923902864784   -2.002266314503
C      3.418327808353    3.080862666378    1.157173287990
H      2.993441634784    1.118393661972    1.954884488534
C      3.275381248157    3.948492946843    0.072470492826
H      2.464394883385    4.194004499545   -1.919105737203
H      3.973351690233    3.397553485920    2.044087100709
H      3.713683654142    4.949053429692    0.105857909485
