72

C      3.756453445580    4.886825977085   -0.594926058350
H     -2.796239406348    6.032943660054    0.235274554381
C      2.810189609175    5.209305703342    0.541602443250
H      3.331072629053    5.840969246276    1.285003342736
H      1.964534960482    5.815942440795    0.182684953068
C      2.267792612468    3.979052891982    1.266705016310
H      3.059751599376    3.280090025707    1.570004271063
C      1.405693181658    4.322575209110    2.452717997875
O      0.910422444258    5.410600702841    2.659048859822
O      1.232415858912    3.264891217187    3.271061340353
Pd     0.949044217543    2.939280510398    0.094748183274
C     -1.465920897842    3.553469546179   -0.339108934282
O     -0.567895181942    4.377796434244    0.010043610697
O     -1.162844407468    2.376404320578   -0.696090724941
C     -2.934488523447    3.996144352676   -0.256067117273
H     -3.450230338976    3.151064321306    0.229417907420
N     -3.053199182157    5.135641886727    0.633887144112
C     -2.791567863738    4.968450903722    1.976115101874
O     -2.751418487047    3.860389915049    2.489141390534
O      0.043566879171    0.028387365032    0.188675888961
H     -0.379365036151    0.894778310352   -0.027164466546
C      5.132147092329    4.728677170658   -0.364569674438
C      6.035910930286    4.401329832760   -1.385978757846
C      5.549025651149    4.221836176327   -2.701939006989
C      4.176000666295    4.383690058424   -2.934113113723
C      3.290391043066    4.711176373621   -1.904533958349
H      5.518482125062    4.876378983230    0.649558258966
H      3.790909556629    4.255271732123   -3.950085357155
H      2.225640849848    4.834947385121   -2.120621271050
C      7.507953059743    4.258191587345   -1.083666227186
H      7.886632640118    3.256888097548   -1.351993826978
H      8.112849248718    4.981780246906   -1.656831951304
H      7.716423682375    4.420969594771   -0.016159458062
C      6.485196417198    3.877446646174   -3.834296690009
H      7.257395853340    4.653148313981   -3.976283972064
H      7.024270609268    2.932413272272   -3.648518971723
H      5.941262289937    3.770551151723   -4.784125223259
C      0.315989828648    3.427168233910    4.371225115913
H      0.591422799910    4.334235166844    4.932891191998
H     -0.698024930535    3.575468658979    3.965140751765
C      0.396641359445    2.183493475102    5.232402796364
H      1.415434978546    2.035469779707    5.624217684194
H     -0.292569551912    2.275390842775    6.086482453546
H      0.112116886595    1.287475276428    4.659423431372
C     -2.520169901665    6.237227344658    2.754249141429
H     -2.951071412385    6.141135209283    3.760117055818
H     -1.425188248751    6.327970069990    2.856327867398
H     -2.913950665602    7.140453564165    2.265075855411
C     -3.579654704911    4.254779244331   -1.618858969657
C     -3.194748241968    3.528047437806   -2.757875569499
C     -3.820278835863    3.750564910088   -3.987283313444
C     -4.841891893475    4.697511744681   -4.102239766123
C     -5.237118470495    5.418060253436   -2.972827885680
C     -4.612649754331    5.197555390743   -1.741642759987
H     -2.406593800300    2.777822091762   -2.676957165768
H     -3.504655132154    3.176242225696   -4.862254068619
H     -5.328525629261    4.870467615304   -5.065514500633
H     -6.039580400191    6.156927014539   -3.045668864687
H     -4.938035869171    5.756425722277   -0.862345396125
N      2.056841225296    1.197337701192    0.066563371460
C      1.366609186591    0.037690445923    0.133843798979
C      2.029607137534   -1.206177651130    0.155420468339
C      3.414387957957   -1.267394417196    0.072469932952
C      4.112210111777   -0.044826769028   -0.042279540755
C      3.406674391154    1.142562756066   -0.040419360734
H      1.413267124653   -2.103519669394    0.227153210384
H      5.199851020496   -0.021525361884   -0.131760947210
H      3.918126195721    2.101748293390   -0.131320883698
C      4.151936820543   -2.578865295723    0.093165324474
H      4.831377974036   -2.628852153210    0.960189123721
H      3.463758237419   -3.433917180429    0.147083956348
H      4.774973852146   -2.692068822482   -0.809134859645
