68

C      2.309519146023    5.381953103722    2.635820990206
H     -0.088656390522    4.691454467632   -3.649778795008
C      1.108346568214    4.559824021748    2.236899386533
H      1.556734997025    3.447518883184    1.988377189333
H      0.474865182607    4.276887926844    3.090123097677
C      0.287890115138    4.979401085601    1.079485050055
H      0.621326591021    5.837902119683    0.486893044528
C     -1.197513882407    4.858896052066    1.217321896158
O     -1.752696986667    4.279474398513    2.127201407147
O     -1.830593934598    5.459254457627    0.200012982890
Pd     1.052860221368    3.252020805178    0.317093219019
C     -0.720595457321    2.740549074365   -1.933007903225
O     -1.132323473561    1.729457574166   -1.334303769971
O      0.281522270913    3.455897724183   -1.595822146839
C     -1.471295807786    3.170359286746   -3.203209614064
H     -2.531352136849    3.239465756499   -2.917897399784
N     -1.084020819102    4.501212729516   -3.629913358208
C     -1.923991887297    5.573927990271   -3.497209317357
O     -3.109439522541    5.461713977457   -3.219189641320
O      0.143996673085    0.138417708003    0.117596686375
H     -0.349491908975    0.898316482795   -0.395428464120
C      2.448891032849    5.799612030482    3.966067507478
C      3.527070784199    6.588637330267    4.390537989351
C      4.510696195896    6.970926833165    3.449169386441
C      4.371020230615    6.544043134758    2.120397913458
C      3.291671653053    5.760132003774    1.712078467307
H      1.690196876988    5.506877437269    4.698013882613
H      5.130501170990    6.831294568414    1.387753671526
H      3.215747031438    5.439378964422    0.668761986005
C      3.631836803033    7.019132738592    5.832560521600
H      4.564576444760    6.657063993660    6.297461920887
H      3.641307537513    8.118223953430    5.928018658181
H      2.790039495109    6.638106181861    6.428291769755
C      5.689139087641    7.816192773351    3.862922939577
H      5.367140023068    8.785809377092    4.279481063782
H      6.288327827204    7.323054308201    4.647258315365
H      6.354367485843    8.021183701682    3.011841135202
C     -3.277187778854    5.386189817479    0.164974477642
H     -3.527455428230    5.482617415263   -0.899876400820
H     -3.583913969519    4.394288402394    0.527417348552
C     -3.907728496744    6.490151649758    0.996394781651
H     -3.565566643159    7.481651089333    0.660151406300
H     -5.003536417163    6.453850459019    0.886698707666
H     -3.667175519740    6.372492299094    2.063654546050
C     -1.276330167504    6.932832312914   -3.702278598452
H     -0.340548299007    6.887392448421   -4.278948018684
H     -1.991818999882    7.595276334713   -4.207966241404
H     -1.060213778491    7.366079570523   -2.711881517734
C     -1.348721749699    2.093367788851   -4.314613515297
H     -1.662409758736    1.152131218653   -3.833169448599
C     -2.308002676379    2.390264679294   -5.471498841256
H     -2.266720074464    1.590407212673   -6.228294269768
H     -3.348495100029    2.474589626357   -5.120962916909
H     -2.046851280460    3.338597669358   -5.968667472283
C      0.092934384752    1.920442484562   -4.808847427875
H      0.467622039570    2.843823520514   -5.282498117689
H      0.782347923428    1.654169041621   -3.991405767133
H      0.151617921623    1.120810864452   -5.564269805167
N      2.097281038272    1.362888295485   -0.050517448093
C      1.442654819972    0.186248200952    0.044641198777
C      2.198821525020   -1.024943680759    0.095965191850
C      3.578879181142   -0.992652106062    0.002211769673
C      4.214540953824    0.250769463783   -0.144404482402
C      3.441678213570    1.400377259404   -0.163248077362
H      4.155675590797   -1.917758912514    0.029930103863
H      3.906678606816    2.383409770486   -0.258196046911
Cl     1.358011337225   -2.531410398742    0.257960187605
Cl     5.947686050419    0.352170801801   -0.287740786679
