77

C     -0.132611158155    3.953920567830    3.349630384003
H     -1.613626238970    5.506491889431   -3.370064659999
C      0.976990176082    4.328214015012    2.399956060291
H      1.859722911881    4.744320490095    2.908510589316
H      1.521423242890    3.270009049160    2.067693685144
C      0.654012522864    5.046789868931    1.151530870865
H     -0.382517825254    5.327771608944    0.945246551708
C      1.703522070402    5.968731284192    0.640035913351
O      2.857438525238    5.982372987502    1.021291609843
O      1.247673600365    6.792932700819   -0.325997581988
Pd     1.103903210448    3.205478856667    0.365622198963
C     -0.940696326262    2.907920715716   -1.639789881168
O     -1.310601509479    1.862110881230   -1.070360464292
O      0.166799091296    3.513768641067   -1.478244522864
C     -1.909834241965    3.513701997995   -2.676140299841
H     -2.898382360079    3.111290128357   -2.410405363635
N     -1.963956437281    4.963995457497   -2.590096724108
C     -2.241723682076    5.600669780625   -1.418687641658
O     -2.514417931625    4.986510461470   -0.393977412176
O     -0.041529010823    0.083044458215    0.132818365886
H     -0.499600152144    0.917207993073   -0.288054608355
C     -1.430672096302    3.673216402373    2.893830834829
C     -2.466067096853    3.341494924970    3.774907120249
C     -2.198495922285    3.275235501786    5.164305743916
C     -0.900500592863    3.551729567781    5.612726961832
C      0.123365764008    3.887468992394    4.723877141442
H     -1.656380656730    3.716075913325    1.824938429463
H     -0.685601014670    3.505837854158    6.684262918899
H      1.125467986826    4.102896628498    5.105754285947
C     -3.846912498066    3.060650078069    3.235495038992
H     -4.162488471894    2.024901470406    3.449786234485
H     -4.602771525473    3.720128019017    3.694774499142
H     -3.884426610200    3.209988939551    2.147308420570
C     -3.287613956173    2.913827785508    6.142779597547
H     -4.125312945763    3.630993337100    6.101424159315
H     -3.716984919737    1.921320008118    5.923756727868
H     -2.910395914705    2.896920789559    7.175687979710
C      2.228161419655    7.649896506103   -0.935972773913
H      2.689840801920    8.277060520208   -0.156209864094
H      3.030825843891    7.024123301385   -1.358715039780
C      1.547009668439    8.483690355045   -2.000900605790
H      0.763547145006    9.124563604531   -1.567619123988
H      2.286537205451    9.134348747451   -2.493301472301
H      1.086869492164    7.843921940818   -2.769664194612
C     -2.161470230708    7.115732063457   -1.448543896853
H     -2.959380286213    7.523321900994   -0.812965691007
H     -1.193783283675    7.413671860556   -1.015700119691
H     -2.244414752275    7.538845424028   -2.460974029966
C     -1.536671996413    3.102187087156   -4.109712629892
H     -2.278425986334    3.557348314740   -4.792731815032
H     -0.559069914837    3.557575620473   -4.349840009619
C     -1.462691321752    1.590093180413   -4.392853310408
H     -0.679102004733    1.162159229648   -3.742374696990
C     -1.036132535195    1.357159825755   -5.848333157062
H     -0.079321565444    1.855108138445   -6.076172130267
H     -0.913393326353    0.282753082591   -6.059021879730
H     -1.791932330742    1.749035915013   -6.551253513475
C     -2.774202700037    0.860408519437   -4.073979102132
H     -2.707797297217   -0.201250775274   -4.362193500502
H     -3.002196739190    0.896107545163   -2.998884483962
H     -3.621416682483    1.301731290245   -4.628237730504
N      1.945048756613    1.231989457120   -0.002989461001
C      1.262455445545    0.088875041079    0.074076074274
C      1.942526740855   -1.188772570025    0.116342030952
C      3.364975863356   -1.209864638815    0.042033223663
C      4.045048862373    0.039704332609   -0.080601525539
C      3.314007708934    1.195309617850   -0.097914562251
C      1.219892433029   -2.401401035486    0.222249974977
C      1.893767982605   -3.608483359788    0.263681113696
C      3.306214520539   -3.636191504977    0.195075430787
C      4.029376994179   -2.462798510013    0.084612205040
H      0.131232300887   -2.356591989366    0.270653786087
H      1.336309085207   -4.544480197378    0.347361433334
H      3.829216201909   -4.595647313404    0.227733416675
H      5.120754683523   -2.486246788870    0.028769088836
H      5.133333741013    0.075473623835   -0.155115382216
H      3.802143170998    2.169232493455   -0.182376036448
