62

C      0.204317443380    4.969472970639   -2.653500134899
H     -2.893532979009   -0.031170161903    0.104904310100
C     -0.089210294046    4.874315955967   -1.218712937216
H     -1.095577042071    4.483651748589   -1.043455146745
H      2.355935422458    3.742935369050   -0.696837266709
C      0.497604716018    5.323583198820   -0.025884995338
H     -0.163803982575    5.260548608742    0.843871402639
C      1.674071871935    6.217398649591    0.187082382859
O      2.436757414088    6.673778922707   -0.636249162258
O      1.780793449908    6.496987066783    1.501448619567
Pd     1.041913457669    3.201413760284   -0.166242348333
C     -1.947115512127    2.871191927897    0.813757440626
O     -2.061079212214    4.009495805485    1.235896665636
O     -0.826393551235    2.300056992348    0.477459076970
C     -3.212015006880    2.000644589611    0.656941776193
H     -4.013616782860    2.678978008822    0.332735973781
N     -3.093811477909    0.890765904398   -0.262843719332
C     -2.946905565907    1.100475539434   -1.604792063764
O     -3.019998904024    2.219547397651   -2.095310580766
O      0.017470776044    0.068894049009   -0.182015417772
H     -0.434082242507    0.967237865523    0.065961624143
C     -0.739098376016    4.350184551858   -3.505766237643
C     -0.612490562035    4.363293107770   -4.896580487488
C      0.494006950287    5.028878999482   -5.475498918016
C      1.430889639937    5.644432814082   -4.628635454818
C      1.307239859239    5.619966289112   -3.241889529597
H     -1.590727826856    3.827081206549   -3.061053147588
H      2.286565129642    6.159827412782   -5.074624825423
H      2.047448822849    6.106272372801   -2.608761123861
C     -1.648763598790    3.676152429036   -5.752276492439
H     -2.171259126839    4.390307489833   -6.412225219586
H     -1.194202414202    2.916625014086   -6.411221051362
H     -2.402482051006    3.176473520543   -5.127234348606
C      0.667046651595    5.077339994004   -6.971583780357
H      0.747022697992    4.064586233235   -7.402945262199
H     -0.197208551772    5.555893238496   -7.463363203413
H      1.569900350617    5.637275282546   -7.255112589840
C      2.853066346831    7.365762510472    1.894935497061
H      3.810951104667    6.915994111789    1.584571606353
H      2.758558524690    8.319876140459    1.350895644276
C      2.774345218939    7.557576216410    3.395421185123
H      2.877163117506    6.596524058497    3.922474439378
H      3.582589800662    8.225535171865    3.731994569522
H      1.811436310468    8.005887525873    3.684506276563
C     -2.659600380214   -0.142019983551   -2.428353305448
H     -2.929230801895    0.049812446984   -3.474366719642
H     -1.581178170994   -0.361641975395   -2.370341877121
H     -3.206233508229   -1.023626007905   -2.059469157668
H     -3.487739469899    1.614287799774    1.650533282117
N      1.992126888946    1.280044145060    0.008531500139
C      1.325949533490    0.103471932306   -0.081694232241
C      2.023482238865   -1.128911150786   -0.082114856748
C      3.403356524425   -1.167864600791    0.037737985277
C      4.075721937911    0.069515325412    0.159771964943
C      3.344538489648    1.239141507466    0.135755497975
H      1.426077330712   -2.038194192027   -0.166263426055
H      5.161440137902    0.115837709749    0.263616687784
H      3.841581177405    2.205606318452    0.214531147234
C      4.165767849682   -2.465149057016    0.045527763610
H      4.747760424813   -2.571064502853    0.975868434892
H      3.497101335794   -3.332791438415   -0.043456990745
H      4.886659449222   -2.498209831715   -0.788114275646
