71

C      1.620644493791    5.839122442756   -1.130072857977
H     -2.738766752433   -0.147574989913   -0.567765546916
C      1.276948227684    5.409413382120    0.232861198640
H      2.218951617274    3.447763470852    1.099246638963
H      2.020935123592    5.638709928394    1.001580511452
C      0.026350858320    5.011762186327    0.697201306858
H     -0.847504729618    4.994882695436    0.040791261916
C     -0.258307399443    4.976055408193    2.167053074613
O      0.542383248640    5.197385794711    3.049351411998
O     -1.542463060977    4.655099060646    2.357102036506
Pd     1.011509688032    3.112901478379    0.247550710221
C     -1.892084521726    2.838270989069   -1.149367174233
O     -2.033442640679    4.013240529435   -1.454974335554
O     -0.782478699815    2.318723471216   -0.708086250923
C     -3.047278383692    1.809728860636   -1.347306293810
H     -2.789353319324    1.274022832395   -2.279057913289
N     -3.022548715320    0.787606022579   -0.305687070099
C     -3.131795567511    1.070140397686    1.027289231619
O     -3.372854364713    2.194246904187    1.439539004615
O     -0.043991106700    0.030175500073   -0.122160767888
H     -0.452759055630    0.960829517822   -0.348589471827
C      2.889405358734    6.408773928548   -1.352279606651
C      3.288933993706    6.880375534682   -2.606276157189
C      2.386382622182    6.777331200013   -3.691718713831
C      1.123016866067    6.205099414654   -3.469244656194
C      0.730602480634    5.739433001340   -2.217022822708
H      3.584783013956    6.489565490445   -0.511159948693
H      0.424432914502    6.123853040522   -4.306743940900
H     -0.256477208216    5.288621963355   -2.085795728890
C      4.656453855764    7.490035948463   -2.794017390265
H      5.247461880157    6.941110548590   -3.546917661861
H      4.591856014517    8.533201726171   -3.147579888143
H      5.227821476812    7.490366742530   -1.854496642492
C      2.770287186472    7.272959848389   -5.062332710802
H      3.009791642577    8.350175399817   -5.051893923196
H      3.668886725221    6.758273410359   -5.443771913641
H      1.959059847248    7.115906249006   -5.787483188693
C     -2.026384048668    4.452168613300    3.695049959600
H     -2.799307957515    3.679834318095    3.580485678121
H     -1.203600618837    4.065224283731    4.315321179703
C     -2.589354715801    5.736546692860    4.280357662703
H     -3.379246987928    6.148398009321    3.633214637852
H     -3.027226319158    5.535736460045    5.271630798524
H     -1.800219619742    6.494135648417    4.402227398012
C     -2.899126357100   -0.113725877695    1.953321771671
H     -3.305899877571    0.122249559362    2.944414824465
H     -3.363530221905   -1.037047236503    1.573133678323
H     -1.815192708310   -0.292010764627    2.041331969361
C     -4.431890173962    2.480404375755   -1.565297402403
H     -4.524391310286    3.276330212108   -0.810537125694
C     -4.513148336515    3.117236982133   -2.960404016823
H     -5.474596769149    3.640169892794   -3.089579122070
H     -3.705715504981    3.844126284575   -3.112886855520
H     -4.450106276370    2.346239769070   -3.749930904925
C     -5.586551991265    1.490104643543   -1.370096618340
H     -5.499878266693    0.626113482342   -2.052868385818
H     -5.637202726451    1.104964971547   -0.341912185766
H     -6.547045763384    1.984374191469   -1.587553647744
N      1.955416243405    1.199277158612   -0.050597131556
C      1.270306998844    0.035841154136   -0.121116869402
C      1.935244956189   -1.224946425716   -0.187514342118
C      3.320829415544   -1.223216338248   -0.213656800756
C      4.030222861255   -0.011213728314   -0.176205045019
C      3.312428823244    1.165148806964   -0.091159480845
H      3.858591028177   -2.173787697905   -0.272105726715
H      5.120293079279    0.014821034091   -0.204230263501
H      3.816114385779    2.130301226270   -0.047491258779
C      1.108301653232   -2.478571590834   -0.242049186365
H      0.471046121306   -2.574077783322    0.652410094801
H      0.426689127628   -2.464153916196   -1.108037963486
H      1.746728799550   -3.370884670168   -0.311956148818
