77

C      3.986485028333    4.854623572513   -0.200685829784
H     -2.944425799936    5.006308261556    1.226366559051
C      3.072390016182    5.056727816814    0.989384721280
H      3.655746202262    5.494478225988    1.820616191964
H      2.289137148312    5.789130170995    0.748950568110
C      2.412741083691    3.768003411029    1.493222542712
H      3.147449455430    2.969739500254    1.657472143632
C      1.627038589459    3.963395842900    2.751613352322
O      1.082180428845    4.989845372748    3.109584428574
O      1.569247047865    2.828183953646    3.492599791155
Pd     1.003046605763    3.014630832975    0.175759534756
C     -1.784157614066    2.860810298329   -0.897241990181
O     -0.643526394326    2.238861349931   -1.049267458394
O     -2.509953311651    3.244217372341   -1.790161220962
C     -2.215997425348    3.111933704320    0.588622436915
H     -1.535945992155    2.560251270122    1.258106758760
N     -2.103941806418    4.541619950282    0.901621470535
C     -1.020673835247    5.304397504222    0.718113422742
O      0.066263931991    4.878292757145    0.274751116985
O      0.018808184340    0.061847675520    0.040644601498
H     -0.346970127337    0.936531557057   -0.357354815095
C      5.354768642520    4.596549227583   -0.023182518049
C      6.227443503014    4.373601738859   -1.098320597091
C      5.715303410396    4.407518829551   -2.416246436324
C      4.349738912692    4.669310820038   -2.595592172857
C      3.495237539822    4.891046072986   -1.513008230255
H      5.760365430677    4.575061045186    0.993959587008
H      3.944394230582    4.703379930252   -3.611130230183
H      2.436077335094    5.095442227231   -1.690547706988
C      7.693074657270    4.112025832248   -0.848543035643
H      8.012129879068    3.139403617756   -1.261158295125
H      8.330209748664    4.875502694314   -1.327397884148
H      7.923396021924    4.111975033115    0.226931134061
C      6.616657896055    4.177430707777   -3.604464789208
H      7.429817797770    4.922331869780   -3.651501673881
H      7.103194729273    3.187534742097   -3.564579401437
H      6.055569909576    4.235455477495   -4.548501314179
C      0.809060949017    2.884056313310    4.705860673155
H      1.187486681900    3.708751384198    5.331920252130
H     -0.240512905297    3.125042005678    4.465047919955
C      0.931954794721    1.543866338259    5.402238519093
H      1.984309557790    1.316445081209    5.632451739843
H      0.366494921713    1.555918676374    6.347313212747
H      0.535601230556    0.732077371772    4.772911391026
C     -1.111347928606    6.760006803576    1.094041154466
H     -0.451637925439    6.905278276088    1.964151059265
H     -0.718609206541    7.368642302445    0.267171302289
H     -2.131981881489    7.085578981313    1.338892119501
C     -3.671530786006    2.690133195077    0.813551503531
H     -3.981660581311    3.009130834300    1.827391039413
H     -4.276817688697    3.252245508309    0.082678729699
C     -3.968645464717    1.188608139739    0.654691667678
H     -3.630794011379    0.887949493767   -0.353484166229
C     -5.483342658655    0.951292254177    0.719695902803
H     -6.016632927626    1.537240287798   -0.045885570737
H     -5.725952193137   -0.111300465250    0.559482908815
H     -5.888333928683    1.239128839355    1.705752171743
C     -3.233421038313    0.321350641694    1.686222257609
H     -3.514987472323   -0.738000284817    1.573310532572
H     -2.139535264288    0.373629546584    1.579597485493
H     -3.494447476921    0.624238566514    2.715621761086
N      2.015430946735    1.208394087778   -0.012099037288
C      1.330889716592    0.059786858605    0.024306870204
C      2.002180028069   -1.216579760564    0.047634009107
C      3.423946221528   -1.241533341458   -0.035323282123
C      4.102561910611    0.006550340353   -0.157281527474
C      3.383990825927    1.169448454504   -0.142162829262
C      1.273959992876   -2.428526700964    0.137335767387
C      1.944397808623   -3.637022368490    0.160965163604
C      3.357226537722   -3.668576850509    0.086586862145
C      4.084272191325   -2.497213446627   -0.012797825273
H      0.185454167992   -2.383973206203    0.185866339151
H      1.384354008132   -4.572361977292    0.232472383314
H      3.876321509427   -4.630451448604    0.103612485714
H      5.175012323249   -2.523548290718   -0.076460980545
H      5.188011926861    0.041677543032   -0.263814547748
H      3.876086326015    2.136239392837   -0.239334126616
