74

C     -1.503921745629    3.825959489368    2.001445423449
H      0.062658788687    4.610553121648   -3.462444766734
C     -0.196612332368    4.410659765932    1.653312921764
H      0.450617952695    4.519642413932    2.529087214955
H      1.646386414172    2.951575424965    1.598604308562
C      0.284227622265    5.082185429769    0.520382211429
H      1.244642008503    5.593758666334    0.638876268424
C     -0.450626655916    5.655084334243   -0.653577347743
O      0.121527710929    6.276137381564   -1.522367356091
O     -1.774770568853    5.487432584097   -0.605090031543
Pd     0.976733169638    3.030326588569    0.230967293964
C     -0.601763091773    2.458549102135   -2.364739779704
O      0.281188016808    3.176762949907   -1.808078963852
O     -1.208428669145    1.502678919371   -1.820742093257
C     -0.911017082041    2.771531198273   -3.830931420930
H     -1.988744127370    2.626423096202   -3.994863545089
N     -0.588870118064    4.163218039823   -4.101755161520
C     -1.088587914148    4.838534179987   -5.177029369328
O     -1.865050892655    4.328932002167   -5.972228025759
O     -0.180956272796    0.046662656666   -0.102051205985
H     -0.600321042069    0.780287787259   -0.738881291697
C     -2.350575369939    3.157520621192    1.096508868798
C     -3.563647105733    2.592679848629    1.495746289220
C     -3.973530943999    2.713318043704    2.847368533618
C     -3.127656564245    3.370503463941    3.752037270124
C     -1.903461853196    3.899510585578    3.348471214449
H     -2.045615222888    3.044130273345    0.058282934620
H     -3.429306244232    3.455275608280    4.799616334603
H     -1.255022497258    4.384613697359    4.083186969421
C     -4.414588121958    1.857763147980    0.489263933519
H     -4.643527677747    0.832757125311    0.825237287978
H     -5.384788941595    2.360716972173    0.333149100174
H     -3.904313493217    1.784048906713   -0.481345537463
C     -5.282700843107    2.128826193779    3.309867206587
H     -6.133522847885    2.546032995190    2.745024726881
H     -5.313553937576    1.036616977415    3.155998716510
H     -5.456563050138    2.324236541873    4.377723756032
C     -2.559067770372    6.098399148019   -1.651843955102
H     -2.281283632908    7.161933722410   -1.721795721386
H     -2.290463882094    5.622516525653   -2.606588045245
C     -4.023403283847    5.913249513006   -1.315457718625
H     -4.272393345962    6.385983063628   -0.352994975104
H     -4.643107067754    6.375040364477   -2.099670629152
H     -4.286511429836    4.846399923905   -1.255224833726
C     -0.595365965928    6.271418126650   -5.318905019178
H      0.201170635612    6.301877343110   -6.080353606420
H     -1.423726914401    6.892380873163   -5.687657360335
H     -0.202007364789    6.685669110925   -4.378970381480
C     -0.138272087589    1.817636406453   -4.779561207423
H     -0.373436789137    2.159345183026   -5.801196997924
H      0.941131623122    1.990936916184   -4.623587744943
C     -0.438859658349    0.310868783607   -4.676403288509
H     -0.168017344401   -0.029945244405   -3.661528318794
C      0.437599367491   -0.455333396983   -5.676992397036
H      1.509512204082   -0.252918497762   -5.516401708809
H      0.284312521746   -1.543362369656   -5.590202802643
H      0.197636982253   -0.166832846379   -6.714894424032
C     -1.924474126527   -0.011014414895   -4.886298604207
H     -2.090091094848   -1.100827388871   -4.898371087697
H     -2.544353765400    0.404925827492   -4.078537176042
H     -2.288410852129    0.394631185416   -5.845963808735
N      1.865376653905    1.129224132226   -0.070779739025
C      1.117952006400   -0.004030554213   -0.066711122402
C      1.758140701069   -1.271178243271    0.006045705871
C      3.132773531330   -1.350337732708    0.017802891282
C      3.890794491227   -0.161946721484   -0.043653802355
C      3.213724562858    1.044274954461   -0.077474206872
H      1.121460099149   -2.155850776387    0.031285998794
H      3.632143900198   -2.321023971257    0.064843411256
H      3.759739830211    1.987969569922   -0.093615325438
C      5.393271902125   -0.217437644080   -0.068088356917
F      5.870953192583   -0.952595523443    0.953385129324
F      5.847768198122   -0.788168229899   -1.199066994463
F      5.944700760130    1.003965235384    0.016465262287
