74

C      1.678304592423    4.026206218916    2.193144719965
H      0.460481237521    4.363472781202   -3.914148417126
C      0.991476461843    5.303480233929    1.707804704167
H      0.332204196190    5.700778982586    2.496343993411
H      1.752241818082    6.062940329355    1.478069351977
C      0.210747442249    4.919359054613    0.452886402026
H      0.457811030731    5.477658797845   -0.457496063978
C     -1.262723183809    4.752307339369    0.637270075482
O     -1.788427241124    4.473903880822    1.699802843428
O     -1.942921312781    4.929374382647   -0.507644203394
Pd     0.986967624868    3.042788601096    0.177087101213
C     -0.518318775844    2.539243137473   -2.244977449254
O      0.528710064358    3.151842253655   -1.848824552284
O     -1.175792511230    1.721314316062   -1.570366165738
C     -0.946115261936    2.812702651551   -3.692762091035
H     -2.043563238608    2.834644023734   -3.717177134112
N     -0.501902502089    4.124909255929   -4.125341248983
C     -1.371868253547    5.121095644473   -4.464312533184
O     -2.577957290015    4.945738951258   -4.565920654248
O     -0.131941799001   -0.044572458438   -0.100824310402
H     -0.519628779838    0.783433734253   -0.581806437998
C      0.887721583263    2.922680564265    2.608451581960
C      1.465549058513    1.774849243523    3.208402218009
C      2.858300293643    1.716140251628    3.374330698721
C      3.645095875791    2.805047907893    2.933043404123
C      3.082680270624    3.931025334671    2.351000926839
H     -0.200444476127    3.034589021143    2.613850782361
H      4.729805481305    2.754805866894    3.063752687586
H      3.716791158780    4.766738998707    2.043439291770
C      0.575719148681    0.652230629689    3.676854390992
H      0.833119111290   -0.300244094337    3.183971694321
H      0.680681759449    0.481791647687    4.761811920765
H     -0.481420178231    0.863389412565    3.465294008073
C      3.514115153528    0.520769797947    4.017625897587
H      3.158363700386    0.374501055741    5.051640308567
H      3.282856972806   -0.408229611561    3.470884850778
H      4.607302931353    0.626077033644    4.043705517533
C     -3.365001984378    4.668316959868   -0.503986181943
H     -3.498621652982    3.614893211468   -0.801399121971
H     -3.737844120324    4.783081835449    0.523313347931
C     -4.046590589206    5.613372180857   -1.472861227233
H     -3.672855762582    5.485632655649   -2.499926425633
H     -5.129893540808    5.411225372547   -1.476587451817
H     -3.898530376266    6.661217457067   -1.165903917575
C     -0.739733166239    6.484864921372   -4.690793069334
H     -1.255628011017    6.979257018552   -5.525178225706
H     -0.898850440106    7.099908514581   -3.790023056177
H      0.339687140799    6.437690787219   -4.898458438371
C     -0.429376426519    1.712234645439   -4.651020786818
H     -0.754274989029    2.006228296161   -5.664588845727
H      0.675034032145    1.753704571251   -4.657316127258
C     -0.879316190874    0.264504250502   -4.378794123437
H     -0.508124458901   -0.030656368290   -3.381922555398
C     -0.244134139695   -0.675605021295   -5.412467087715
H      0.855653434001   -0.595649169190   -5.413788618132
H     -0.503889959011   -1.726657148944   -5.206964244235
H     -0.595268656201   -0.440139294529   -6.432148760757
C     -2.406076771081    0.116452883355   -4.359091424023
H     -2.693953735866   -0.940834845444   -4.240360616423
H     -2.852082229461    0.673606336500   -3.522631399658
H     -2.855005012427    0.480482841752   -5.299733066546
N      1.909682533155    1.043461452819   -0.038991218275
C      1.171747577792   -0.089486574419   -0.022349021877
C      1.799594273066   -1.356559037031    0.105505365387
C      3.175131052915   -1.431960964098    0.179301837966
C      3.932316270443   -0.245284970669    0.119772998540
C      3.250664338824    0.958469816305    0.009062511867
H      1.164598279746   -2.242822224236    0.120793441006
H      3.674595477660   -2.399768053749    0.264103965234
H      3.795506436470    1.903374206126   -0.032754624485
C      5.427279378249   -0.270317620790    0.259816254926
F      5.804074266676   -0.328678486864    1.557886649779
F      5.965211689077   -1.343623717132   -0.343682528103
F      6.000870493576    0.827056556912   -0.261078225791
