77

C      2.314323256641    5.390792512857    2.586263648303
H     -0.151836779124    4.799037586471   -3.390623975192
C      1.103086687210    4.564284327330    2.230906581201
H      1.534085461972    3.438107292846    2.017443316321
H      0.477197751737    4.316593794093    3.100520357373
C      0.272443909071    4.952465694378    1.068958479462
H      0.594060466184    5.801821740386    0.457134568893
C     -1.209221952738    4.813504910483    1.225939974165
O     -1.743824981173    4.250102033079    2.158155427336
O     -1.870344588587    5.373644091769    0.201638738327
Pd     1.038187409040    3.205528403367    0.347697650138
C     -0.759185042980    2.754068520902   -1.870289287429
O     -1.268842496633    1.858875722841   -1.170812013839
O      0.324333886535    3.374299662439   -1.595307444298
C     -1.459413380043    3.171049342635   -3.174642567835
H     -2.538799282353    3.148244418986   -2.969555033906
N     -1.130889027601    4.552041960266   -3.485447961740
C     -2.049360894119    5.559695265360   -3.372829416733
O     -3.246468022112    5.358531679791   -3.223629968640
O      0.037322606124    0.099483278766    0.074298703589
H     -0.438455955708    0.927731846014   -0.321237117679
C      2.440830792128    5.907863003595    3.882623975552
C      3.527140118043    6.708062630328    4.262724477093
C      4.532711676164    6.997810060397    3.311444084991
C      4.405923846932    6.471315774195    2.017758932902
C      3.317810026801    5.678046099651    1.652989362850
H      1.665696768449    5.685933141199    4.622271248856
H      5.183408403531    6.683812658123    1.278682404758
H      3.253222801240    5.276177794655    0.637328645578
C      3.618214492493    7.247027412603    5.668873872605
H      4.536482114651    6.905154739913    6.176037001252
H      3.647540274320    8.349885735234    5.679652098617
H      2.760072379793    6.928629229879    6.278004852093
C      5.721842713291    7.849660404525    3.678800566918
H      5.413936622552    8.854990124622    4.013485514611
H      6.298590865840    7.407207565081    4.508908591060
H      6.404230003056    7.974359298556    2.825779862176
C     -3.315683561719    5.260111958271    0.194460862349
H     -3.590122717709    5.344003746780   -0.865397777696
H     -3.585924924289    4.260851026484    0.564986705455
C     -3.964173383505    6.349157741161    1.031720372639
H     -3.658835352839    7.349036029001    0.684789670940
H     -5.060100917047    6.278903609175    0.941177694214
H     -3.701479755908    6.244221561067    2.094883490638
C     -1.472032394032    6.964558617664   -3.419012488992
H     -0.512501135542    7.021137625264   -3.954486322038
H     -2.202087971582    7.635028859023   -3.891543254891
H     -1.316160049258    7.307482766393   -2.382740627125
C     -1.183588235102    2.189143957819   -4.370072319519
C     -1.976579947195    2.691516339696   -5.591383349700
H     -1.837888093923    2.006215060742   -6.443268400226
H     -3.054243121737    2.748381246360   -5.370946420781
H     -1.645371137599    3.693160247304   -5.902876815054
C      0.316930603995    2.149477343465   -4.713239182425
H      0.698390788458    3.148067203392   -4.981019887237
H      0.921245211081    1.770463146032   -3.874087845723
H      0.493473731611    1.489391550930   -5.577909764359
C     -1.670078347719    0.772298307639   -4.012838836144
H     -1.121165915592    0.344806114735   -3.162479056138
H     -2.738588712108    0.773987404282   -3.744833810254
H     -1.539439893602    0.103273300564   -4.879070562307
N      2.025898873999    1.288555751444    0.031649103262
C      1.341308180879    0.117295406638    0.061554629821
C      2.035950290706   -1.120155830987    0.103281272697
C      3.413993772512   -1.134911218850    0.069879920379
C      4.116900751907    0.087637758949   -0.006027790651
C      3.369771064956    1.261319191200   -0.017595623672
H      1.441590729631   -2.033435593368    0.144469819446
H      3.965616899399   -2.076000354849    0.091223565707
H      3.887640438205    2.222337952645   -0.057580521975
C      5.598054058607    0.195087782373   -0.062814001127
O      6.209277141895    1.237580146126   -0.126498585935
O      6.195385133905   -1.011863904610   -0.035061272267
C      7.621917384184   -1.011543623385   -0.086854137868
H      8.044018213874   -0.464637069384    0.769816821166
H      7.929270044356   -2.064016188675   -0.056078648513
H      7.979272342750   -0.535649746712   -1.012568615366
