78

C      4.003698806465    4.877527205392   -0.234753963000
H     -2.889148476114    4.988514864633    1.365350107323
C      3.095312522099    5.093255574152    0.957398680374
H      3.682910693244    5.536529237579    1.782677948765
H      2.312596372246    5.825376111730    0.713888013091
C      2.435646520884    3.809510545803    1.472898992599
H      3.169245003648    3.009670457686    1.635104220159
C      1.657585334653    4.011260981279    2.734678270676
O      1.126615893048    5.043668710102    3.096340308824
O      1.588443484466    2.875822998386    3.473899790477
Pd     1.022377393223    3.056388098338    0.161232191219
C     -1.732141965119    2.938422109764   -0.931231221239
O     -0.617835699614    2.269717251954   -1.068543500811
O     -2.415237379972    3.383057484728   -1.828794898659
C     -2.199908043866    3.150898842312    0.550182156556
H     -1.554494192858    2.554629567261    1.217978970932
N     -2.082997267084    4.562105732110    0.919273588604
C     -1.000276265045    5.328221005709    0.747553817564
O      0.072709254303    4.918401078037    0.254006411162
O     -0.001423942573    0.128930937426    0.119444427978
H     -0.352549801115    0.993251701038   -0.313065894734
C      5.371205915502    4.613390581677   -0.060342584820
C      6.238435077045    4.376629128028   -1.136909676587
C      5.721334054841    4.402278348535   -2.453089109946
C      4.356505406038    4.669879072539   -2.629352809487
C      3.507404308241    4.905462258398   -1.545400985997
H      5.780631417721    4.598143495785    0.955380452312
H      3.947277204448    4.697494761080   -3.643520572810
H      2.448651603224    5.113859614266   -1.720901705395
C      7.703583212361    4.109094851554   -0.890605984754
H      8.015688188794    3.131222592590   -1.296091171287
H      8.343022854555    4.864911272253   -1.378453190060
H      7.938121713460    4.116979492074    0.183930571954
C      6.616813899805    4.157396702653   -3.642807894126
H      7.433644121808    4.897617897358   -3.699334751537
H      7.098367369585    3.165337971971   -3.596446401103
H      6.052304814015    4.210393313235   -4.585102837962
C      0.825047968922    2.936482140153    4.685254557632
H      1.190810149061    3.773506507251    5.302027274697
H     -0.227434749860    3.159286567657    4.439066428433
C      0.965112210170    1.606356956876    5.397702816450
H      2.019779155750    1.397299433167    5.634779143992
H      0.395756503941    1.620873279990    6.340447700858
H      0.584256849679    0.781045536851    4.776263633003
C     -1.076775214692    6.764617077162    1.191880822597
H     -0.389976669930    6.869180254329    2.046593177829
H     -0.708355910491    7.408984740166    0.380851128095
H     -2.089538583758    7.078026262364    1.480806891897
C     -3.666387681784    2.702492324227    0.692002684889
H     -4.239443140266    3.214349158284   -0.095996939156
H     -3.698618336691    1.626159051991    0.458700159561
C     -4.273404798522    2.958900107967    2.054351985620
C     -3.876767729212    2.209651929356    3.176490064961
C     -5.233472680653    3.968033259227    2.235363422657
C     -4.418856665806    2.464751148033    4.437550220898
H     -3.139463095798    1.410138360125    3.056980342978
C     -5.777363526210    4.228261038004    3.499098027404
H     -5.574332169459    4.545273765982    1.370202471239
C     -5.370122475342    3.478222083974    4.604045292131
H     -4.101980612566    1.866569185667    5.295940929513
H     -6.527011857760    5.015228802715    3.615940853521
H     -5.795267289884    3.676407460880    5.591126354901
N      2.012914365986    1.238532427389    0.003919574561
C      1.310042909102    0.103036262697    0.082834675103
C      1.962175574386   -1.182360806600    0.132903885189
C      3.382313586071   -1.231571420819    0.031825141311
C      4.078976940401    0.001709450981   -0.132820471537
C      3.378632907159    1.175883698024   -0.141007125829
C      1.217013379881   -2.379888511118    0.266295545831
C      1.869104454182   -3.597626049621    0.314646473808
C      3.280142112323   -3.653176320334    0.222102812700
C      4.023476755638   -2.496483065332    0.080458344738
H      0.130069070097   -2.316656907848    0.328322744055
H      1.295944467825   -4.521815491591    0.419545479777
H      3.784761355251   -4.622180673925    0.258829060611
H      5.112708230520   -2.541710855187    0.003015957402
H      5.163480427220    0.016283091431   -0.252838198167
H      3.883405224085    2.132893245318   -0.268258955777
