68

C     -0.628355428880    4.712110393954   -2.255206324138
H     -2.054260889988   -0.177056713319    0.353839198456
C      0.503083447788    5.103016171656   -1.408812153411
H      2.587306742158    3.803203179090   -0.682309251973
H      1.384534402738    5.448182014996   -1.955198756174
C      0.516375316376    5.304820205105   -0.027139048115
H     -0.368863016246    5.141103272828    0.597492249122
C      1.590190923415    6.088349039934    0.657841717738
O      1.642556195008    6.250481288411    1.854242978613
O      2.490781802093    6.617872029077   -0.197862935211
Pd     1.236844762474    3.255437503743   -0.260750922788
C     -1.669205928697    2.655435906432    0.960461318434
O     -0.647600264242    2.275253420220    0.251025272417
O     -1.761643611859    3.730274093604    1.536700463449
C     -2.848166885936    1.657278354690    1.071043293589
H     -3.735527874299    2.224115917285    0.754434244176
N     -2.761288960761    0.525461766235    0.169110373133
C     -3.423757814954    0.474081991353   -1.029132791651
O     -4.215611951444    1.332674946457   -1.387155211409
O      0.210097145324    0.357216672878   -1.063203307076
H     -0.267176986485    1.132981999860   -0.565276215632
C     -0.396411121765    4.512724503821   -3.631683028658
C     -1.406582650185    4.107549671302   -4.508045092923
C     -2.706361529851    3.883302847432   -3.992671988792
C     -2.944417941905    4.108188924021   -2.626886308855
C     -1.934075502240    4.524550523206   -1.766281785677
H      0.613085723983    4.670603510698   -4.023654765236
H     -3.941112232589    3.917292248145   -2.224685935761
H     -2.157009799258    4.687297198640   -0.711332613904
C     -1.111099542844    3.902328684583   -5.973492964581
H     -1.301853349659    2.861055478844   -6.284753871908
H     -1.747823284792    4.540023786669   -6.609865463550
H     -0.062065812181    4.134774028598   -6.207785307510
C     -3.822765203658    3.406891488006   -4.884895836715
H     -4.079245274988    4.158339760069   -5.652348395648
H     -3.541211370690    2.489192630029   -5.428003979772
H     -4.727587338332    3.186307854735   -4.302116521685
C      3.573626581360    7.359739143421    0.383116039961
H      3.159878713161    8.163518352437    1.013093791139
H      4.146161340989    6.694068431592    1.050600226342
C      4.429193578172    7.902918015051   -0.742593550825
H      3.844497134318    8.569069253778   -1.395721912745
H      5.272629082736    8.478347689594   -0.330163246095
H      4.837143208407    7.086644194552   -1.358785922527
C     -3.088259380789   -0.739236083411   -1.883196717452
H     -3.191583426608   -1.674481683721   -1.309744608002
H     -3.763453843496   -0.762571977462   -2.747053852739
H     -2.045073904136   -0.672123557073   -2.232011468250
C     -3.027089135533    1.216597425702    2.528656535474
H     -2.168126492446    0.614512278708    2.871534066661
H     -3.099245153902    2.101955879175    3.175271980889
H     -3.939848896818    0.612036884222    2.640452427510
N      2.128883456120    1.287935685266   -0.171769368102
C      1.477977188578    0.266299487655   -0.737738700827
C      2.132273748762   -0.975972801223   -1.027301388565
C      3.432727495959   -1.155159992215   -0.654979993203
C      4.124392818255   -0.119767569177    0.040032503560
C      3.425904121447    1.104749320722    0.278099439425
C      5.456258465223   -0.271456359708    0.501235719204
C      6.083861396049    0.744184237560    1.195633893648
C      5.385482759881    1.944576350773    1.452332456869
C      4.088727235026    2.124500101505    1.004521443192
H      1.548099602465   -1.747063715042   -1.530415774310
H      3.948455296260   -2.096289522320   -0.864574334512
H      5.974538999702   -1.213129838759    0.301253776704
H      7.108564931864    0.619521233777    1.552692410236
H      5.871302386540    2.743376153910    2.018143851090
H      3.550452809041    3.048814746306    1.218138901688
