40

H     -2.525635839690    5.538011307472    0.913401769570
H      2.415627396312    3.634600088591   -0.684548080737
Pd     1.094282638027    3.097850784667   -0.151044979719
C     -1.623693152641    2.771282615371    1.423954367894
O     -2.620066837727    2.211863703963    1.839111825346
O     -0.820773835999    2.319385046557    0.507413937358
C     -1.229351279748    4.196992865534    1.923992762070
H     -0.131991999426    4.235068377463    2.019801935525
N     -1.590463393428    5.147862144548    0.864274880479
C     -0.853153453915    5.472466588923   -0.207307252217
O      0.267265331364    4.993799827261   -0.471534348553
O     -0.005548335527    0.072067038435   -0.195468738460
H     -0.464186845749    0.951417227710    0.070659605857
C     -1.421043774030    6.514835977745   -1.142388121837
H     -2.367247073371    6.948921326573   -0.790491410015
H     -0.676649116794    7.315173527418   -1.266498786044
H     -1.574178830150    6.056514208319   -2.131447674637
C     -1.874708694010    4.586746879350    3.268032011741
H     -2.966851265398    4.462331168556    3.142202480936
C     -1.422199911293    3.608700088903    4.361803173301
H     -1.914538227901    3.831683665964    5.319609697515
H     -1.675918322959    2.575068406400    4.093471705851
H     -0.332159201258    3.676748301189    4.523471911733
C     -1.573885522059    6.050954928378    3.651007888942
H     -0.486451767528    6.158019799910    3.821439790278
H     -1.802938566323    6.711440652400    2.797880864677
C     -2.339180849375    6.562677453403    4.873982050249
H     -2.066087022132    6.022617214245    5.793504007293
H     -2.131318885870    7.630282307371    5.048690637663
H     -3.428449535494    6.453604917371    4.737955333240
N      2.000680735188    1.245573998101    0.016135035893
C      1.296144724791    0.085295615045   -0.083662402985
C      1.969319916400   -1.163741326718   -0.084387440986
C      3.341346689413   -1.212464383628    0.051327459264
C      4.057075626023   -0.010368730424    0.190844550090
C      3.351695712642    1.177225566773    0.163561583640
H      1.354226996086   -2.059069193051   -0.180489922999
H      3.860059640926   -2.174558203358    0.057790319779
H      5.141115840015    0.005394484050    0.309685149011
H      3.863564890354    2.133760265184    0.253390235622
