71

C      2.320081897868    5.388585927366    2.578857887560
H     -0.251274372652    4.800109493997   -3.577360180510
C      1.091038554410    4.580881980558    2.240995905729
H      1.500968306078    3.449923103388    2.014386378263
H      0.478446592090    4.337663781186    3.121336376796
C      0.243945476118    4.987459522377    1.097398806084
H      0.562887142755    5.837451076936    0.485151132241
C     -1.235873540941    4.864551786990    1.280302110790
O     -1.760418208131    4.308539459147    2.222948011932
O     -1.906223371238    5.428342756120    0.265167382589
Pd     0.971166159002    3.233900174841    0.351415557273
C     -0.867363933125    2.817895387192   -1.832352097937
O     -1.393319038008    1.946980179054   -1.115858238776
O      0.229600791531    3.423015788958   -1.578301173700
C     -1.544263092274    3.195092557239   -3.159765953728
H     -2.628170871939    3.158359955430   -2.991256133709
N     -1.236529553434    4.564729578947   -3.531587650350
C     -2.133190678602    5.584170595391   -3.376726971616
O     -3.311029172237    5.401911525952   -3.101539839065
O     -0.086673089207    0.152346134705    0.136986172391
H     -0.551344076145    0.976715924229   -0.252965952220
C      2.506977576318    5.847234109922    3.889743032362
C      3.613086045536    6.626213900906    4.257111196310
C      4.576756759974    6.956081470230    3.276209840790
C      4.389726786713    6.488709002076    1.967073021601
C      3.283080668928    5.715092287581    1.615866563907
H      1.763631621657    5.595500150109    4.652093904597
H      5.133149183547    6.735917597427    1.203862285680
H      3.169398468444    5.361748327309    0.586615499559
C      3.768045435918    7.101960039609    5.680377114189
H      4.706440019512    6.736357713499    6.131027680114
H      3.801795539101    8.203200704299    5.738675944782
H      2.936353519184    6.758319730762    6.311999696438
C      5.783628499913    7.789616425633    3.627567899545
H      5.493794735319    8.779917118662    4.018432041717
H      6.394900822683    7.311410600165    4.411905090952
H      6.428415259536    7.950847933414    2.751628722271
C     -3.351492869280    5.320536584476    0.272354599073
H     -3.634517461619    5.400806740527   -0.785430393735
H     -3.621964100076    4.323903883381    0.649802767938
C     -3.986970271725    6.415806035802    1.111574434471
H     -3.680053411316    7.412767329918    0.757550508895
H     -5.084103545708    6.350656827811    1.031884331654
H     -3.714493883078    6.314158075388    2.172668723214
C     -1.560130369231    6.980969525457   -3.551135176069
H     -0.635415032441    7.001509847271   -4.147029957225
H     -2.319181762502    7.620430353271   -4.021472370163
H     -1.344312476501    7.393394992375   -2.551747363330
C     -1.152036901853    2.219174943742   -4.291404037770
H     -1.663652653422    2.571727691330   -5.204480456678
H     -0.068793175537    2.329648057341   -4.481958913560
C     -1.473509365334    0.728397219445   -4.074249309618
H     -0.920266035007    0.383602903731   -3.183200368011
C     -0.980228101489   -0.087420196987   -5.276883632976
H      0.097246724421    0.063296691845   -5.456578243831
H     -1.146574132078   -1.165580715998   -5.121211493057
H     -1.514424453568    0.201281428415   -6.198838137293
C     -2.964065180278    0.480617192641   -3.809035997969
H     -3.172364483438   -0.599063211283   -3.733742408217
H     -3.285027701476    0.942925198343   -2.864470239276
H     -3.587651776799    0.883764597790   -4.626285933043
N      1.921567089917    1.306806100136    0.009336767143
C      1.222904502598    0.151082204271    0.066430122324
C      1.896381501647   -1.096280798922    0.077829005456
C      3.275648307520   -1.129105707311   -0.005634284862
C      3.990484080386    0.077907596844   -0.105881126110
C      3.269596974111    1.259377755919   -0.091791149977
H      1.289887441470   -2.000533850670    0.139796133270
H      3.802316726249   -2.086990115293   -0.003653567780
H      5.078100595418    0.098256020561   -0.185662743791
H      3.775998277320    2.226138598300   -0.153238725707
