74

C      1.631946356425    5.858552261427   -1.100069345994
H     -2.761032793486   -0.102386259027   -0.560688681124
C      1.297386530159    5.419331936969    0.262222953767
H      2.232289574508    3.443282131151    1.105665897525
H      2.049867451167    5.636711879589    1.026118944603
C      0.047974770463    5.027333853768    0.734269453243
H     -0.831845280794    5.021633624357    0.085556447198
C     -0.223723082407    4.980960354635    2.206304594265
O      0.586950808441    5.186623059524    3.083356325493
O     -1.509080442286    4.670766050567    2.404952991877
Pd     1.015825419885    3.125307990837    0.259881919119
C     -1.898815859652    2.885349286212   -1.119323139502
O     -2.037604885960    4.066020146089   -1.404022936967
O     -0.789129747484    2.354244522580   -0.692977375323
C     -3.057651139104    1.860837898506   -1.328758473583
H     -2.794352876381    1.328963921078   -2.260954649611
N     -3.034201506022    0.834169325143   -0.291880966407
C     -3.130407540346    1.110887285243    1.043474490024
O     -3.360115016554    2.235096929394    1.462161885629
O     -0.074637123460    0.051356280867   -0.112502773056
H     -0.474181601753    0.983441461475   -0.336929899060
C      2.902816791382    6.420728234051   -1.329052531233
C      3.294207534732    6.900670213977   -2.582473371027
C      2.380931734387    6.814076588483   -3.660339765812
C      1.115417967777    6.249325176423   -3.431137910086
C      0.731109762476    5.775436276418   -2.179461831956
H      3.606470729460    6.488992707859   -0.493703456706
H      0.408410537412    6.180934798973   -4.262698086542
H     -0.258231711099    5.331200051259   -2.042746235121
C      4.664298530745    7.502312287281   -2.777415564322
H      5.244346435590    6.956450134610   -3.541012994341
H      4.603913854665    8.549211652025   -3.120547748180
H      5.244398832586    7.489826449589   -1.843324233720
C      2.755743859028    7.319362758234   -5.029973854741
H      3.003001007167    8.394737621974   -5.012128552657
H      3.647075223764    6.801843480126   -5.424448010619
H      1.936736831465    7.174624740651   -5.748917056879
C     -1.983043284978    4.458686902402    3.744892322156
H     -2.764551099399    3.695171210949    3.629256432613
H     -1.158750300406    4.057164986073    4.353793168554
C     -2.528219500300    5.742274695882    4.348517419579
H     -3.319538158017    6.168621973147    3.712616130065
H     -2.959481779271    5.535362183014    5.341433320787
H     -1.730589811199    6.490759077575    4.471318881022
C     -2.900993693671   -0.080375966561    1.960625883280
H     -3.266792944055    0.165767051303    2.965031442320
H     -3.407458361908   -0.987414287473    1.594946226290
H     -1.821064272805   -0.294137989152    2.009417324915
C     -4.437772051854    2.542469487925   -1.556055398492
H     -4.523561594524    3.346232679797   -0.807474000341
C     -4.483189827340    3.171423591697   -2.957234042226
H     -5.396632555239    3.768650657726   -3.097641430346
H     -3.625831368852    3.837355819233   -3.113909869620
H     -4.474129244531    2.390133332052   -3.739275138286
C     -5.606256082635    1.561331811310   -1.339835062949
H     -5.511624489938    0.716553121819   -2.049562025816
H     -5.523466954263    1.122100991824   -0.334567460567
C     -6.996235902297    2.188272054035   -1.477050316530
H     -7.203375802021    2.537265487445   -2.500734941448
H     -7.781580786826    1.460780418042   -1.215317721810
H     -7.108381087517    3.053616659260   -0.802259137032
N      1.938636095895    1.205284942328   -0.056107313946
C      1.238326984379    0.050746602483   -0.123625318296
C      1.914105978311   -1.191785829711   -0.198026966575
C      3.292736631625   -1.222056014486   -0.234470742899
C      4.031330491290   -0.019095808453   -0.201155840266
C      3.295540807447    1.152966828439   -0.108255366548
H      1.307712167150   -2.097423646212   -0.238757657821
H      3.814258638352   -2.181797081334   -0.297772601842
H      3.804615621826    2.116432150267   -0.066552145682
C      5.537374000500   -0.006068953108   -0.254195848454
H      5.932631397556    1.019222922869   -0.206086147683
H      5.973834412004   -0.573172238341    0.584860486947
H      5.910486489215   -0.465770006525   -1.184710818439
