71

C      1.673714218285    4.000350871499    2.438356331029
H     -2.325257204586    1.666522704882   -3.561363213996
C      0.867516273920    5.259951552336    2.126305556380
H      0.319806600281    5.592934422533    3.023039231911
H      1.550696584655    6.064038557408    1.819451201320
C     -0.077406215741    4.888056755462    0.985225309025
H     -0.027498330628    5.516955719055    0.088940927912
C     -1.482500392914    4.599834450263    1.402952651057
O     -1.824082517502    4.317502266127    2.536520661034
O     -2.352426542459    4.677709141919    0.377610942004
Pd     0.790794193066    3.111286715681    0.440378563526
C     -0.552947980703    2.754939151889   -2.144309451452
O     -1.209707069305    1.823591983745   -1.626587091097
O      0.328080628738    3.453272913565   -1.557805046835
C     -0.773241949575    3.084584254723   -3.632251603763
H      0.202241314466    2.938453173888   -4.124926946886
N     -1.681521168168    2.106233787238   -4.209974219002
C     -1.480203753680    1.571572521278   -5.448291145653
O     -0.590648202241    1.950712460299   -6.196804416226
O     -0.190433957352    0.038619166435   -0.174257607875
H     -0.599777202056    0.871990215818   -0.629560763277
C      0.998563928128    2.815501849616    2.836269975366
C      1.707683229968    1.666393815322    3.276336457260
C      3.110171516845    1.690835801956    3.292604075382
C      3.777757354867    2.861585678290    2.862259113351
C      3.089444280533    3.987766609246    2.437994100214
H     -0.083315698397    2.855458606486    2.988564052820
H      4.871136450833    2.873796468799    2.866693871266
H      3.636098435649    4.883133940572    2.131338682626
C      0.943577523114    0.454662234572    3.744622977594
H      1.198387580319   -0.439418532396    3.150945688108
H      1.181204613698    0.210528055475    4.793873625328
H     -0.141524526941    0.609894455562    3.669369067064
C      3.903459671227    0.501018340718    3.771315311246
H      3.669840835711    0.257030100244    4.821565047821
H      3.674659217511   -0.403718498560    3.183367720284
H      4.985037792141    0.683701148835    3.701089424151
C     -3.730873530671    4.344602884421    0.638853713492
H     -4.020721133617    4.771415716832    1.610460934484
H     -4.289866630028    4.855000481502   -0.158695311907
C     -3.967098058792    2.843669288079    0.604301200269
H     -3.459863365120    2.349548711875    1.445802456395
H     -5.046104123254    2.634901469944    0.684478461147
H     -3.590595407754    2.409550611663   -0.333998011201
C     -2.463790684954    0.486687967030   -5.857910152004
H     -1.901343844851   -0.349459080705   -6.297612567350
H     -3.087064804735    0.117705409602   -5.030184391234
H     -3.121315114652    0.886880290865   -6.645872333201
C     -1.198553756068    4.529053029232   -3.904581631965
C     -0.945734690773    5.072669467068   -5.175000987719
C     -1.361477800659    6.369179821410   -5.487663835665
C     -2.034217141056    7.142165067445   -4.535924471156
C     -2.286845066781    6.607808349033   -3.269845589586
C     -1.873425070501    5.308759321599   -2.955288521301
H     -0.433182610296    4.460012836209   -5.920325455218
H     -1.155697502846    6.778580500292   -6.480356623804
H     -2.356205459766    8.158241730443   -4.779258933440
H     -2.804874994407    7.205927256318   -2.515083349225
H     -2.061372796723    4.921086005300   -1.952468197681
N      1.804334905882    1.197964538610   -0.061757210257
C      1.113766563623    0.032820416296   -0.136050220561
C      1.791694656892   -1.215900184968   -0.150297553013
C      3.170335971675   -1.245911780199   -0.135368773262
C      3.855799154189   -0.021014018695   -0.099858058423
C      3.144291470434    1.170297755014   -0.065024965504
H      1.190042355324   -2.123939294494   -0.197938572882
H      3.734781395753   -2.178571017975   -0.160771801390
H      3.674086135096    2.122221819059   -0.022304335375
N      5.318346948006    0.010852562683   -0.061865107112
O      5.858904762352    1.101942217056    0.047704870378
O      5.903550514929   -1.058609018814   -0.130440518926
