73

C     -0.505780925576    4.616696837016   -2.243177735357
H     -2.063235188250   -0.171148498561    0.526540654758
C      0.579897101045    5.001289883128   -1.335774938639
H      2.583353164103    3.671018486326   -0.526586388300
H      1.494411241724    5.332338501421   -1.834574006772
C      0.516509337870    5.218953483888    0.043320676786
H     -0.410820584013    5.085872798640    0.611372345444
C      1.551640831610    6.006453032913    0.781420696322
O      1.493909393316    6.239133990382    1.965412283441
O      2.549310269972    6.455211662651   -0.010851646884
Pd     1.212265369248    3.158105640863   -0.132690703233
C     -1.748364440883    2.674203759534    1.093284890757
O     -0.698415960947    2.258088471054    0.451410519310
O     -1.921172708792    3.819465408591    1.487949407673
C     -2.858105677626    1.614237218592    1.347501274718
H     -3.797447236619    2.148188781434    1.135084836951
N     -2.806604155255    0.509829448110    0.413179456304
C     -3.466858842713    0.539998711584   -0.789298331805
O     -4.243265456789    1.431559559709   -1.093840319182
O      0.086555288956    0.111348590756   -0.473430552553
H     -0.337037103067    0.996971792037   -0.130998240582
C     -0.204890083467    4.454281620573   -3.611556763808
C     -1.169472175915    4.075133252171   -4.548295593582
C     -2.493277598745    3.836119534746   -4.104759013360
C     -2.797379518243    4.009988090723   -2.744543254375
C     -1.832086191836    4.404727729978   -1.823404688486
H      0.821915929085    4.626178630416   -3.948805961944
H     -3.809829974871    3.801270619235   -2.392367459468
H     -2.108998399687    4.534969902696   -0.776979445538
C     -0.802352469645    3.915602766295   -6.003178608249
H     -0.986983507161    2.887611873013   -6.358932125030
H     -1.399976920364    4.581415223800   -6.648739625062
H      0.259213399778    4.144359200506   -6.176714595812
C     -3.564303017269    3.401068671874   -5.071032129051
H     -3.741263234114    4.162653409915   -5.850392445555
H     -3.280525168329    2.475035929385   -5.599524303162
H     -4.515529707650    3.215553483045   -4.553135713242
C      3.594508139536    7.200819051976    0.631674283694
H      3.148380673705    8.052633563174    1.169734361524
H      4.075600184118    6.561026018139    1.390318807891
C      4.574038282220    7.651466122236   -0.432175072568
H      4.079214724183    8.293430377061   -1.177400230378
H      5.391776177365    8.226880775840    0.029128093232
H      5.013220465219    6.789008303333   -0.957363229051
C     -3.181774156304   -0.649915138891   -1.692741519056
H     -3.747771127799   -1.528744860645   -1.341623245337
H     -3.513313047808   -0.406753033274   -2.709875319327
H     -2.111847836828   -0.909197949492   -1.696071118554
C     -2.876860308033    1.146188953692    2.808228966644
C     -3.153175621388   -0.190953758274    3.132446744860
C     -3.202043740721   -0.612569618784    4.465399496481
C     -2.979418518318    0.297548914446    5.500270546101
C     -2.713530535212    1.634599052470    5.188330326078
C     -2.664433147107    2.057388283151    3.858282544918
H     -3.349086366529   -0.910589778782    2.335766871995
H     -3.420308916948   -1.659850276181    4.691792377941
H     -3.016908454831   -0.030230035618    6.542442039629
H     -2.543649217017    2.360382350223    5.988125679556
H     -2.463012395836    3.103386187974    3.622504711657
N      2.089658091636    1.187943551365   -0.019595417524
C      1.378565584666    0.072598706670   -0.260801800598
C      2.018081169673   -1.212771523387   -0.304527716283
C      3.379300463759   -1.292687120302   -0.059119365498
C      4.094692711922   -0.111931034551    0.222426865768
C      3.426762779339    1.092065144322    0.230477122260
H      3.895459665606   -2.252980807866   -0.072564170800
H      5.165772024102   -0.143140042569    0.426814511102
H      3.944541461799    2.027993139896    0.433686182650
O      1.194513949093   -2.245518795437   -0.574912899443
C      1.735538952914   -3.547802305568   -0.631006847958
H      2.180949718437   -3.846998240068    0.335049220932
H      0.901538291761   -4.222363649358   -0.864101177879
H      2.502548683134   -3.637872884300   -1.421399857508
