75

C      1.175431542705    3.916383184374   -3.469803367365
H     -3.285813446820    2.204939819585    1.309292620796
C      1.726534166974    4.835480167898   -2.399833704682
H      2.474768457983    5.513968999319   -2.852780199621
H      0.935631845159    5.489012407104   -2.004199445373
C      2.408734809430    4.112776697709   -1.238044427975
H      3.147668598750    3.378156652187   -1.584667461314
C      3.010296379160    5.053226293030   -0.237031369919
O      2.670550951636    6.198657154182   -0.052789823392
O      4.016388538606    4.471295449175    0.474066810302
Pd     1.002760507124    3.086422351849   -0.162781470240
C     -1.375483643121    3.714099998335    0.489344622158
O     -1.027839069187    2.520477343781    0.771148144330
O     -0.572050961775    4.502560045379   -0.081678790219
C     -2.756865831167    4.209838183013    0.892821424111
H     -3.125332300840    4.868563794650    0.094384107199
N     -3.670938747706    3.083585978988    0.982143859094
C     -4.991934781959    3.202571100450    0.654286918748
O     -5.475651724166    4.249242966522    0.253574925797
O      0.094922269988    0.189820538532   -0.099719982848
H     -0.309682760901    1.068927930896    0.111823774170
C      2.027098772289    3.307713207832   -4.404638548432
C      1.556880327365    2.440898348040   -5.399863794930
C      0.170487384035    2.167502302894   -5.473830693250
C     -0.681476039459    2.780254860276   -4.545727404646
C     -0.194714250972    3.640605044027   -3.557759186554
H      3.100412815397    3.522865659523   -4.363618457428
H     -1.756221939663    2.582382395553   -4.600195821952
H     -0.884175945785    4.107900633517   -2.850303931871
C      2.516891562006    1.817026896305   -6.383504981956
H      2.487625359916    0.714628702626   -6.339453516121
H      2.272374002544    2.093176884947   -7.423679266674
H      3.552440867111    2.132334022476   -6.188781524694
C     -0.381392402537    1.245003768434   -6.532884130223
H     -0.159896937764    1.610816779379   -7.550433826568
H      0.055535388094    0.233759622284   -6.463650066088
H     -1.473048495788    1.143968743740   -6.445165729434
C      4.614697649173    5.271424561692    1.506492333296
H      4.971857506512    6.215727773699    1.065327797892
H      3.841597792038    5.537531018445    2.246214770631
C      5.743502839978    4.476853010118    2.130851139964
H      6.509012146204    4.221500566449    1.381325312981
H      6.225278424741    5.069277080680    2.924309082902
H      5.372450140195    3.542107253643    2.579732618254
C     -5.825305446437    1.944533529901    0.838580944655
H     -6.505904410947    2.094642174366    1.691673009863
H     -6.449754773552    1.803235667374   -0.055125626102
H     -5.227034692679    1.038810677220    1.016423067026
C     -2.691887267889    5.029130123228    2.184959193793
C     -3.452951401058    6.200588237745    2.300503067898
C     -3.443731375886    6.934837106748    3.489803625736
C     -2.675568122065    6.505202747893    4.575732482472
C     -1.918291115433    5.334443243973    4.468648483301
C     -1.928003938471    4.599006843184    3.280781342636
H     -4.067255687978    6.523960436798    1.457139283891
H     -4.040615775716    7.847311510806    3.567455016227
H     -2.666152007501    7.081848369266    5.504338193615
H     -1.314217564542    4.993041441778    5.313438086890
H     -1.333524837853    3.684406649299    3.204309554284
N      2.109695299577    1.331732291300   -0.050326225715
C      1.417270336048    0.191639532327   -0.073542613751
C      2.066122432293   -1.092815718806   -0.079221749190
C      3.489520721737   -1.130578371078   -0.020664460575
C      4.185094332689    0.111767599923    0.054520366402
C      3.481454504533    1.283936659551    0.038306330587
C      1.324119422202   -2.299301257096   -0.137309435853
C      1.983021334106   -3.513788646925   -0.145007275341
C      3.396681554700   -3.558497007448   -0.090129997364
C      4.136841825876   -2.393192408739   -0.027572728009
H      0.235705671315   -2.247788756638   -0.177433736634
H      1.413039817552   -4.444556965142   -0.192105624721
H      3.905511632606   -4.525837066405   -0.095782525997
H      5.228126568049   -2.429236873486    0.017352656934
H      5.273889387860    0.133241725945    0.126880788055
H      3.976672017833    2.251819953835    0.109982744118
