74

C     -0.550193706258    4.611376544634   -2.211329426137
H     -2.137305596810   -0.271870500509    0.555287776828
C      0.532238177329    5.003188121163   -1.303046562890
H      2.560547456818    3.709735298917   -0.471261356035
H      1.442075457490    5.348457083406   -1.800846934789
C      0.468099291560    5.209827117892    0.077238621090
H     -0.453627898947    5.055921513151    0.648873211934
C      1.493926207523    6.005478589409    0.819731837965
O      1.438881389513    6.223142712188    2.006696225564
O      2.479492215069    6.480748176466    0.027637592089
Pd     1.192787228441    3.158248595648   -0.120021266318
C     -1.763334011652    2.611626214194    1.052968115978
O     -0.720934341642    2.212431553514    0.378137222464
O     -1.892448184418    3.724877874527    1.540423966037
C     -2.911053798501    1.589235972875    1.235474755426
H     -3.817964416583    2.133728449521    0.936895338101
N     -2.831251378638    0.439417283618    0.356732831588
C     -3.438037791635    0.413762175956   -0.872293404489
O     -4.185113512736    1.297588619307   -1.261865000807
O      0.155550698251    0.055750805308   -0.383348763083
H     -0.313221209039    0.954574994979   -0.096863025099
C     -0.245816236177    4.439406851211   -3.577589998167
C     -1.206061020331    4.044851534972   -4.512650441242
C     -2.528866400129    3.800790557894   -4.069400795675
C     -2.837545231436    3.989527354703   -2.712277344872
C     -1.876587904457    4.398555585142   -1.793215537166
H      0.780723595597    4.614133768721   -3.914201968579
H     -3.849991429053    3.778727142397   -2.362171295278
H     -2.155292488098    4.538160978311   -0.748438860919
C     -0.834729313926    3.873327476932   -5.965116011443
H     -1.008035557000    2.839647765084   -6.309982249558
H     -1.438191536613    4.525733734048   -6.618847699506
H      0.224726671894    4.111115142185   -6.139404888225
C     -3.594445304629    3.343626727780   -5.031368079061
H     -3.790082449302    4.100801441809   -5.810719975764
H     -3.293927492832    2.422984337137   -5.559688738088
H     -4.538893055935    3.138022743154   -4.508827604873
C      3.516375533629    7.234644265257    0.673788570371
H      3.059847101934    8.071549644160    1.226326518694
H      4.012871646269    6.592571693784    1.420531646179
C      4.481542745579    7.715910166162   -0.389805815014
H      3.971393603055    8.359581116534   -1.123132566199
H      5.292571705008    8.298542542458    0.074279132229
H      4.931613966714    6.868114206928   -0.929448473884
C     -3.093492468205   -0.798658808931   -1.723783646916
H     -3.807088397482   -0.864122631127   -2.554263381853
H     -2.075768250500   -0.682503998349   -2.131001311755
H     -3.117765911233   -1.731687132434   -1.138967717450
C     -3.049123397667    1.203034004453    2.730738391932
H     -3.084791768738    2.167907851840    3.262366604257
C     -4.359376214747    0.454805732657    2.996852047436
H     -4.475871788231    0.238069585164    4.071003148006
H     -5.231022679675    1.046216206863    2.674605865816
H     -4.389393117548   -0.504525358674    2.454705784797
C     -1.835613393154    0.422854194555    3.255577234368
H     -1.750957962045   -0.572202790317    2.783899643047
H     -0.891451743654    0.962629391761    3.080568074378
H     -1.923803539633    0.252388344665    4.340221085550
N      2.112120497564    1.214614533862    0.008835637113
C      1.450668557326    0.069712286554   -0.205069096441
C      2.141337279065   -1.201584802230   -0.257525408806
C      3.547604781703   -1.228886162357   -0.038471242436
C      4.201622630798    0.011535290806    0.224317377808
C      3.471282247820    1.165264372038    0.233890602287
C      1.442929007705   -2.406478975772   -0.514156640388
C      2.125207402152   -3.608457483851   -0.557805499446
C      3.522567980314   -3.640649002516   -0.341959938946
C      4.221962664203   -2.475811503549   -0.086361012049
H      0.365955786234   -2.365239126181   -0.678597198407
H      1.585873324587   -4.537142256561   -0.758406750232
H      4.052047549398   -4.596275166351   -0.377109630557
H      5.301538812576   -2.501238265028    0.081748067742
H      5.276492147366    0.044580173246    0.410205089882
H      3.946077141484    2.126473807716    0.423576638967
