59

C      1.592243087800    3.959093456198    2.421349444948
H     -2.041821307901    1.347783714510   -3.407760479461
C      0.848223830096    5.227917162321    1.996129798865
H      0.143208264951    5.536786315683    2.784719817235
H      1.571302807308    6.040527156706    1.838817089964
C      0.130415847106    4.878976512412    0.694805205018
H      0.358453857346    5.509173017760   -0.172896157609
C     -1.329084984139    4.593547641494    0.823946330830
O     -1.886713380502    4.294586634404    1.863803235238
O     -1.979050408743    4.679267256745   -0.350739503848
Pd     1.070472257884    3.100201142838    0.320501172692
C     -0.269375676049    2.562488568393   -2.189227591940
O     -0.836768880655    1.607061979373   -1.616105880529
O      0.649703066432    3.291296118839   -1.699929700846
C     -0.684495056151    2.924363587520   -3.610165270102
H      0.201045226324    2.863209749201   -4.266990543855
N     -1.745419576798    2.060735328363   -4.067508267154
C     -2.216871406100    2.108840428797   -5.346241636369
O     -1.797396752625    2.909819465705   -6.166013469083
O      0.231995174622   -0.013145310664    0.023376288185
H     -0.190504668964    0.742446774990   -0.533171086038
C      0.852811579160    2.786735540942    2.730164045022
C      1.471384079283    1.631452466083    3.271472891433
C      2.859303853869    1.636683878292    3.483414908362
C      3.598039154153    2.795391521898    3.150043254459
C      2.993622199527    3.929057662874    2.628214091819
H     -0.239110106373    2.836026665788    2.700847590888
H      4.678756699407    2.795007229554    3.318003176685
H      3.589879597775    4.817577234401    2.404415430497
C      0.628488949361    0.433096291138    3.626671049275
H      0.892552001862   -0.447591291902    3.017069421949
H      0.766647328548    0.140732260914    4.680912666111
H     -0.439248160534    0.634513982179    3.464806497003
C      3.557887809253    0.434876569236    4.067193365831
H      3.187431601283    0.206880772616    5.081169518910
H      3.381672975703   -0.468362867406    3.459904040518
H      4.643924975411    0.591758574459    4.132290338044
C     -3.376791237562    4.336445087367   -0.339529787551
H     -3.487376368225    3.315653850915    0.060229847450
H     -3.901827193419    5.013888394429    0.353458950575
C     -3.906759747374    4.449271319775   -1.753567610609
H     -3.407896721980    3.733007914568   -2.423745733463
H     -4.986541209927    4.232531681282   -1.763872444445
H     -3.756596667452    5.464131663131   -2.153157549633
C     -3.311450469214    1.105210139114   -5.678822616861
H     -2.997518744240    0.518307642880   -6.555030331876
H     -3.556035553196    0.422258726757   -4.852133565495
H     -4.218381649292    1.657550851825   -5.969108416151
H     -0.986841332502    3.985521365816   -3.618388162045
N      2.189967879004    1.213150954624    0.001328828732
C      1.539426197731    0.035715713503    0.054490992606
C      2.289502474511   -1.167870326346    0.188613851057
C      3.674712249636   -1.129107695924    0.185540639715
C      4.311340681847    0.114548205017    0.060876636630
C      3.534230643537    1.261183810208   -0.022368472928
H      4.252741233423   -2.050062581550    0.270242022655
H      3.995367188808    2.247751091896   -0.093637649185
Cl     1.444516234940   -2.674633862953    0.349855533998
Cl     6.049772336619    0.225959463488    0.038945956536
