74

C     -0.573101408098    4.645349946991   -2.333990253775
H     -2.176107665452   -0.141238423271    0.400402242514
C      0.508544786089    5.051495540057   -1.431355351520
H      2.520088343788    3.742787647569   -0.663293689247
H      1.418394048900    5.386161969965   -1.935831674949
C      0.446242024699    5.286733319565   -0.056607446569
H     -0.476048393112    5.147406946444    0.518901690042
C      1.486792432130    6.076978364452    0.670065216945
O      1.467773872693    6.272088624503    1.862656077169
O      2.445607559664    6.572878138810   -0.142074908907
Pd     1.174593712020    3.231778149079   -0.185800015461
C     -1.770280706469    2.724202080660    1.048992556282
O     -0.691773731779    2.299835010636    0.457012862751
O     -1.957693970490    3.874368955388    1.425179133430
C     -2.857698942983    1.655477070310    1.307812024418
H     -3.818202157390    2.178393270947    1.215159025949
N     -2.867045741861    0.595884546727    0.314265102048
C     -3.571313471337    0.684506253361   -0.856571312908
O     -4.326444603588    1.612072255144   -1.104522602148
O      0.114577401958    0.324883455281   -0.826710101659
H     -0.335299921339    1.119145060878   -0.346077277393
C     -0.273600275039    4.492435787971   -3.703705948827
C     -1.235679028212    4.105856016693   -4.639950753643
C     -2.555281527609    3.849083750685   -4.194167963379
C     -2.857509851871    4.009614773432   -2.831910128028
C     -1.894444328241    4.410893343765   -1.910886430259
H      0.749743032916    4.680247648166   -4.042988301258
H     -3.864764501564    3.783745036415   -2.476057705297
H     -2.170674228723    4.529649018828   -0.862787616131
C     -0.870404296285    3.958467501301   -6.096582450828
H     -1.044341699382    2.930441437920   -6.457607709769
H     -1.477056882095    4.621045528662   -6.737060418631
H      0.188103424575    4.200051434046   -6.271486462014
C     -3.624389739729    3.409038142841   -5.160528795657
H     -3.811122204223    4.173637994871   -5.934642314752
H     -3.333041211902    2.489236924867   -5.695844004399
H     -4.572474882523    3.211557000538   -4.641208984480
C      3.494341665044    7.325930238030    0.485394013007
H      3.046661192089    8.146828699027    1.068271814018
H      4.021602853919    6.675900669019    1.203730832341
C      4.419779746092    7.838254154449   -0.598807919482
H      3.879248487891    8.489691452663   -1.302830505101
H      5.239014950412    8.421177666724   -0.149773573019
H      4.861247968605    7.006082091561   -1.169054977071
C     -3.335043384667   -0.467053452279   -1.822802803280
H     -3.530659388836   -1.438044736833   -1.339780048188
H     -4.000786912432   -0.348240099408   -2.686073732404
H     -2.286239754426   -0.465878557267   -2.161452841760
C     -2.717546643036    1.044697640026    2.717317475017
H     -3.525261947845    0.298450652345    2.825969987087
H     -1.766300631855    0.481069188691    2.756452250822
C     -2.764322496014    2.016276690934    3.911531766547
H     -1.913975824063    2.713654271402    3.818184924458
C     -2.589119416287    1.233635646946    5.219941000084
H     -1.656748761716    0.644670109716    5.220457831525
H     -2.556035559317    1.912559443158    6.087134388643
H     -3.426163960157    0.531436446222    5.379404073756
C     -4.045057601516    2.860108123338    3.934163215852
H     -4.084939091745    3.481620389309    4.843473970620
H     -4.087516006880    3.538657115983    3.070288315621
H     -4.946334070377    2.221648149973    3.927981215999
N      2.060372644082    1.265956835729    0.015028857903
C      1.376790414441    0.200803536350   -0.473388041370
C      1.994264983238   -1.060785072576   -0.619369441909
C      3.296668314357   -1.222715477942   -0.187815082216
C      3.967283769719   -0.138757221736    0.395303172898
C      3.329035642907    1.096027374299    0.483427524013
H      1.406064220591   -1.873532862681   -1.046193635350
H      3.791231207818   -2.193192165437   -0.278990853344
H      4.982192412398   -0.247438506047    0.779201334232
C      4.031908581084    2.270824793633    1.104833586152
H      4.337060519551    2.997209351995    0.334322202309
H      3.369178557238    2.802118026456    1.804582492505
H      4.931101538348    1.942744819740    1.644591012243
