71

C      0.126983991827    4.947766573165   -2.613200236229
H     -2.634503077816   -0.091197435013    0.078350619381
C     -0.084306061137    4.853102233054   -1.164571773762
H     -1.066547094021    4.432326406703   -0.933437889969
H      2.431357449755    3.808706176240   -0.750403819158
C      0.552296388372    5.324267121965   -0.007481577800
H     -0.052958211295    5.237328008895    0.900457097893
C      1.707031233361    6.258533483138    0.137001056374
O      2.405082203247    6.738072676919   -0.729070108557
O      1.879156571941    6.546519363529    1.443416979893
Pd     1.163032968312    3.217891194476   -0.168620839195
C     -1.765456980957    2.737014633161    0.888759937060
O     -1.854978088587    3.831719238928    1.425052870700
O     -0.657981025975    2.203983726732    0.463427499896
C     -3.057251080816    1.905840697898    0.687196096249
H     -3.769800266533    2.620890708318    0.250399575999
N     -2.921422076279    0.818107745020   -0.263299392239
C     -2.926974853879    1.025991330678   -1.612935667236
O     -3.115381369548    2.132865357129   -2.103608517126
O      0.270540817807    0.245871489012   -0.770049542859
H     -0.227768709107    1.017181691159   -0.306251303663
C     -0.851851332834    4.307500336132   -3.407843192960
C     -0.802624480643    4.310867995046   -4.803531920915
C      0.259496561153    4.989244293506   -5.447025416451
C      1.231561701475    5.626615121923   -4.657474084183
C      1.185262472171    5.611405390813   -3.265909930498
H     -1.671869838965    3.776590555630   -2.915644530755
H      2.052741123562    6.151969315513   -5.153824558412
H      1.950655175449    6.115701139919   -2.678541565765
C     -1.874111974759    3.598778344141   -5.592929240454
H     -2.453361076535    4.300392403937   -6.218189871766
H     -1.443249648863    2.850438780148   -6.279896458874
H     -2.573594417741    3.081771799626   -4.920731648636
C      0.349174192468    5.028238366985   -6.950586737365
H      0.424608182261    4.013347842546   -7.377711355717
H     -0.550132592319    5.485879187574   -7.397268916184
H      1.224114779419    5.602518112828   -7.287859318332
C      2.934179866855    7.462749242724    1.771499582655
H      3.892191276212    7.049400715111    1.414287337567
H      2.771470946522    8.405929911628    1.224704934737
C      2.927287388484    7.668465219464    3.272188868722
H      3.098461555475    6.719119604635    3.802780252663
H      3.723368418592    8.373375638065    3.558593486346
H      1.963088592286    8.079768442837    3.608134910175
C     -2.653224732608   -0.203053151294   -2.461592936665
H     -3.127697619636   -0.072918112601   -3.442679076470
H     -1.564507528335   -0.295640540741   -2.603165058455
H     -3.017723584497   -1.130233472401   -1.993559713974
C     -3.618999131963    1.435149496252    2.050496489628
H     -3.638466485208    2.350065119550    2.664759840019
C     -5.053871033925    0.911379533880    1.921588542709
H     -5.463014228416    0.640533824382    2.908270789845
H     -5.717758732126    1.669707292794    1.477133986769
H     -5.100196755987    0.014177370036    1.282486443847
C     -2.705516632698    0.420515752970    2.753522845958
H     -2.674890432047   -0.548251646569    2.223134029871
H     -1.671611738990    0.789329423318    2.840002206296
H     -3.073394814049    0.208742672298    3.769935272546
N      2.180370307255    1.318983080556    0.000072296652
C      1.546894411684    0.207479618354   -0.450121059881
C      2.234739541015   -1.017277122510   -0.597335953623
C      3.559649736239   -1.092789446816   -0.213756599792
C      4.185072943779    0.041122684709    0.322378736940
C      3.475437905518    1.235788847609    0.416335871911
H      1.681612811972   -1.871461853364   -0.988522719718
H      4.108563390626   -2.033279798159   -0.308116384161
H      5.220034681980    0.002894839340    0.663855089486
C      4.129965280412    2.464845567189    0.982817436696
H      4.345422428300    3.195658803924    0.186791312277
H      3.468721467355    2.963435956799    1.707660611130
H      5.075149845915    2.206221194612    1.480177736708
