68

C      2.299441488361    5.464717616093    2.671173762277
H     -0.112366161721    4.583383641157   -3.741916410450
C      1.128737727405    4.609395977720    2.250807270030
H      1.617339185644    3.514287567839    1.997682065217
H      0.497729977942    4.303801057927    3.097863726983
C      0.303010338083    5.008670796551    1.091069852381
H      0.616765390755    5.871833530335    0.494862112221
C     -1.178856438448    4.858710523310    1.229921639163
O     -1.724494432766    4.281624676037    2.147483683979
O     -1.823618017993    5.428729134792    0.201860472120
Pd     1.082676742636    3.279898661424    0.338774340741
C     -0.757673163233    2.760501487927   -1.832592302724
O     -1.218355511581    1.833770118554   -1.142689454022
O      0.286937021862    3.445437646786   -1.570264808396
C     -1.484294453084    3.105560732040   -3.144480018851
H     -2.553804960587    3.167351767792   -2.898564121504
N     -1.107215384742    4.412246834777   -3.646936413786
C     -1.934439145896    5.496228517619   -3.549750113758
O     -3.108634428190    5.412886515521   -3.217735093851
O      0.047069923932    0.260953689062    0.378608661915
H     -0.420341492536    1.014098004535   -0.149595661880
C      2.474314082159    5.772889774960    4.027069269436
C      3.525888362554    6.581703906801    4.479792360430
C      4.445833314371    7.100728363480    3.539864085368
C      4.271077118679    6.784739722547    2.184546598345
C      3.219139471768    5.978768233718    1.748865648506
H      1.763712307469    5.375423739281    4.757975258133
H      4.980672789279    7.179624596898    1.451884185870
H      3.116751746657    5.748704009785    0.684871972217
C      3.668503676143    6.890321934938    5.949651591674
H      4.638578782336    6.544053601193    6.345127024080
H      3.621606956110    7.975550222262    6.143021712988
H      2.874930119736    6.410241267822    6.540028111866
C      5.593478286328    7.973714157890    3.981962300380
H      5.238027412600    8.884012407998    4.494338284826
H      6.251590512367    7.450360502211    4.696478018991
H      6.209719584126    8.289152760931    3.127670586830
C     -3.266297924528    5.312161325922    0.160086490944
H     -3.513719624066    5.399454557081   -0.906237054953
H     -3.544320976650    4.311568278270    0.521989720405
C     -3.935758428271    6.397787811319    0.985479734743
H     -3.621736574510    7.398562047160    0.649053665749
H     -5.029325979303    6.328055041189    0.869016207986
H     -3.697983506382    6.289489680658    2.054295474345
C     -1.290342918478    6.834097600066   -3.873794322387
H     -0.368651107519    6.743575319574   -4.467667502844
H     -2.018011063072    7.456827199765   -4.411851553587
H     -1.051404726468    7.343415395083   -2.925873723277
C     -1.268627340042    1.993205032724   -4.179653023804
H     -0.208024721293    1.924859293847   -4.474084264498
H     -1.572415667084    1.024373342010   -3.757752268697
H     -1.865142855723    2.193002326913   -5.082275492746
N      2.054020165091    1.340839553814    0.021554990161
C      1.349878112691    0.232764135502    0.258752687247
C      1.990653213848   -1.042039259269    0.422007796015
C      3.344639633228   -1.140837652288    0.280015151295
C      4.115152477054    0.017601703299   -0.038537845592
C      3.418304672544    1.258925640559   -0.164366113013
C      5.519480832517   -0.018245461261   -0.226209334288
C      6.222265289553    1.131546159855   -0.532969383013
C      5.532239830791    2.357603375160   -0.663000535572
C      4.162010957138    2.422574587765   -0.483203648002
H      1.353350748902   -1.898973200153    0.642396742511
H      3.848889186077   -2.104417063447    0.394592307291
H      6.037220114240   -0.975962037705   -0.124312459037
H      7.304437088141    1.095531441294   -0.677267089564
H      6.086077072472    3.266300467957   -0.911944270045
H      3.625766367372    3.367747138829   -0.593954064994
