68

C      0.214408096830    4.929462644092   -2.671914328288
H     -2.919300109413   -0.046199627776    0.156599314555
C     -0.087791685504    4.825882780860   -1.238941631198
H     -1.091676441366    4.423441864754   -1.072882528131
H      2.347697521337    3.700586816039   -0.732101302516
C      0.487186353480    5.283959664226   -0.043131579199
H     -0.179589102196    5.220685600096    0.822511650458
C      1.657328391245    6.184415849071    0.177243094917
O      2.432890088366    6.633309847795   -0.638236805837
O      1.742554229746    6.478017230535    1.490073174799
Pd     1.046825530015    3.166868771103   -0.166418505408
C     -1.930589227266    2.850738649997    0.884375784000
O     -2.038002406504    3.996073613974    1.289130664381
O     -0.811038967880    2.279273974306    0.538785474107
C     -3.201709183262    1.971835331403    0.781831291700
H     -3.984060687767    2.662488612184    0.433108879702
N     -3.083085882902    0.893848806367   -0.184497105867
C     -2.929481603890    1.141203354144   -1.517611407943
O     -2.978673263175    2.275937856072   -1.975273335449
O      0.020335024134    0.048248626673   -0.060048813196
H     -0.433651918601    0.963807330742    0.170433277331
C     -0.726819981357    4.323545444924   -3.536193493748
C     -0.592244183517    4.352345058673   -4.926229939915
C      0.521631684462    5.016960659422   -5.491825865500
C      1.456837498261    5.617932406790   -4.632992404694
C      1.323912735239    5.580264322003   -3.247512161629
H     -1.583152406508    3.800297233638   -3.100670650256
H      2.318481036280    6.132608593659   -5.068152377264
H      2.062648018883    6.056867831060   -2.605443917972
C     -1.627263126967    3.683255545210   -5.797603944274
H     -2.130333915039    4.406973806055   -6.462056417457
H     -1.175781300223    2.918723409647   -6.452953707779
H     -2.397695723870    3.193286503343   -5.185390825613
C      0.704237871500    5.079790523316   -6.986247801292
H      0.778328888696    4.071113323188   -7.428008137546
H     -0.152676026950    5.571186708872   -7.478253614428
H      1.613589618059    5.634906560811   -7.258143648244
C      2.807958494420    7.351448053492    1.891971613408
H      3.770817016540    6.899638391459    1.600613692099
H      2.721027558130    8.300398843611    1.337709098349
C      2.705875612776    7.556928358949    3.389236663127
H      2.801293795566    6.600779637844    3.926497067631
H      3.508366582866    8.228620827170    3.732102545171
H      1.738266570199    8.007035663753    3.659289702147
C     -2.659829935040   -0.078441692778   -2.381136053953
H     -2.978300068518    0.132480460810   -3.409850226550
H     -1.575834322027   -0.277524321285   -2.380382660617
H     -3.172816342804   -0.979493526536   -2.011336461330
C     -3.581594625394    1.423857406282    2.158604837065
H     -4.536971140230    0.877648324476    2.113914117342
H     -2.803941404752    0.742241521110    2.542856509821
H     -3.685669312432    2.255005624498    2.869738851848
N      1.995812242188    1.244892680791    0.013718839978
C      1.327338850659    0.085092752613   -0.019298981065
C      2.021927494780   -1.185221798513   -0.022405717658
C      3.444116802497   -1.191382487212    0.035507710175
C      4.109931504125    0.068555626884    0.098598846175
C      3.372221866911    1.217727172351    0.083213478691
C      1.311704933008   -2.409337047326   -0.072981743833
C      1.997162841145   -3.610222455885   -0.075101383877
C      3.410537613398   -3.621620471001   -0.022391629559
C      4.121916835883   -2.437572528764    0.033380972471
H      0.222410120850   -2.382096322471   -0.109378474964
H      1.448382460720   -4.554083070204   -0.115736937347
H      3.942879648933   -4.576331073366   -0.023950865382
H      5.213919781316   -2.446751132671    0.076662167392
H      5.198703053705    0.119996312830    0.152558419205
H      3.854395554024    2.193063685900    0.121996984709
