74

C      1.378503664930    3.551740437899   -3.304756107625
H     -2.913264040253    2.245939629591    2.038984726635
C      1.654239929728    4.712412472492   -2.372556249196
H      2.320658157331    5.437099386986   -2.879019528641
H      0.727207838795    5.266777388897   -2.164186473302
C      2.316855460567    4.328062251586   -1.049527866171
H      3.231038832289    3.737862749660   -1.195215541912
C      2.594055611108    5.523716794704   -0.181297482821
O      2.128940129277    6.627064746706   -0.346928041458
O      3.444148595457    5.229714861892    0.839224423847
Pd     1.024946862741    3.178031891959    0.048127020844
C     -1.273876815475    3.771612355266    0.961032521162
O     -0.977052803727    2.533645064169    1.001578949241
O     -0.456659483723    4.615446140005    0.489755492863
C     -2.604787520862    4.262524902909    1.510455647659
H     -3.129365532811    4.774970253855    0.684954992042
N     -3.405223399134    3.124988621601    1.920908808232
C     -4.767329485367    3.185018947819    1.974819912485
O     -5.386995366366    4.210035184464    1.736961660750
O     -0.123210759470    0.568051306690   -0.780904718784
H     -0.430410367981    1.337191876152   -0.238333322978
C      2.425875767004    2.887115919479   -3.962394639122
C      2.207351534173    1.805056009801   -4.824739912760
C      0.881924153248    1.361931538880   -5.050601457283
C     -0.164434648415    2.028997206252   -4.401412681239
C      0.073262610367    3.105482040800   -3.542154716599
H      3.454201455568    3.228800344870   -3.803685895299
H     -1.193238608811    1.699248680321   -4.573944602467
H     -0.766704461986    3.607443539290   -3.053833345247
C      3.370487549694    1.127570364440   -5.507671461319
H      3.427801800967    0.056655728045   -5.247501493542
H      3.283575089895    1.177450097322   -6.606717087300
H      4.326735311320    1.592167149064   -5.226203648643
C      0.600087762252    0.201570594524   -5.973205049789
H      0.973791019859    0.389535018481   -6.994444272775
H      1.090515431338   -0.724293177727   -5.626007471174
H     -0.479081680577    0.001456824656   -6.044582972374
C      3.726782162289    6.277051069323    1.783294746763
H      4.722240431964    6.035044485986    2.184694571230
H      3.780090256669    7.235411707835    1.246310081552
C      2.683771766536    6.333050228126    2.887810646897
H      2.614791746964    5.369201017907    3.416196349635
H      2.954383990319    7.109706928101    3.621368388743
H      1.694472831292    6.579612011306    2.475124916095
C     -5.465957157679    1.891794739184    2.367156925142
H     -6.001513878638    2.054133892858    3.315269919988
H     -6.223871933628    1.657245067264    1.605015354246
H     -4.786136637884    1.034800829966    2.481576525630
C     -2.392823555941    5.293592653645    2.632109586161
H     -1.875807076157    4.836008289489    3.490473629240
H     -1.793419863883    6.138485642134    2.264154270234
H     -3.372642143801    5.665609671532    2.962079191252
N      1.994904373662    1.346689789867   -0.303010837475
C      1.189366733620    0.406398204466   -0.760804930481
C      1.672795251561   -0.852775602743   -1.294473905248
C      3.066190706811   -1.111978992046   -1.271497281557
C      3.936865256254   -0.130013433633   -0.641596573646
C      3.359916778053    1.077058175607   -0.154801630774
C      0.772144384131   -1.790381628607   -1.848165185256
C      1.247943838041   -2.971300550269   -2.392936691553
C      2.631736245468   -3.233765296923   -2.388263003334
C      3.522726690616   -2.324922964632   -1.837715192146
C      5.323933985559   -0.334491903396   -0.461186486618
C      6.114142273768    0.601563141103    0.186586376418
C      5.529750140764    1.777530821718    0.687455892245
C      4.173372624421    2.011666006781    0.520821008669
H     -0.293473518137   -1.561713411206   -1.843928446212
H      0.553980476069   -3.695850140287   -2.824955662608
H      3.009242323687   -4.164014930189   -2.820349892007
H      4.588252565810   -2.555673587503   -1.845793256982
H      5.783149713601   -1.254106750530   -0.825828740276
H      7.183189028639    0.418095546513    0.316448313335
H      6.140820974426    2.514279457922    1.214278855149
H      3.722816345890    2.923459674277    0.911869453140
