77

C      1.250101960601    3.760609114607   -3.493259938798
H     -3.211455761586    2.340312815181    1.488546245042
C      1.565651033156    4.873906036541   -2.517000671878
H      2.231267496881    5.610428953889   -3.006717025142
H      0.652863853807    5.431899880314   -2.260556508863
C      2.254005486735    4.415996260995   -1.230261889984
H      3.140211827193    3.799444948845   -1.429750380504
C      2.606116560628    5.566932610588   -0.330554110956
O      2.163454852153    6.687765809991   -0.425853113821
O      3.504327619476    5.212566101022    0.629139233108
Pd     0.947373833802    3.271598008603   -0.141976734701
C     -1.329486023958    3.892816440749    0.806408831680
O     -1.044903948641    2.650039253434    0.819037553440
O     -0.501384830877    4.729108005392    0.338386378712
C     -2.657311075566    4.368505388123    1.383483018119
H     -3.051135173836    5.156769174292    0.724289510974
N     -3.598181459001    3.264190879522    1.331077771977
C     -4.841135552108    3.386165901642    0.767964233630
O     -5.295103031958    4.452500205299    0.388277702895
O     -0.284241428346    0.708125649192   -1.028609276840
H     -0.564881962587    1.473408045497   -0.468065762791
C      2.269024791606    3.138296955741   -4.231889242731
C      2.016018513735    2.100538825662   -5.138157948611
C      0.684086425943    1.658484488231   -5.323291929278
C     -0.334161551351    2.282558380113   -4.591700850005
C     -0.062512168181    3.316629342615   -3.691533036729
H      3.301582546792    3.480618887648   -4.104641087096
H     -1.367933580707    1.953097086820   -4.731549553504
H     -0.881605008120    3.787132018921   -3.140563496220
C      3.148892142651    1.471964439454   -5.912700011499
H      3.226422309077    0.388644105711   -5.716295378200
H      3.008233719589    1.580936845047   -7.001864435983
H      4.114855424717    1.929083212690   -5.652914992806
C      0.364465093554    0.548539503756   -6.294534718828
H      0.669480513064    0.804828627844   -7.323866587747
H      0.892327161816   -0.386263094425   -6.037731042426
H     -0.713325725855    0.330105603734   -6.310965668112
C      3.887967336934    6.222780406942    1.577913729261
H      4.892342379232    5.925751050243    1.915144640884
H      3.956074968811    7.190333091647    1.059230770464
C      2.915920888469    6.302592197102    2.743673449451
H      2.824330809736    5.329002006943    3.250300268525
H      3.272045271060    7.041691531455    3.479469294198
H      1.919817060933    6.615905994242    2.398337053510
C     -5.637356856612    2.093900596801    0.669704110173
H     -6.552166916239    2.198755191482    1.272986236436
H     -5.954309572051    1.955468559358   -0.374743136997
H     -5.086463910276    1.203031456458    1.005097737518
C     -2.501310164647    5.000124117818    2.821189118473
C     -1.810568182797    4.012533810966    3.778528431525
H     -1.781754673833    4.428347700175    4.798601459754
H     -2.351186533902    3.053613943073    3.827989163352
H     -0.772173105198    3.801209054617    3.477234687289
C     -1.685148816760    6.301997355655    2.729907392009
H     -0.667579616634    6.128630598610    2.353323311641
H     -2.168921827577    7.027459663938    2.056370260727
H     -1.610397727188    6.767040354771    3.726264782427
C     -3.907018793858    5.333179081825    3.356049201779
H     -4.462072429992    5.975763250538    2.656461712371
H     -4.503469226454    4.423141603144    3.518134784404
H     -3.824534969990    5.858093660163    4.321445872697
N      1.869633927593    1.427638925667   -0.547535281926
C      1.024035069962    0.509559734826   -1.018785374735
C      1.469098954000   -0.739213705844   -1.549367616977
C      2.801438696236   -1.037420370259   -1.523854637004
C      3.724311683193   -0.124048788785   -0.936972349256
C      3.214744050446    1.113657427790   -0.433381978652
C      5.107089499136   -0.413677449086   -0.815751424305
C      5.962977585821    0.477508081774   -0.199286392023
C      5.450842414801    1.686157389985    0.321983847041
C      4.108021711522    2.003194699535    0.210488727168
H      0.714376903730   -1.414803763971   -1.952114450781
H      3.168098371064   -1.985142174646   -1.927059901756
H      5.479200973196   -1.362647737025   -1.210987739266
H      7.026598942042    0.247214492377   -0.105053977511
H      6.122200264236    2.386272701690    0.825346969248
H      3.729515393364    2.939315016909    0.619872537621
