74

C      2.296998958522    5.450696088072    2.680295512129
H     -0.059947135201    4.718283582015   -3.691507186014
C      1.128633511517    4.604674420178    2.235283392040
H      1.618483834777    3.513407540855    1.964240854516
H      0.491994177904    4.280302366307    3.071128557515
C      0.312256203213    5.028854649685    1.077832997840
H      0.629607696333    5.906873827105    0.505668201640
C     -1.170264025934    4.872512024682    1.197225122750
O     -1.725255784135    4.275378825557    2.095903048059
O     -1.804949156175    5.463819811436    0.174142255330
Pd     1.116593234151    3.326475076721    0.291434315515
C     -0.701487054793    2.841028646406   -1.899845592380
O     -1.144305760353    1.890096608629   -1.233607375341
O      0.338979280318    3.530977823785   -1.622051420947
C     -1.454052850934    3.227991390804   -3.183611372999
H     -2.511308540794    3.317895716653   -2.895970210508
N     -1.057143389694    4.538449353918   -3.664432491058
C     -1.887502576140    5.622555194888   -3.574602521812
O     -3.073563997300    5.534076142290   -3.290472461268
O      0.134866636298    0.328870154136    0.324217582479
H     -0.341763467655    1.062046113902   -0.210023062042
C      2.455288063919    5.746383785912    4.040895116242
C      3.505612598993    6.545072003627    4.514521172513
C      4.441645576214    7.066328801263    3.591709144023
C      4.283340365714    6.763170040663    2.231460412300
C      3.232140956107    5.967425231398    1.774579884643
H      1.732618015882    5.347023767208    4.758785548081
H      5.004713056644    7.160387214124    1.511662581859
H      3.141374865329    5.748048188788    0.707178436651
C      3.629730888077    6.840904944742    5.988635011576
H      4.592607674996    6.486604233489    6.394403331200
H      3.585718152534    7.924795888084    6.189922033926
H      2.825751850791    6.360288005821    6.564259316270
C      5.588253592606    7.928647718295    4.056808935172
H      5.231000153304    8.837161962500    4.571049383186
H      6.232850329472    7.395865539132    4.776627931579
H      6.218480791836    8.246808045068    3.213829947117
C     -3.246988395255    5.348863585660    0.115927497730
H     -3.485130049531    5.462233357846   -0.950199960836
H     -3.528976003701    4.339978353237    0.450831123584
C     -3.924721406529    6.414553638491    0.960424605471
H     -3.607333545324    7.423037108121    0.651311838752
H     -5.017065185289    6.347868587346    0.831505275062
H     -3.697490317358    6.280356210550    2.028560552627
C     -1.228652772595    6.966244046140   -3.839583580505
H     -0.289489763265    6.887348179422   -4.407136308305
H     -1.936389112911    7.608131950804   -4.381579869403
H     -1.016405141179    7.446467886273   -2.870290402119
C     -1.350645148881    2.107269408837   -4.253924320371
H     -1.658077547187    1.186230466050   -3.728753242943
C     -2.338796743683    2.368118807538   -5.396498395285
H     -2.355904186285    1.534402295272   -6.114664986329
H     -3.362466719639    2.499477901173   -5.012961483243
H     -2.071750960130    3.284893716961   -5.947252619776
C      0.095710533258    1.908716714630   -4.747847575114
H      0.416515624024    2.813831884166   -5.295984352678
H      0.765366658501    1.829748927440   -3.873704689721
C      0.307213052593    0.678933529573   -5.634653725840
H     -0.255427787482    0.744764695701   -6.579114790333
H      1.370860919193    0.559062722600   -5.896392016189
H     -0.013904376809   -0.242652760806   -5.120653342049
N      2.127756413212    1.424985269688   -0.096917772236
C      1.433050101469    0.285984445736    0.124165926517
C      2.088408594969   -0.965959028458    0.173914262958
C      3.449782448203   -1.018984717881   -0.059954760443
C      4.149512691390    0.163023166061   -0.347892374763
C      3.460442964877    1.372655413076   -0.355856183612
H      1.486707977440   -1.852661171564    0.374989580521
H      3.974854940998   -1.977538326757   -0.037194302379
H      5.219907485310    0.147201731070   -0.557387128883
C      4.161768360351    2.673742959725   -0.635661571998
H      3.641580926506    3.231173492990   -1.430466839627
H      4.171827541645    3.315505042895    0.261193771102
H      5.202655971109    2.504262993716   -0.944393280084
