38

C     -4.260095252379   -1.053091850684   -0.886697939364
H     -3.861927350017   -1.531267467044   -1.786810458705
H     -4.680651863487   -1.688112545701   -0.103702123713
C     -4.461852989078    0.306030164903   -0.874962659183
H     -5.025383072615    0.791967021953   -0.074355577863
C     -4.144246808376    1.136129354017   -2.081838255821
O     -3.670725825003    0.707773643318   -3.107331402476
O     -4.460734087685    2.421396630907   -1.870768464450
Pd    -2.489625328226   -0.129164204235    0.130608710917
C     -2.308199242585   -0.182891836028    2.942897868121
O     -3.224782517480   -0.124449853488    1.982391489677
O     -2.616860341809   -0.260580081042    4.109168832830
C     -0.807307572600   -0.154330444670    2.498767783634
H     -0.389229673826   -1.138852625675    2.785372240636
N     -0.794004390970    0.005525496988    1.058544873799
C      0.006901372121   -0.306568689150    0.042745939475
O     -0.581398564093   -0.313346884243   -1.085697888744
C     -4.199993453501    3.339820945880   -2.949624142741
H     -3.124560058316    3.305825730964   -3.188294986469
H     -4.739953296025    2.994187119379   -3.845985199632
C     -4.644891665903    4.718313749385   -2.509845300910
H     -4.093020571052    5.044742227125   -1.615057247925
H     -4.458698246151    5.445682696850   -3.315138625260
H     -5.720422202420    4.730290642882   -2.275483047906
C      1.472779989728   -0.600188844819    0.170168962327
H      2.039228475024    0.345279283212    0.153634134982
H      1.702975025053   -1.117355344667    1.113509067020
H      1.795178327281   -1.209700693249   -0.684705971468
C      0.015625416366    0.948243181354    3.225081620385
H      0.988810875778    0.967211858331    2.700553008742
C     -0.619932801343    2.335705187834    3.080377260696
H      0.046163129505    3.110887595470    3.491087313798
H     -0.813751867971    2.581731727323    2.024586077989
H     -1.574264171794    2.391269491895    3.628364059102
C      0.287776480071    0.585849587888    4.690205732375
H     -0.649812863148    0.510243012474    5.257601357399
H      0.810581158288   -0.381532021536    4.774225321570
H      0.925242824545    1.352490376381    5.159082310208
