71

C     -0.529639365351    4.639805178668   -2.317112925266
H     -2.212875394648   -0.257546794761    0.518204353218
C      0.523032865962    5.021283288335   -1.372650358816
H      2.501589347343    3.700786425951   -0.551313975930
H      1.447755830196    5.370615042533   -1.839178050872
C      0.420383997014    5.214253729220    0.008913659358
H     -0.523579157678    5.069951942336    0.546219430913
C      1.428136328853    5.999083698411    0.788340686556
O      1.337988698156    6.204210521575    1.975342926412
O      2.438767044559    6.474990589234    0.030492256632
Pd     1.138127430078    3.166480493568   -0.162275264317
C     -1.844346523404    2.662313373039    1.059947667166
O     -0.757582906292    2.253386558533    0.452414611778
O     -2.050330340133    3.820815312940    1.383890563995
C     -2.904256322868    1.573777217879    1.362103306741
H     -3.868718636185    2.085437735490    1.237639926131
N     -2.877980160099    0.496068954248    0.390326538311
C     -3.512032165638    0.589972250751   -0.819677626044
O     -4.212295061119    1.543372746188   -1.124613299929
O      0.021296384448    0.070412290390   -0.243782486839
H     -0.413240005769    1.012352679989    0.041620084394
C     -0.193287833710    4.544697262800   -3.684163976452
C     -1.125908654478    4.182551897256   -4.658674515870
C     -2.452287617508    3.888940037545   -4.256245428372
C     -2.790638743463    3.989720209484   -2.896607858276
C     -1.857690038554    4.369610626704   -1.936853221239
H      0.835189109987    4.760188058334   -3.989759159292
H     -3.802249595583    3.734672484499   -2.574115985143
H     -2.162434572389    4.443834376387   -0.892775690349
C     -0.723239716225    4.099036068621   -6.110396912643
H     -0.875578117132    3.084818653675   -6.517120567808
H     -1.322251968353    4.780429799530   -6.738123961212
H      0.336047936771    4.359803736383   -6.248892916104
C     -3.489708306223    3.473775764880   -5.266786458748
H     -3.659922494314    4.262675654874   -6.019877536048
H     -3.175284101146    2.574822658941   -5.824064819442
H     -4.451083585534    3.252550755132   -4.782731059780
C      3.459598282908    7.220524114474    0.713292702267
H      2.989051189224    8.054506946018    1.258211108072
H      3.930788235259    6.570334700768    1.469180691031
C      4.457454712405    7.706344986273   -0.317269717098
H      3.971786349157    8.357612606399   -1.060395482072
H      5.255866107027    8.282507049363    0.175737001653
H      4.921406458277    6.861387597535   -0.849508621897
C     -3.308955580738   -0.606636212117   -1.737192680070
H     -4.042715920627   -1.391311288472   -1.488637312111
H     -3.485763336517   -0.289609634165   -2.772892304756
H     -2.299090787606   -1.034598185481   -1.644929153281
C     -2.821849342297    1.042532040156    2.835524293018
C     -3.052745708560    2.205066887808    3.819906314565
H     -3.035606422227    1.826406451569    4.854818046683
H     -2.288092605133    2.987841916798    3.724848457998
H     -4.031584771523    2.680397772928    3.648897574353
C     -3.934935441899   -0.003062030688    3.044767937802
H     -4.926099898673    0.426001318595    2.826558877955
H     -3.803276434153   -0.884340715954    2.399652941004
H     -3.939446691449   -0.347779891189    4.091386673913
C     -1.448709602129    0.401920379417    3.122661924477
H     -1.222600625971   -0.439004723169    2.445941409201
H     -0.632482221992    1.134966533199    3.029878009037
H     -1.423935021509    0.003429435132    4.149556485006
N      2.042270251324    1.189663065113   -0.061999945939
C      1.316508031648    0.048872349824   -0.161490396518
C      1.992182613876   -1.210982980644   -0.184096716592
C      3.367941935898   -1.275105646122   -0.085249611744
C      4.083132414587   -0.072838045245    0.039049389962
C      3.392255620311    1.126051380480    0.045036490518
H      3.881524947157   -2.237104727681   -0.095921927275
H      3.926773103639    2.070066551127    0.132647613448
Cl     1.040179310699   -2.655788036387   -0.318185087485
Cl     5.819042566441   -0.083890067637    0.175767132884
