43

H     -2.548293977768    5.526759881658    0.930394547020
H      2.375248129502    3.655047673972   -0.760025676360
Pd     1.067815384333    3.110158357585   -0.200676751918
C     -1.618605088516    2.767175337703    1.423166607584
O     -2.605710425926    2.204116335231    1.856036733899
O     -0.829741306823    2.318815106486    0.493738875764
C     -1.223117030682    4.195420401103    1.915891633723
H     -0.124361278607    4.240537172214    1.990036262098
N     -1.611255841290    5.143821497882    0.863507626965
C     -0.898201031450    5.471154289374   -0.223629575548
O      0.219753265959    4.999738146477   -0.509807210015
O     -0.010203885015    0.077055446630   -0.240695750396
H     -0.471366463484    0.948119050541    0.038779201906
C     -1.492567668252    6.507605852842   -1.148946451731
H     -2.433858927434    6.936546241987   -0.778071659581
H     -0.756171629075    7.312342665607   -1.290869630618
H     -1.663843838126    6.045749102942   -2.133374957068
C     -1.844492024577    4.581322807039    3.272210688273
H     -2.938148993122    4.450787035964    3.167399584952
C     -1.365656325296    3.605364920290    4.356583529849
H     -1.840113540062    3.825534753585    5.324031895679
H     -1.619416697015    2.570618614811    4.092653068530
H     -0.272983268616    3.678780019643    4.496686302089
C     -1.544454284954    6.047060281852    3.649840584738
H     -0.454615334003    6.159915323723    3.800037142718
H     -1.792807138744    6.706283181731    2.801150781009
C     -2.289576021801    6.554655739548    4.886909498271
H     -1.996997758039    6.015578372777    5.801011504682
H     -2.083814521333    7.623223543585    5.058287070924
H     -3.380620372008    6.440262232015    4.770923754415
N      1.990311540764    1.265374270472   -0.044829550817
C      1.294168056886    0.104253385270   -0.139384839155
C      1.983291424878   -1.135175450244   -0.146886335962
C      3.355291607673   -1.166406489112   -0.023949615584
C      4.082177947543    0.036926516672    0.112713815769
C      3.344721572119    1.209651633274    0.090971553949
H      1.381072339549   -2.039766468965   -0.238284281240
H      3.880441532060   -2.126254125065   -0.023945793223
H      3.843771790489    2.173893567594    0.177356125978
C      5.581542643558    0.049980202936    0.265403697049
H      5.968688315208    1.076307896905    0.347117553348
H      5.898546209618   -0.500610233939    1.167079468156
H      6.077490293296   -0.427638510962   -0.596165227427
