68

C      1.594238908151    5.809001464544   -1.221472498800
H     -2.730293979925   -0.271260910783   -0.717519544305
C      1.225689900152    5.405947315690    0.143058053074
H      2.191173368275    3.489696764892    1.083691167379
H      1.945058570159    5.670805253993    0.923663227189
C     -0.026274939062    4.990944099657    0.586949054911
H     -0.882100118158    4.938135806929   -0.090717639017
C     -0.345509436312    4.978199870567    2.050050000101
O      0.423853953695    5.254714779974    2.944425391954
O     -1.618542169246    4.604049395272    2.218623182501
Pd     1.010362503291    3.101613120763    0.218638313059
C     -1.856376183847    2.741088825542   -1.231575384686
O     -1.997224090660    3.892773509219   -1.614028900522
O     -0.753638221096    2.247131441881   -0.745334966123
C     -3.018491172224    1.724170072214   -1.403511726372
H     -2.805956102259    1.231740709145   -2.369130797811
N     -2.991911503272    0.656257647849   -0.409244544268
C     -3.088162387791    0.875564549922    0.937652756300
O     -3.293569861052    1.982676960243    1.410669069685
O      0.024716098548   -0.007882736052   -0.149478309330
H     -0.406674990969    0.920508530873   -0.386504643670
C      2.854716079042    6.403383489042   -1.425406255542
C      3.276057245289    6.853235543852   -2.680223845374
C      2.405087238932    6.701569083181   -3.785517382303
C      1.150209691416    6.104499190544   -3.581130566460
C      0.735758830785    5.660372853419   -2.328129867610
H      3.525669656124    6.521611751711   -0.569028393175
H      0.476204761011    5.985279960668   -4.434108774476
H     -0.243285687066    5.188174906631   -2.211855693844
C      4.633566331482    7.490426460567   -2.848159016035
H      5.256838244239    6.936902355119   -3.571079425996
H      4.554311363043    8.522580360769   -3.229988759584
H      5.179699404010    7.527854237016   -1.894483968159
C      2.813357443235    7.171830989425   -5.158049481255
H      3.028112252916    8.254258455396   -5.168999868121
H      3.733007944093    6.668800933070   -5.503188828861
H      2.025096251434    6.977899772275   -5.899446003454
C     -2.121259822400    4.399560663907    3.550007020063
H     -2.834774409473    3.571634745781    3.438521257017
H     -1.289115540386    4.087404127951    4.198948474100
C     -2.786151472841    5.656113284972    4.086507703303
H     -3.586035223144    5.995474813064    3.410192567093
H     -3.233956281970    5.450916122172    5.072445779031
H     -2.054818429003    6.470117163348    4.205955338677
C     -2.881976989671   -0.357952125821    1.803412323441
H     -3.330632409070   -0.180101117860    2.788758307588
H     -3.318673835347   -1.264302039365    1.355778491055
H     -1.800395169649   -0.527464137325    1.929887369203
C     -4.376708916163    2.421908248325   -1.505810655421
H     -5.162049950310    1.689061306587   -1.747643608706
H     -4.622069741013    2.909859098266   -0.553330832438
H     -4.341552089826    3.189118545113   -2.290301046177
N      1.986051781249    1.195429155206    0.015076003104
C      1.329087676123    0.032629845278   -0.069991114783
C      2.032844574894   -1.232646674390   -0.068963742836
C      3.454790507752   -1.227970135542   -0.004871375257
C      4.111200438613    0.037431667999    0.048928098733
C      3.363294690291    1.180183704607    0.058532655969
C      1.332876434606   -2.461566106267   -0.138527166475
C      2.027302169939   -3.657350564068   -0.135145536471
C      3.440029754875   -3.658277273492   -0.067082967013
C      4.142044213820   -2.468939462810   -0.004697587620
H      0.244187109450   -2.442453009400   -0.193480746538
H      1.486223025083   -4.605120973835   -0.186487978181
H      3.979530824322   -4.608953880247   -0.065570347288
H      5.233800836665   -2.470004870631    0.045512820996
H      5.200168751190    0.097655447642    0.087801544175
H      3.838059455932    2.159016793101    0.104736685622
