39

Pd     1.283598180150    2.964929677258   -0.637357884277
C      0.508178981178    5.666228571741   -0.598834644213
O      0.887843019421    4.717879900969   -1.429034361884
O      0.328474022196    6.816042735803   -0.926807472526
C      0.311884323296    5.182480031382    0.864127370093
H     -0.645003406975    5.622581341205    1.185900172365
N      0.207602831563    3.722131519022    0.848954663969
C     -0.742505444680    3.024890465251    1.485395579978
O     -0.981795416033    1.818707523084    1.280687216843
O     -0.057747168740    0.028827720050   -0.176282941517
H     -0.442635628589    0.860895317580    0.315003877364
C     -1.578456050315    3.742739105927    2.536798757911
H     -2.061421369089    2.974735626213    3.153302140049
H     -0.981295495723    4.412638324301    3.170890403451
H     -2.366384812862    4.339934460172    2.049215200705
C      1.412082374086    5.722402592888    1.782816242838
C      1.647341779758    7.107176897331    1.838804242443
C      2.631164659290    7.623273457569    2.683797222764
C      3.394242304660    6.769003669800    3.487838131146
C      3.164269063334    5.392908942401    3.438408014232
C      2.178524531589    4.872274657437    2.591500663627
H      1.064525168985    7.771792892928    1.198098611461
H      2.803547633463    8.702372921835    2.713972846256
H      4.162845378657    7.176172070497    4.149829085931
H      3.751870040057    4.715418772473    4.063927651030
H      1.999403128470    3.796012729266    2.561002762644
N      1.966435586577    1.115045933722    0.017528005540
C      1.238747279252   -0.028843048668   -0.052714963259
C      1.887085872754   -1.286633545101   -0.011070007904
C      3.260811088921   -1.375874339103    0.156656758123
C      3.985424300860   -0.166360831250    0.291047372625
C      3.308075295328    1.032215144989    0.218108951956
H      1.256532005543   -2.173212516193   -0.093747077765
H      5.065508743951   -0.168713767851    0.448157476625
H      3.835587719080    1.985480257663    0.312054663704
C      3.968040332024   -2.702441098308    0.215408914522
H      4.512698117545   -2.812974518861    1.167480316008
H      3.267514258490   -3.543310587689    0.118487955140
H      4.715316321354   -2.780163701374   -0.591626179069
