72

C      1.667561260288    3.986674732885    2.471988344331
H     -2.289447552306    1.652515253327   -3.532051351473
C      0.864363191123    5.250495634380    2.170030755073
H      0.309432958486    5.571757759452    3.066686370703
H      1.550590226470    6.058427417594    1.880131537643
C     -0.071527839157    4.895032978720    1.015969144147
H     -0.012836476849    5.535903717110    0.128720445059
C     -1.480151621295    4.606843645542    1.418942622521
O     -1.831840952518    4.310753346577    2.546119749997
O     -2.342815857272    4.702007411926    0.388446196052
Pd     0.798457563520    3.122019587713    0.456007074903
C     -0.542846648320    2.767962141968   -2.122525728465
O     -1.202526149708    1.843222524912   -1.600281664626
O      0.336868123182    3.472754752048   -1.539393971737
C     -0.755987084114    3.086652650352   -3.614700289914
H      0.222565720978    2.943920632396   -4.102091674885
N     -1.656738472837    2.098233819508   -4.187794063171
C     -1.452690533657    1.557408632391   -5.422433602571
O     -0.570265940415    1.941032640041   -6.177435629174
O     -0.189484665269    0.062521652229   -0.096011592757
H     -0.597621653393    0.879472632114   -0.562457298192
C      0.989053620312    2.795166366595    2.843113439412
C      1.693938489693    1.638203686410    3.269562557990
C      3.096093199136    1.662050919840    3.302382608313
C      3.766597919762    2.842176627453    2.904055423275
C      3.083095368621    3.975228615056    2.490312985653
H     -0.094319709731    2.831980340672    2.985383059331
H      4.859900877139    2.858217161405    2.932449577241
H      3.632204226376    4.877533542757    2.209095632888
C      0.925231671100    0.417852678857    3.706361224172
H      1.192767459013   -0.465558092257    3.102737537282
H      1.146421693727    0.158278724245    4.755608729232
H     -0.158774062349    0.571453075105    3.614815658488
C      3.884248046926    0.462935808907    3.765356752949
H      3.633248416060    0.193607741798    4.805333739468
H      3.669108173160   -0.425084912252    3.148604451262
H      4.966017182686    0.646949716521    3.712249138087
C     -3.723687555822    4.369565191277    0.635720948427
H     -4.020506143734    4.788476588227    1.608751148788
H     -4.275191676963    4.888377320460   -0.161681991489
C     -3.963925569245    2.869627122263    0.586104438500
H     -3.466036256030    2.367003361246    1.428094832343
H     -5.044326940463    2.663492852574    0.654109485207
H     -3.579112726791    2.442290061077   -0.351871241228
C     -2.424476024304    0.457562159610   -5.821023424745
H     -1.852476299800   -0.378462826514   -6.248659452240
H     -3.046370260859    0.092684342967   -4.990475931886
H     -3.083493603191    0.841262947310   -6.615900644303
C     -1.190399481739    4.526521092238   -3.898016806149
C     -0.950259683041    5.058688316670   -5.175854159165
C     -1.373204313913    6.350572589611   -5.497806960457
C     -2.040539010486    7.130747933759   -4.548087692327
C     -2.280214584092    6.608066202441   -3.274678730392
C     -1.859545109078    5.313609066758   -2.950717164936
H     -0.441677678267    4.440320999925   -5.919173249832
H     -1.177293859562    6.750776390417   -6.496274201839
H     -2.368218713139    8.143264637493   -4.798698828633
H     -2.793641025584    7.211845875219   -2.521252280036
H     -2.037144820436    4.935670591893   -1.942327493347
N      1.809494723577    1.220702225538   -0.065320853970
C      1.121607748004    0.058731598804   -0.110345160333
C      1.802653848348   -1.183747222829   -0.150041822862
C      3.182677041253   -1.200959524612   -0.187515142880
C      3.885326186270    0.019506786830   -0.188924480122
C      3.152227076061    1.196747532926   -0.127269086448
H      1.206294287372   -2.096178953215   -0.176860019505
H      3.724682518211   -2.148215901094   -0.236806869705
H      3.654251384123    2.165801413021   -0.114776791240
C      5.387663723361    0.043836204922   -0.175158861902
F      5.874279750973   -0.207767497295    1.061813347719
F      5.906174712598   -0.892023414076   -0.987549583409
F      5.876386117714    1.235823279431   -0.551692993862
