71

C      1.392735133222    3.558082529008   -3.277781073363
H     -2.921135193502    2.242545421561    2.096575213620
C      1.673543941025    4.712032041772   -2.338847976314
H      2.336461025107    5.440971786563   -2.843665853013
H      0.747535021461    5.264421656848   -2.120747834332
C      2.344155991698    4.318820386063   -1.022639809794
H      3.257762010504    3.729974330839   -1.177754155563
C      2.626343222742    5.509148737419   -0.147993064290
O      2.173603901680    6.617381434900   -0.314288517635
O      3.464280484359    5.203243969356    0.878690398455
Pd     1.060752507350    3.160467575796    0.074967034396
C     -1.224238172159    3.753832767413    1.017821292925
O     -0.940595230090    2.513611083196    1.040473952873
O     -0.410391109482    4.599716069492    0.545821440538
C     -2.534278875730    4.244618694103    1.594380551173
H     -3.055099838675    4.864589846843    0.846319328528
N     -3.371339749194    3.147059163597    2.009817701670
C     -4.720032495387    3.290660298230    2.164378578775
O     -5.284160569402    4.359786830609    2.000502419342
O     -0.097588458480    0.558369059129   -0.763241901316
H     -0.399120982800    1.324165436018   -0.212966466474
C      2.436127832506    2.900754387995   -3.948917770370
C      2.212853323544    1.824940991444   -4.817847367231
C      0.886539408614    1.380861064158   -5.036530847251
C     -0.155924104957    2.040698366049   -4.373809192076
C      0.086518393402    3.110980540840   -3.508160983802
H      3.464995821211    3.243370161431   -3.795813639315
H     -1.185411576214    1.710165410912   -4.540702736079
H     -0.750453001453    3.607382758950   -3.009097389163
C      3.371819250572    1.155120216560   -5.515270793947
H      3.433140165687    0.082286766277   -5.264054039839
H      3.276135228012    1.213534051111   -6.613165248569
H      4.329400061792    1.619297872926   -5.237674658827
C      0.599637328630    0.227132308102   -5.965862670515
H      0.964699630846    0.423863411730   -6.988579646873
H      1.094760209020   -0.700372541781   -5.629871830980
H     -0.479667676797    0.025283362764   -6.030099942721
C      3.745273657324    6.243618002195    1.831220956644
H      4.731917123728    5.988195373929    2.245763430985
H      3.817553722483    7.203431781367    1.299030987893
C      2.686819984369    6.307234540920    2.920572604082
H      2.598232884032    5.341534661190    3.442658240714
H      2.956477052024    7.076638366561    3.662073629358
H      1.706945853899    6.568447463983    2.494621343725
C     -5.470451775873    2.029954201203    2.566301166313
H     -5.933604253520    2.194476066143    3.551417287514
H     -6.288259446611    1.864652770761    1.849208009307
H     -4.839167007793    1.130402272199    2.612444189194
H     -2.291614670141    4.933797058347    2.425848611383
N      2.025345685555    1.331550928752   -0.298453661513
C      1.215030423559    0.395209664737   -0.755790971164
C      1.692718287206   -0.860460643781   -1.302539167726
C      3.086120859781   -1.120698035879   -1.293625352360
C      3.963025489863   -0.144069802900   -0.664021662469
C      3.391279469338    1.059754638689   -0.163326662146
C      0.786601906827   -1.793497428365   -1.855020281659
C      1.256793083589   -2.970744243556   -2.412450037751
C      2.640395012312   -3.234082244427   -2.421833511226
C      3.536812245106   -2.329799374765   -1.872583334281
C      5.351386793620   -0.350997488948   -0.496805513254
C      6.147724550412    0.579417925960    0.151580595488
C      5.568508502179    1.751842692490    0.666597461182
C      4.211001657112    1.988436765179    0.513005007389
H     -0.278786846355   -1.564219889797   -1.839762108238
H      0.558577430811   -3.691740023140   -2.843557985030
H      3.013455732293   -4.161425317271   -2.863908918633
H      4.602060311382   -2.561179540348   -1.891660487283
H      5.806788126165   -1.268144278638   -0.872280861874
H      7.217656182828    0.394119576894    0.271126547615
H      6.184561680679    2.483742395207    1.194378769165
H      3.764211447769    2.897176668353    0.915499049412
