41

C     -4.240077822430   -1.059902885618   -0.941735929928
H     -3.829590726612   -1.511267880060   -1.850117016549
H     -4.671764290420   -1.717685274837   -0.183992447637
C     -4.441514493571    0.298414346683   -0.892522240541
H     -5.015430266527    0.760861824862   -0.085437677628
C     -4.108044985323    1.163460874605   -2.070254138975
O     -3.617173971871    0.765765489783   -3.099917985149
O     -4.432545136210    2.441081397477   -1.827833438471
Pd    -2.482231774421   -0.168794698045    0.124850178768
C     -2.336044343762   -0.285340027395    2.935250000553
O     -3.241909781878   -0.193690367636    1.967524853777
O     -2.654820439328   -0.408481953979    4.095359194888
C     -0.831841807412   -0.239332675975    2.513855923334
H     -0.409262507421   -1.222158462350    2.793846081526
N     -0.797515494551   -0.063933136019    1.074448315774
C      0.013684808291   -0.358449892558    0.062832233308
O     -0.563503070772   -0.344786490981   -1.071968217462
C     -4.158228237251    3.390698765412   -2.875844169967
H     -3.079395497380    3.365493266373   -3.099809464250
H     -4.684467401894    3.070134840529   -3.789530456427
C     -4.612403987098    4.755123203983   -2.402949262684
H     -4.074158620332    5.056426081227   -1.491207503796
H     -4.416131812947    5.505794853406   -3.184097435805
H     -5.691234431104    4.758482322208   -2.183930357730
C      1.478118267679   -0.653962964546    0.199923380222
H      2.045705645169    0.290588825380    0.171789330713
H      1.704497930073   -1.159208879190    1.150389749715
H      1.803029674239   -1.274374842869   -0.646232435408
C     -0.046682110852    0.879721543966    3.233203557454
H      0.967236352499    0.896426029126    2.792468855808
H     -0.511384090626    1.843568125192    2.963252325643
C      0.086726962982    0.784367425031    4.765606885898
H     -0.926809452462    0.833615202746    5.192469868534
C      0.887058792890    1.987850326159    5.281329429340
H      0.425139249724    2.941715292893    4.978158759962
H      0.946721940077    1.980889283937    6.381468727246
H      1.920672872899    1.979765702896    4.892293342378
C      0.716183554900   -0.535960063773    5.227364459066
H      0.872554710670   -0.531261710919    6.318061748552
H      0.069046824882   -1.396788429815    5.000071374672
H      1.700606314570   -0.704317298052    4.754447095370
