56

C      2.020695397481    3.212152827819   -2.379597769422
H      2.849436145264    2.502549516251   -2.442121645239
H      2.247246987200    4.280306137307   -2.369256339465
C      0.736488946108    2.772648336947   -2.605244776576
H     -0.083533928087    3.482208757621   -2.741146945638
C      0.447689871764    1.335308447977   -2.936820625235
O      1.295211556099    0.482617935802   -3.060660006857
O     -0.863749398539    1.145478923244   -3.080238233484
Pd     1.002823892771    2.988305843660   -0.387713954386
C      0.058900123308    5.520962532629    0.455759945125
O      0.185120308347    4.792533475705   -0.635823310740
O     -0.307842834766    6.675559935564    0.443134334714
C      0.441673592359    4.801624178366    1.774757476698
H     -0.302540151695    5.117216558933    2.517572083631
N      0.331183568420    3.352575168037    1.531473365046
C     -0.488297674596    2.601290353132    2.221134071739
O     -0.795367222297    1.382949732617    1.912006517700
O     -0.007365560642    0.121248352361   -0.057329414948
H     -0.454578461319    0.960919465197    1.006231840834
C     -1.314105102447   -0.213522419915   -3.267252035812
H     -0.744079662075   -0.663453004723   -4.095199949420
H     -1.075710063000   -0.768222499269   -2.346311255827
C     -2.801504452217   -0.179111053813   -3.544400977850
H     -3.023400268034    0.396763262170   -4.456223321064
H     -3.176963286284   -1.204729098566   -3.684267106603
H     -3.348421430343    0.275789055656   -2.704570743376
C     -1.205121041095    3.079330547724    3.464576888227
H     -1.623179275768    2.204194873722    3.975908410847
H     -0.545347200789    3.627299713075    4.147878375045
H     -2.037100488701    3.745757167691    3.184109201170
C      1.844039265462    5.275732068420    2.319083652639
C      1.674675844661    6.702150192275    2.879571955660
H      2.642475224884    7.084626081502    3.241605302412
H      1.284896361895    7.389001724195    2.116008236864
H      0.972056492854    6.712682100443    3.729258012975
C      2.307294012232    4.341400150713    3.451335454868
H      1.587189045924    4.323309986198    4.285219692583
H      2.452604679888    3.308457541308    3.100533865147
H      3.266516798677    4.695848902534    3.860949910497
C      2.919170133037    5.299512510259    1.216200677205
H      3.069538921875    4.305361593599    0.764288800813
H      2.663679478951    6.005656332496    0.411387557917
H      3.886021881817    5.613202318027    1.640592977987
N      1.997236900999    1.200890110143   -0.058506571358
C      1.255302747536    0.041222009982   -0.039932520897
C      1.966716491103   -1.203929894038    0.011006334654
C      3.336392787534   -1.226942455435    0.089623553636
C      4.057825866910   -0.007373344230    0.115918215527
C      3.341847555043    1.171116677380    0.031616461346
H      1.369973909178   -2.116476647138   -0.003938153556
H      3.872901994714   -2.178110586985    0.133924751050
H      3.858037328499    2.133334772401    0.027667697788
C      5.551723064810   -0.004307365714    0.244340317629
F      5.952744742753   -0.439067150418    1.456221154870
F      6.129112208128   -0.816448356063   -0.660953517542
F      6.071044254410    1.226275215624    0.073961798398
