74

C      1.631626158371    5.844992991984   -1.110668404557
H     -2.770639244828   -0.112752656373   -0.533283925330
C      1.301437951460    5.411587191770    0.254403403145
H      2.234146847654    3.437406370037    1.106960846073
H      2.056952613937    5.631221549323    1.014659988691
C      0.053581632939    5.021931073844    0.732909233792
H     -0.828878391100    5.014612941640    0.087872024896
C     -0.212385252768    4.983134673770    2.206163269467
O      0.601893712114    5.191943718098    3.079057990872
O     -1.497515735858    4.675871605267    2.411592016297
Pd     1.018466179150    3.118024420626    0.261259638214
C     -1.900144933478    2.873058600743   -1.111961987013
O     -2.041010416311    4.052889530201   -1.397629030898
O     -0.787764885254    2.343943193562   -0.688842136094
C     -3.058396322951    1.846833344062   -1.314749857680
H     -2.794987321909    1.308340685130   -2.243110577377
N     -3.033636909944    0.828106064915   -0.270034197415
C     -3.124912939286    1.115736685597    1.063191330494
O     -3.349490060273    2.243760247849    1.473862124380
O     -0.062294028130    0.045672236478   -0.125384398205
H     -0.465466777853    0.981194128883   -0.342785219809
C      2.903193435390    6.402765685555   -1.346651824382
C      3.291126151074    6.876741080522   -2.603379016795
C      2.373395059158    6.788702112520   -3.677361409193
C      1.107133941127    6.228508180363   -3.441162174599
C      0.726385567783    5.760370296381   -2.186262234234
H      3.610336530419    6.471984868206   -0.514355998488
H      0.396757996152    6.159037541572   -4.269753236057
H     -0.263566855744    5.319331470955   -2.044156789880
C      4.662314739511    7.473259129423   -2.805987025529
H      5.237736141601    6.922163191392   -3.569303303372
H      4.603908311424    8.518839723873   -3.153444463700
H      5.245863613081    7.462877925714   -1.874043394755
C      2.744450755028    7.287508339197   -5.050363417145
H      2.995161384606    8.362146228202   -5.037602391961
H      3.632642221567    6.765647364015   -5.446152759831
H      1.922253517003    7.142555733272   -5.765605340599
C     -1.966132713559    4.472604091713    3.754685470482
H     -2.749962497760    3.710317760912    3.646920746160
H     -1.140219197640    4.072605395293    4.362397265510
C     -2.505811096469    5.760780514063    4.353463243535
H     -3.298884990033    6.185400900899    3.718592947613
H     -2.933184724232    5.560466744722    5.349408067032
H     -1.705912464399    6.508038546231    4.468583003243
C     -2.893225396318   -0.067175190880    1.990545996987
H     -3.292280289567    0.173406219775    2.983680425031
H     -3.364636556278   -0.989224435062    1.615979413233
H     -1.809695794078   -0.250772254644    2.072229177082
C     -4.438890459959    2.526021182581   -1.546036760412
H     -4.525840756620    3.332973134034   -0.801010436326
C     -4.483978135609    3.148715596838   -2.949987368363
H     -5.398244493812    3.743837450224   -3.093770075168
H     -3.627638479759    3.815416138081   -3.109007784671
H     -4.473040573176    2.364016006659   -3.728584193564
C     -5.606368067123    1.544431354962   -1.326427062188
H     -5.511107912199    0.697632810662   -2.033761597308
H     -5.522858653108    1.108094577286   -0.319871883104
C     -6.996974189503    2.169622871010   -1.465214164833
H     -7.204522313262    2.515494908087   -2.489878475149
H     -7.781572987454    1.442132646659   -1.201320673364
H     -7.109822583102    3.036787762766   -0.792888752331
N      1.946094629847    1.199376955889   -0.056897298357
C      1.251900237541    0.041584514439   -0.131887681330
C      1.907063220898   -1.223610612932   -0.211222925444
C      3.292435896953   -1.231986917908   -0.245361606462
C      4.011078459830   -0.025561064568   -0.203250358831
C      3.302580836503    1.155435336330   -0.105545828830
H      3.822746289294   -2.186076507657   -0.313775206325
H      5.101137999886   -0.007407793739   -0.237368214086
H      3.813726032104    2.116472655476   -0.057784388789
C      1.070397343146   -2.470581266464   -0.270005751374
H      0.437427698627   -2.567621300821    0.627318307634
H      0.384078791036   -2.444828857064   -1.131995862264
H      1.701646641457   -3.367158302392   -0.349831099593
