75

C      1.591269437487    5.856668835426   -1.198028891128
H     -3.033038040453   -0.172029386984   -0.529698867922
C      1.306198047292    5.467417728612    0.189236449072
H      2.254409417327    3.530389222674    1.116494670431
H      2.085184400215    5.714327526403    0.916769038437
C      0.078180158936    5.082109656769    0.722367246289
H     -0.825213933894    5.048513006109    0.108115304151
C     -0.133910551948    5.089128243315    2.204915308734
O      0.710473564376    5.334507572849    3.038440315860
O     -1.406763309262    4.774115153284    2.472526460161
Pd     1.041766724022    3.171839669745    0.284945189950
C     -1.888909606346    2.871970681676   -1.033230001721
O     -2.061162961473    4.042102880935   -1.328545031769
O     -0.757984274629    2.351781261657   -0.650124550435
C     -3.037563602503    1.838814230529   -1.223920509259
H     -2.768314821161    1.329342191440   -2.164458000414
N     -3.018577724929    0.787026827927   -0.207844236893
C     -2.973756166342    1.010907664606    1.139296897662
O     -2.962180714518    2.133395079854    1.621209329839
O     -0.010835767455    0.071858352233   -0.090092137478
H     -0.428897460984    1.009600445580   -0.311887490320
C      2.860795929384    6.390975205958   -1.493854906372
C      3.210591837692    6.822332832469   -2.776538152589
C      2.254362891537    6.715609992305   -3.814866245363
C      0.990092662009    6.179671386490   -3.518959579260
C      0.647795678830    5.752411786947   -2.238763974746
H      3.597900840079    6.473241756003   -0.689359360169
H      0.250206604975    6.096165059984   -4.319942223741
H     -0.341637441681    5.327972057822   -2.051063934161
C      4.581969513792    7.391724444557   -3.044449250190
H      5.122643666889    6.807750023626   -3.808620475805
H      4.526115228091    8.426647969968   -3.422869159458
H      5.197212505663    7.400858173592   -2.133244115264
C      2.583718381024    7.168530055387   -5.214026131190
H      2.850485519111    8.239022408321   -5.241553722916
H      3.449990046312    6.621612696221   -5.624342778870
H      1.734848694741    7.015532856471   -5.895677945090
C     -1.805945931595    4.586314926436    3.840347196842
H     -2.551829634072    3.780802984640    3.792454340875
H     -0.935092732368    4.246200406060    4.420464515821
C     -2.383229276031    5.863497194293    4.427158705564
H     -3.223392251996    6.231503345920    3.817904411446
H     -2.755633657380    5.672705491413    5.446743508413
H     -1.617300266394    6.651892628568    4.484978420305
C     -2.878171617057   -0.244744829483    1.990867069877
H     -3.192583536405   -0.005381561122    3.014307232855
H     -3.494663861336   -1.068062725478    1.597661752619
H     -1.828994680576   -0.581427291691    2.008952553007
C     -4.408426986376    2.467023930231   -1.432147286167
C     -5.165868743826    2.111857752441   -2.556789941662
C     -6.444780259531    2.640793395904   -2.761333262364
C     -6.981660370810    3.536835531073   -1.835042167479
C     -6.231570245406    3.899960632215   -0.710285253464
C     -4.954797098782    3.373644614257   -0.508000336139
H     -4.749156507641    1.413959571482   -3.290256921892
H     -7.018162287270    2.353351079549   -3.646728334368
H     -7.979764092104    3.955516707555   -1.989489319152
H     -6.644437995095    4.606064435264    0.015285644008
H     -4.369633009810    3.656075682447    0.367152712932
N      1.984356666165    1.247365676552    0.024574331045
C      1.291969218163    0.077963382367   -0.047085769004
C      1.974991684162   -1.166294900993   -0.070071905185
C      3.351982030711   -1.197498535895   -0.058875447019
C      4.065308092676    0.019840498158   -0.024042381495
C      3.333338366703    1.200786740857    0.021915831887
H      1.369562242120   -2.072207379490   -0.113397235151
H      3.893930299998   -2.144012590551   -0.084833407681
H      3.864236914691    2.151274855125    0.064074414491
C      5.549325687345    0.114093795554   -0.023556746419
O      6.172386135000    1.150542198272   -0.001425223648
O      6.132426129203   -1.099977814420   -0.051521065124
C      7.560113393687   -1.113943074735   -0.051973912997
H      7.955667331207   -0.626914322450    0.852090458986
H      7.855537793290   -2.169981166104   -0.076518836640
H      7.955691261912   -0.585339253906   -0.932389141066
