68

C      3.789848465355    4.837219138357   -0.597981905404
H     -2.810907374043    6.109491614437    0.226157060353
C      2.850613393518    5.189133687516    0.535398073814
H      3.386930480981    5.810098170361    1.276612088902
H      2.022871809443    5.817680306340    0.172238719238
C      2.271188459999    3.979255378212    1.267332198516
H      3.042246143859    3.260038497642    1.578144331824
C      1.422690965442    4.362734068613    2.452402148169
O      0.978170825161    5.472457770135    2.656543054055
O      1.201002975958    3.315233016068    3.271530827391
Pd     0.927651744751    2.963467237660    0.101199798637
C     -1.489256776518    3.600129231516   -0.266230586908
O     -0.577195068007    4.407100221303    0.094582097940
O     -1.198114608996    2.438291443500   -0.680293878361
C     -2.949848074384    4.041584559097   -0.155682043910
H     -3.449347230203    3.225167934839    0.386999742975
N     -3.060438388660    5.231209556944    0.666919907870
C     -2.803644040046    5.139673076783    2.016509665821
O     -2.781414247193    4.064311648247    2.596465435902
O     -0.014966911238    0.069633297561    0.113028659974
H     -0.429496554150    0.947522041123   -0.078804489550
C      5.162633704710    4.656332402061   -0.366699120091
C      6.059752389103    4.301974759207   -1.385008273441
C      5.569027456484    4.117899706076   -2.698930221022
C      4.199062600577    4.302720089108   -2.932309227199
C      3.320330160510    4.657063024428   -1.905765901836
H      5.552015842137    4.807005228259    0.645777107784
H      3.811248818380    4.170656068110   -3.946780783882
H      2.257706380013    4.797307471962   -2.122284103850
C      7.528998748172    4.134816935270   -1.081585198119
H      7.888921133260    3.123893906784   -1.339395894198
H      8.146806682481    4.840994631602   -1.662621877962
H      7.740929421020    4.304970306339   -0.015925100687
C      6.498098070188    3.744518320771   -3.827908699702
H      7.284486470663    4.504256718562   -3.977946395755
H      7.019591364460    2.791637441885   -3.632477205718
H      5.951913624309    3.637896360337   -4.776468129805
C      0.299198293650    3.523777917356    4.376648870289
H      0.622576897720    4.416884215222    4.935123946063
H     -0.708723792720    3.721555827953    3.976772088499
C      0.323820070551    2.278711352573    5.239202089952
H      1.336308570763    2.080840910323    5.625397582147
H     -0.355170952948    2.405573783045    6.096987712349
H     -0.008025767120    1.397054365113    4.669337985614
C     -2.508128651666    6.446693398153    2.720591979542
H     -2.938971271963    6.417562501373    3.730636205877
H     -1.411470568328    6.521898208089    2.817647279315
H     -2.884183595164    7.328725573805    2.181018512279
C     -3.619532002650    4.185381871889   -1.543589542532
H     -3.419023589678    3.227588517647   -2.052946522230
C     -5.137394836742    4.349996469985   -1.407564011255
H     -5.615924830209    4.403359100836   -2.398478917487
H     -5.584220845033    3.504758241393   -0.860569945648
H     -5.388839001721    5.271260530914   -0.858253295434
C     -3.000566997696    5.304398991171   -2.393156591708
H     -3.201187599981    6.302974624041   -1.967639874190
H     -1.909229106878    5.193506949960   -2.493679174961
H     -3.431193681537    5.300451814442   -3.406808357914
N      2.018884470055    1.208327150368    0.017734780750
C      1.306703259896    0.058392845796    0.055213129348
C      1.952024041570   -1.196181339776    0.042451466299
C      3.332203374098   -1.248278284689   -0.044681206093
C      4.061870962416   -0.051625902030   -0.126850011744
C      3.367146646532    1.145471027162   -0.091839489847
H      1.330298675321   -2.090610308778    0.091785735145
H      3.843578220904   -2.213987717384   -0.059516412894
H      5.148782245476   -0.045279699050   -0.215503347056
H      3.886600723293    2.102395326159   -0.155974141447
