53

C      1.994642110767    3.245184527218   -2.359326988539
H      2.841122101909    2.558283409644   -2.437468039167
H      2.190979529275    4.318917901203   -2.333970067829
C      0.721179326493    2.774302763590   -2.584484941060
H     -0.118799082406    3.462569954461   -2.707981287876
C      0.476690730237    1.335344877782   -2.946494663612
O      1.352955901948    0.512555398251   -3.077546274688
O     -0.824443950727    1.105380378655   -3.109174115896
Pd     0.998584990764    2.976900933569   -0.363571737827
C      0.191738145906    5.532275095104    0.508285336747
O      0.219718151744    4.801032907191   -0.588045700923
O     -0.012163110108    6.725208924838    0.514680381901
C      0.466033823350    4.771551341750    1.829735248550
H     -0.325476165440    5.100914925216    2.517648915267
N      0.351681847910    3.324551296113    1.573629331933
C     -0.472083244632    2.569399825939    2.255945396006
O     -0.789482573151    1.358070833684    1.933028407347
O     -0.070968385798    0.152104802955   -0.094378321684
H     -0.475378298279    0.951471886652    1.009707198133
C     -1.222235657795   -0.264891363314   -3.338818070981
H     -0.687726500008   -0.640544221031   -4.225877793572
H     -0.898534335980   -0.857755261762   -2.469728516946
C     -2.724281321721   -0.289463988813   -3.519563725368
H     -3.033238255516    0.327217697728   -4.377855656476
H     -3.059063266540   -1.322993810089   -3.698663671070
H     -3.233929184324    0.085751750801   -2.619190098767
C     -1.185602458905    3.037594860907    3.504838232399
H     -1.592578962095    2.156957905049    4.015841507088
H     -0.530164218958    3.592256196256    4.185277072347
H     -2.027665565628    3.692931768424    3.227348071330
C      1.814738958953    5.239845377119    2.447401464167
H      1.706242988953    6.338186976839    2.481800675617
C      1.989794327492    4.729925199543    3.882556634120
H      2.919155210233    5.111478018766    4.330366309706
H      1.163550412503    5.060722992325    4.531828545036
H      2.036243716433    3.628513197879    3.915483896081
C      3.039759838437    4.927742245343    1.566254884377
H      3.235857645331    3.840863374604    1.590587872128
H      2.802254391856    5.178033255129    0.518383924157
C      4.312057212348    5.683946204454    1.960643597731
H      4.663692495320    5.415191036702    2.969007304358
H      5.133532756392    5.462081233237    1.261104116123
H      4.146854362387    6.773827514260    1.943245512695
N      1.967747568545    1.164695038450   -0.079100542685
C      1.188127937949    0.039652770346   -0.094214328716
C      1.879954222190   -1.225680020296   -0.112726587343
C      3.254361434207   -1.293982893606   -0.060645092746
C      3.992727841135   -0.093914391839    0.003127318172
C      3.317506484485    1.109846059912   -0.018225478793
H      3.762625446363   -2.259058297668   -0.065425860013
H      3.858918605284    2.057290024374    0.007062184963
Cl     0.914735114900   -2.665012039212   -0.194173544766
Cl     5.734543487447   -0.126489177864    0.091110309814
