77

C     -0.534456511818    4.583516493307   -2.300938389937
H     -2.248764490825   -0.231087774166    0.531587210962
C      0.518935088629    4.982299917174   -1.361712625791
H      2.501842248378    3.681264433051   -0.516566594034
H      1.443100901836    5.322820879780   -1.835577246882
C      0.412893598921    5.208139007430    0.013079562650
H     -0.529196884428    5.069845141602    0.554984861072
C      1.421336802416    6.005223838557    0.777014718664
O      1.334669840479    6.232446823562    1.960473465671
O      2.431546741467    6.468977265232    0.009354306783
Pd     1.136619425964    3.153351672408   -0.125232421747
C     -1.835571764642    2.664396660866    1.089594510733
O     -0.764544861285    2.236650589722    0.475193180816
O     -2.023804065072    3.825666221177    1.420084762526
C     -2.916352671208    1.597799916683    1.397381895521
H     -3.871867323322    2.126375583329    1.276508630840
N     -2.919278523954    0.520831902670    0.423059377616
C     -3.569173685913    0.629523559916   -0.777146068381
O     -4.284181728547    1.579091557676   -1.058013104085
O      0.068108418681    0.050959010985   -0.236832244008
H     -0.379562574532    0.966969377183    0.043978906537
C     -0.195538689017    4.455674004219   -3.664184457105
C     -1.127827032997    4.077687796742   -4.633473891070
C     -2.457157739114    3.802400110383   -4.229217636956
C     -2.798239642077    3.935623058053   -2.873194987484
C     -1.864902243464    4.330014767234   -1.919082378258
H      0.835147349803    4.657739382702   -3.971551805422
H     -3.812641641979    3.695204306879   -2.548065456803
H     -2.171528336715    4.428869401203   -0.877530009387
C     -0.721068436364    3.959444477151   -6.081779346430
H     -0.879290625003    2.937700576785   -6.467049995170
H     -1.312969855875    4.631182036631   -6.726544993604
H      0.340580611850    4.209488811435   -6.222260740783
C     -3.495146625466    3.373019018545   -5.233683309186
H     -3.659286045191    4.147248953018   -6.003241798806
H     -3.185988707468    2.460640753842   -5.771878089138
H     -4.458928234074    3.168116524015   -4.747063451928
C      3.453024201837    7.223805703213    0.678647862655
H      2.984621385261    8.066941001047    1.211393113368
H      3.925415851806    6.585747889697    1.444210189744
C      4.449940796834    7.692777785162   -0.360860373704
H      3.963427731786    8.332441322664   -1.113489841128
H      5.249762357460    8.276078935896    0.121480342762
H      4.911882196365    6.839030805720   -0.880732755589
C     -3.312889854088   -0.514482391735   -1.746373210358
H     -4.103721229275   -0.519052047471   -2.506828702286
H     -2.342190020961   -0.357641141850   -2.244930651881
H     -3.278558575625   -1.491456077957   -1.239644509533
C     -2.839531530650    1.064972664066    2.870059199569
C     -3.048647742836    2.231643376594    3.854563690988
H     -3.033357475381    1.853584862971    4.889818825831
H     -2.272733068364    3.002512218854    3.754733114933
H     -4.020760483968    2.721712548443    3.686673647730
C     -3.968500468138    0.037629002757    3.083885565224
H     -4.953335130569    0.481975316112    2.867593246563
H     -3.852953968099   -0.846357249305    2.439220577640
H     -3.975720057776   -0.305779472167    4.130997469344
C     -1.476214340967    0.402889641617    3.153430901184
H     -1.268796047227   -0.443397456691    2.477261142120
H     -0.647746133722    1.120805982086    3.053392931465
H     -1.452966322749    0.005708090207    4.180928884965
N      2.047157868940    1.204993029902    0.031661965322
C      1.369559630322    0.058984901894   -0.118029466088
C      2.049198041435   -1.218747288466   -0.162143546094
C      3.463375572868   -1.250724934210   -0.003646514044
C      4.136240633646   -0.008102032284    0.193042569258
C      3.414573131613    1.151075350478    0.198989799832
C      1.332449818531   -2.424937801530   -0.353106589573
C      2.004048017046   -3.633169699344   -0.390434864045
C      3.409121193977   -3.670127740206   -0.233806971566
C      4.126685986710   -2.503823462489   -0.043336118823
H      0.249804502246   -2.379502161612   -0.473078466581
H      1.450350864755   -4.562987060661   -0.540248558723
H      3.930208641797   -4.630551495313   -0.263249044713
H      5.212351214084   -2.532892192167    0.078704795874
H      5.218376508346    0.022143955015    0.331139105776
H      3.904003540068    2.113482850658    0.338645510946
