74

C      3.953106728598    5.055486692697   -0.103620990503
H     -2.759268976558    5.133798647195    0.821294317025
C      3.058065371769    4.990626587600    1.114999451525
H      3.624360340594    5.365568624409    1.988107709313
H      2.206585374470    5.671391460285    0.990635373645
C      2.528541590241    3.597236705743    1.476725759192
H      3.338461712111    2.864288249344    1.582257434052
C      1.697997409878    3.610686349750    2.721954721694
O      0.974977742906    4.518867244438    3.086451479942
O      1.819882734072    2.459599395716    3.428069728784
Pd     1.126911498832    2.781165527944    0.180764246181
C     -1.620131459027    2.614926571009   -0.913034122564
O     -0.581821885847    1.827346095364   -0.829825704147
O     -2.173750539748    2.970459759786   -1.932538901904
C     -2.173765904632    3.124376858984    0.463103130178
H     -1.631606140214    2.626088233739    1.282289736836
N     -1.951996024525    4.569604537089    0.580587797125
C     -0.809752943324    5.223595474124    0.351942529878
O      0.263560779098    4.681525392750    0.012767501379
O     -0.106333868407    0.229568393629    1.125816416441
H     -0.408756278641    0.876583035473    0.393286888952
C      5.348196767563    4.973011798231    0.022162092356
C      6.210470723122    5.015296829400   -1.083204258881
C      5.658861820837    5.148084450121   -2.378393534155
C      4.265040710681    5.237477447274   -2.504835963734
C      3.420888116905    5.193473162179   -1.393230807200
H      5.783841218443    4.877925088245    1.022541128512
H      3.829232245761    5.347569935185   -3.502434957288
H      2.338769208820    5.266152691960   -1.524655355884
C      7.704814685073    4.929555740638   -0.887848017213
H      8.139075970593    4.068458251428   -1.424519825918
H      8.218606805826    5.826771304135   -1.274012265189
H      7.965441301245    4.827340465525    0.175774009348
C      6.546950571046    5.204161233699   -3.597256530469
H      7.246288692109    6.057119311312   -3.554966616682
H      7.168446684564    4.297241078395   -3.694412464346
H      5.954980703003    5.303455752926   -4.518810074921
C      0.999866739791    2.322374996389    4.596049786085
H      1.146794980043    3.199969618959    5.246078739779
H     -0.060847226075    2.320795029552    4.292610170111
C      1.382959097774    1.031565455075    5.291031614095
H      2.443258947507    1.044894768902    5.587828048380
H      0.772105232644    0.894863949728    6.197230956428
H      1.221155756906    0.165346923419    4.631253799076
C     -0.819985816938    6.720559285088    0.537822251271
H     -0.254723336390    6.943293910670    1.456948063666
H     -0.294334110875    7.190763826235   -0.304729091267
H     -1.831612607663    7.141593050106    0.622020300651
C     -3.681880274368    2.869819723226    0.566011606617
H     -4.068769036581    3.373176406579    1.473390785961
H     -4.138928704236    3.358275676926   -0.310779983633
C     -4.114161901905    1.393137980653    0.599592355628
H     -3.664082974239    0.893468535865   -0.277336643948
C     -5.638370540230    1.296243983387    0.449733260166
H     -5.983419516841    1.774434681338   -0.480878941743
H     -5.969448983679    0.245655752108    0.431387432042
H     -6.152083140569    1.791116880803    1.292592060588
C     -3.642265018041    0.661600345572    1.864183746065
H     -4.004397580775   -0.379176407901    1.867792189779
H     -2.546084408787    0.618982261526    1.947206294867
H     -4.036582631057    1.151074911456    2.772209323806
N      1.965399563037    0.877355465079    0.343186794711
C      1.174771772648   -0.037098667858    0.956724533430
C      1.691643575670   -1.268557572541    1.403168953825
C      3.010184566180   -1.576519096805    1.117469809734
C      3.779628910323   -0.680110755422    0.364311704246
C      3.232157886911    0.541068067490   -0.026348493178
H      1.020737431147   -1.952868972108    1.922958025413
H      3.435345229529   -2.529827091221    1.441766823632
H      4.798980407473   -0.927946824056    0.066275292467
C      3.995694433894    1.486485570173   -0.906149065417
H      3.391228655396    1.752646804808   -1.787022990274
H      4.238993946341    2.429558257039   -0.398146651488
H      4.932883562736    1.025005224904   -1.245433875030
