44

Pd     1.182239662609    3.069688839101   -0.578299401504
C      0.192592947878    5.705327350638   -0.469621570353
O      0.622958051766    4.798088551177   -1.325924806282
O     -0.107562119499    6.833999387387   -0.789585894219
C      0.138507366909    5.214915648457    0.990080913012
H     -0.807593300997    5.583125552801    1.410099527116
N      0.133732993660    3.742885410332    0.972173781503
C     -0.718547299946    2.982238709407    1.661986158133
O     -0.879958949194    1.756255643828    1.475061385017
O     -0.002299518714    0.125256002305   -0.136202521876
H     -0.374089457627    0.920522155894    0.454281247880
C     -1.559481482028    3.630057256738    2.754092319910
H     -1.939303807006    2.825571319171    3.395651303041
H     -0.999272454550    4.355827171653    3.358958893056
H     -2.421584345766    4.149813698477    2.304924264067
C      1.311881042947    5.766668782154    1.829238261325
H      1.214294027772    5.344266695733    2.846211037696
H      2.249027974433    5.350797543345    1.418778348529
C      1.439810033511    7.299020051560    1.928326060166
H      1.625080527035    7.687564349225    0.913026673140
C      2.647697427656    7.658336855400    2.803740314813
H      3.575571367487    7.198802601632    2.424659198504
H      2.803906605640    8.748501798291    2.835549520272
H      2.505793594193    7.312192210517    3.842591964798
C      0.159644486508    7.969944851781    2.442867803656
H      0.320041405216    9.049811837369    2.592599733983
H     -0.663482196285    7.861943690421    1.721212072620
H     -0.157716704646    7.546381693203    3.412726312968
N      2.014761391016    1.222035006766   -0.042668634770
C      1.295065947794    0.092593490255   -0.142339352985
C      1.937886285428   -1.183830696247   -0.279928514566
C      3.298973006900   -1.266372575543   -0.241899075645
C      4.085087255909   -0.089168399541   -0.053718518335
C      3.398027857835    1.158293350628    0.052774556461
C      5.499206644834   -0.117602139459    0.027408331193
C      6.222304236040    1.045915530971    0.211429490263
C      5.541771427128    2.277207189465    0.325200768747
C      4.160460908980    2.336076344852    0.248770360994
H      1.292618584555   -2.055294360431   -0.393973453330
H      3.801032507682   -2.232980890154   -0.338056500645
H      6.008205099747   -1.081425339630   -0.057246025424
H      7.312263008672    1.015536283561    0.273251094042
H      6.108941539462    3.198017749875    0.481383808699
H      3.641111042147    3.291467098074    0.352127935768
