75

C      3.562410092353    5.164995428956   -0.639606765798
H     -2.609145941119    5.988620826562    0.107961940450
C      2.669289458450    5.254904495240    0.578460567542
H      3.156404203988    5.891087885431    1.340330898118
H      1.730336595473    5.769845516655    0.326113746586
C      2.326368257904    3.923637290315    1.247447675010
H      3.208391745245    3.310046949060    1.477359033323
C      1.471290341543    4.114511594508    2.473418330620
O      0.913933850457    5.150679410517    2.770737667985
O      1.369262179990    2.991613716691    3.213594408886
Pd     1.067894905110    2.791088887604    0.088795061939
C     -1.321655465372    3.442855457685   -0.448582941257
O     -0.381771424207    4.272457643873   -0.245667106593
O     -1.078772190950    2.214652680269   -0.632918150435
C     -2.769377531111    3.951935869921   -0.401662619858
H     -3.341428910579    3.126225411414    0.051481299041
N     -2.863154450201    5.086999722246    0.498198131793
C     -2.603511424325    4.897762635257    1.837088826056
O     -2.544681699862    3.778149646185    2.324149414491
O     -0.123442425749    0.272605646990    1.187616791834
H     -0.460482108445    1.025002364931    0.640768023825
C      4.957699927208    5.250529901046   -0.521294263728
C      5.815815139881    5.164473481702   -1.627135649222
C      5.260255113403    4.982093057871   -2.915327649433
C      3.865784033458    4.900095571249   -3.035636572375
C      3.025734399324    4.992207771116   -1.923147530051
H      5.395601996648    5.398087501287    0.471408102950
H      3.425672380164    4.768467669965   -4.028611460431
H      1.941604165931    4.934491342797   -2.052282424275
C      7.309818786259    5.279466377776   -1.442540152815
H      7.840397940650    4.385687697426   -1.814155386018
H      7.723571634811    6.137828471444   -1.999327794901
H      7.574444376011    5.409732970257   -0.383103312769
C      6.144054151421    4.892640834015   -4.135366420814
H      6.747745084023    5.806716860040   -4.270443013018
H      6.859691149996    4.055318421582   -4.064486931488
H      5.549956752517    4.747156087882   -5.049330302397
C      0.436135466186    3.023807984963    4.312376259580
H      0.755222332916    3.800491529305    5.026813676870
H     -0.554829225043    3.309497617032    3.924667283496
C      0.413616780577    1.647317788687    4.944172930492
H      1.412651024674    1.356537187446    5.305767221391
H     -0.279185618947    1.640907113527    5.800243168229
H      0.069077694969    0.893167729782    4.219990328992
C     -2.365987449246    6.151527639511    2.649153189204
H     -2.860130740634    6.043861259439    3.624697831818
H     -1.279769198855    6.223110766334    2.825218060104
H     -2.719524582028    7.067297463680    2.153017346218
C     -3.343560526137    4.255149857805   -1.784651716500
C     -4.318941045140    5.250567838237   -1.949973418135
C     -4.873957550260    5.504948561547   -3.207875351517
C     -4.465992533792    4.765658033772   -4.320443031407
C     -3.502226926517    3.765323878431   -4.163035265147
C     -2.946424278135    3.509694369010   -2.907199217593
H     -4.656724246055    5.823965303642   -1.084621527330
H     -5.632387503087    6.284975986305   -3.314931186942
H     -4.898201865996    4.965397130730   -5.304240353444
H     -3.178139573171    3.176057748445   -5.024799076879
H     -2.203864937538    2.717199098910   -2.794312391581
N      1.987171609278    0.962979999803    0.505580631434
C      1.177957015378    0.066025280709    1.070068978436
C      1.662003155920   -1.169881181520    1.598074828349
C      2.989126261302   -1.471407967764    1.482793042247
C      3.868647176454   -0.573661996648    0.810977502176
C      3.321792215935    0.648908043930    0.311119407142
C      5.242092547939   -0.860139920854    0.606046086035
C      6.050438407156    0.020774853515   -0.085467316463
C      5.500349322588    1.215940733630   -0.599700090499
C      4.165872566729    1.527892493991   -0.407643575752
H      0.939621729973   -1.834854137045    2.071730735772
H      3.383484574055   -2.409206301847    1.883042852967
H      5.645497948586   -1.797150331850    0.999099440061
H      7.107025408352   -0.207386307435   -0.243105638019
H      6.130349333257    1.909692475736   -1.160708675331
H      3.746888350639    2.447645489528   -0.815468586337
