74

C      1.870106553115    3.934237414458    2.424553368967
H     -1.698529390710    1.393432413610   -3.763281304491
C      1.239854956454    5.297745534449    2.139579304966
H      0.747763733745    5.685831754390    3.046414625159
H      2.024360579616    6.006946508609    1.840579537356
C      0.244963446833    5.077386382178    1.002064600151
H      0.372669134135    5.710707267978    0.116632439364
C     -1.182340585220    4.972360864332    1.424938329232
O     -1.552997268151    4.764254146044    2.565962755286
O     -2.037169036613    5.121297379149    0.395574193830
Pd     0.881241258783    3.218779606303    0.413865620107
C     -0.532089212260    2.932571083764   -2.144281482528
O     -1.207084122616    2.013174960927   -1.627978049344
O      0.360872961460    3.617815018060   -1.554514520345
C     -0.753558020651    3.260545158206   -3.634015110342
H      0.213468263559    3.576460507544   -4.049646282332
N     -1.119031002603    2.024973604835   -4.306304989635
C     -0.447335571894    1.548237000128   -5.399304689582
O      0.414564701486    2.184234233493   -5.983305582708
O     -0.338514990064    0.218660376966   -0.074946687930
H     -0.691118859833    1.051763770863   -0.567736579215
C      1.041051852878    2.847151514536    2.808718116932
C      1.584666695188    1.603911496460    3.224848221806
C      2.977155347435    1.432816947944    3.230852995939
C      3.798287491272    2.508551567209    2.819789565826
C      3.270921826541    3.727347326655    2.420675938016
H     -0.025318372325    3.030956177399    2.962930162206
H      4.882932922293    2.369125780644    2.822060729211
H      3.934829093938    4.545638747585    2.129807099221
C      0.660963352621    0.502567489722    3.677797571511
H      0.770028334178   -0.399388917639    3.052396992768
H      0.880014826801    0.194497801154    4.714088606972
H     -0.390875047830    0.816236082077    3.630372394974
C      3.598505529366    0.134145085066    3.678753913803
H      3.368613361411   -0.077132005970    4.737172641571
H      3.212095186717   -0.718977927580    3.097317250619
H      4.690587244225    0.148736253734    3.562454519503
C     -3.443315734653    4.966207512114    0.669305280144
H     -3.685716130748    5.502228189164    1.599382056803
H     -3.939469986253    5.468460412007   -0.173309754878
C     -3.853627461327    3.504863348194    0.759897936663
H     -3.406981523376    3.028935513759    1.644478913293
H     -4.949740294109    3.431889987427    0.847413925151
H     -3.535243861094    2.949511824466   -0.135296079796
C     -0.869756415747    0.160981828988   -5.862334170317
H      0.020001426127   -0.485951026298   -5.892237773747
H     -1.639590377836   -0.305896129002   -5.230567524352
H     -1.247825822478    0.235440734499   -6.893414633061
C     -1.773570503528    4.429632888754   -3.891261933278
C     -1.301125640424    5.706865873414   -3.173326439877
H     -1.953122942012    6.551715665700   -3.450056057686
H     -1.331820643487    5.601762085640   -2.079798182292
H     -0.271064138672    5.969992459227   -3.462897047574
C     -1.819476857512    4.696597597246   -5.407879742785
H     -0.823883365661    4.948897316792   -5.803239649995
H     -2.183298392731    3.818664011629   -5.961903201113
H     -2.500673842028    5.536307137968   -5.622049527113
C     -3.181075604391    4.048276641472   -3.400652315007
H     -3.548483062211    3.140469991578   -3.904911150217
H     -3.200101889802    3.865927991034   -2.316220183987
H     -3.893620639439    4.859982690984   -3.620702263529
N      1.727546901392    1.243493935210   -0.131873678103
C      0.967466318400    0.125481064104   -0.117079887131
C      1.569882557086   -1.157148171378   -0.125546143310
C      2.945714842211   -1.261804582840   -0.195484946134
C      3.721187163394   -0.089398789073   -0.265017811286
C      3.062538458184    1.133131637719   -0.232025000774
H      0.918849915388   -2.031605733982   -0.103139682056
H      3.428007217766   -2.241473233795   -0.219670785586
H      3.622943702769    2.069055174318   -0.274735877284
C      5.222813842682   -0.143236870283   -0.283564722087
F      5.734998270244   -0.157495062677    0.969934561756
F      5.673159319231   -1.250617460611   -0.895283102124
F      5.756280444093    0.920330991648   -0.904729027378
