31

H     -2.529908462664    5.517754467036    0.877191497617
H      2.442891957814    3.681741361482   -0.685205587992
Pd     1.112158064466    3.130786697253   -0.199691522096
C     -1.396568701807    2.711693131537    1.557474197540
O     -1.987179687875    1.975619095979    2.317170258870
O     -0.839098474554    2.371505039961    0.424670827274
C     -1.219612493346    4.210257335755    1.901791066871
H     -0.162259221588    4.383670699871    2.160961277237
N     -1.595907500511    5.127864241415    0.832076978493
C     -0.849393998727    5.475743629562   -0.226131976997
O      0.287591086813    5.027807494320   -0.470536240818
O      0.000884016357    0.109109956130   -0.092827939851
H     -0.452848236025    1.026007217856    0.129830874054
C     -1.429344345907    6.504126944783   -1.168189064680
H     -2.383526143652    6.926430849186   -0.823649061981
H     -0.696344625128    7.314250199839   -1.295449946934
H     -1.571601194158    6.036717891353   -2.154725845671
H     -1.832335895186    4.439422350453    2.782513810605
N      2.018192647234    1.273129915598   -0.060883049887
C      1.297737371980    0.114919749665   -0.077650003031
C      1.965514013337   -1.142102273533   -0.091476323038
C      3.337715364776   -1.200558151959   -0.053372965991
C      4.069534037130    0.004914117932   -0.001408443614
C      3.372795280465    1.198284250907   -0.011128467201
H      1.340428946948   -2.034881297973   -0.119171698272
H      3.854032028530   -2.163389748651   -0.056942185246
H      3.904041403992    2.146407361758    0.015059598279
C      5.570669709626   -0.021339090188    0.059643216802
F      6.007419536966   -0.650986810105    1.167641870489
F      6.093325544703   -0.686274314272   -0.988697219150
F      6.101318294750    1.212037379578    0.061790986376
