83

C     -1.520828014011    3.750550069694    1.912369692463
H      0.806441222625    4.369916533860   -3.928855027367
C     -0.251201922904    4.415720753845    1.561402846108
H      0.383174988808    4.573990741684    2.438861323404
H      1.562489600855    3.008267963146    1.563630814074
C      0.177494169173    5.128908385234    0.432334211101
H      1.093713868425    5.713609196083    0.561462338219
C     -0.606551150290    5.690562457401   -0.715658721028
O     -0.113633395001    6.493902458475   -1.477202883495
O     -1.883639685767    5.304490038227   -0.759750358099
Pd     1.038080698393    3.138576575057    0.138261029677
C     -0.359128093797    2.605083909037   -2.494358793483
O      0.559782986245    3.298759128355   -1.966157087240
O     -1.018647115569    1.716681409304   -1.898432765363
C     -0.674334595340    2.884351797558   -3.974771071656
H     -1.765210480146    3.002478088869   -4.060272523080
N     -0.085263309344    4.153800268570   -4.362787355046
C     -0.837076602916    5.201282964254   -4.820118827517
O     -2.026598637528    5.093619899781   -5.091260404764
O     -0.023461223518    0.199211996557   -0.191799806517
H     -0.414713247331    0.955144863005   -0.806549966766
C     -2.320777309114    3.022770854834    1.011682105197
C     -3.501128440146    2.392763540219    1.413061807745
C     -3.923028023296    2.500659632090    2.761477226254
C     -3.121434243633    3.215919213579    3.662350492198
C     -1.930295632337    3.814854901023    3.256685969891
H     -2.005130014960    2.918235834467   -0.024541282417
H     -3.431629375250    3.292902116819    4.708161747531
H     -1.316082744422    4.347051361559    3.988367105316
C     -4.304652734470    1.603575136098    0.408293162231
H     -4.462337581417    0.564112482273    0.741873379496
H     -5.307352848205    2.039887176903    0.257277989585
H     -3.795192971513    1.570075974137   -0.565065094868
C     -5.197774096279    1.844372772032    3.224926317070
H     -6.070377816053    2.209960380074    2.657337313882
H     -5.166793942992    0.751358000624    3.076480077141
H     -5.384332844078    2.034673601382    4.291695874162
C     -2.755934667427    5.951634095326   -1.715587402513
H     -2.562722257940    7.035072153742   -1.682000446931
H     -2.512664211199    5.601561167009   -2.729656744839
C     -4.186004670428    5.616861778863   -1.346668364220
H     -4.431241148865    5.970045870804   -0.333108634212
H     -4.870534179030    6.100430136644   -2.060739938453
H     -4.362701883373    4.531354295400   -1.387781734844
C     -0.091906191817    6.519042602517   -4.930567598312
H      0.931450000570    6.385776329555   -5.313911904240
H     -0.652949854210    7.192332730553   -5.590741671183
H     -0.026584717476    6.966281866448   -3.924934126566
C     -0.260827188999    1.701503073383   -4.930987612474
C      1.233213936152    1.370484906159   -4.764106944587
H      1.538434508377    0.594815375375   -5.485123155025
H      1.864594778672    2.255475151981   -4.944029316544
H      1.460367982781    0.991176049140   -3.754762861652
C     -1.109764703755    0.450551880526   -4.638029529072
H     -0.955755089079    0.074972897130   -3.618417877768
H     -2.184358004621    0.667633699492   -4.752812188027
H     -0.852037545647   -0.350334781354   -5.350562889282
C     -0.528011675490    2.141329336936   -6.383550990783
H     -1.574868387118    2.453747405808   -6.520489889784
H      0.112848405357    2.986068579180   -6.675174693750
H     -0.324154894154    1.306347957103   -7.073479849218
N      2.008502155007    1.264673879157   -0.127318388284
C      1.277893657171    0.161754309123   -0.100016949365
C      1.886867425106   -1.152515385040    0.067988021558
C      3.297864879474   -1.259335722754    0.153789715783
C      4.088592848476   -0.041505631538    0.036578327603
C      3.401566989831    1.196092123621   -0.105658752433
C      1.071793533425   -2.303052131229    0.144288281859
C      1.644868689287   -3.551803035437    0.320823392615
C      3.044533179977   -3.668492811067    0.417261908183
C      3.855397364631   -2.546353830972    0.333420691393
C      5.501868753213   -0.028521819772    0.055231190465
C      6.217467051815    1.152727743849   -0.063493322960
C      5.531481548889    2.371289563885   -0.208996744679
C      4.145974260294    2.389836007406   -0.229544227608
H     -0.008458574640   -2.180522325294    0.064055417330
H      1.014942951085   -4.442130264458    0.383415703149
H      3.499423909722   -4.652485570842    0.557062518888
H      4.936506892971   -2.666883080159    0.408613956128
H      6.045734849397   -0.967974512587    0.162091935383
H      7.309566529030    1.134191939873   -0.047808553121
H      6.087273902527    3.306515160129   -0.310337602531
H      3.603203527785    3.330354334350   -0.350016015955
