74

C     -0.547770946249    4.626780458592   -2.190346424704
H     -2.072356509168   -0.288373754036    0.458700888902
C      0.548026350109    5.004317385256   -1.292649813735
H      2.595737774702    3.705563689335   -0.513708102342
H      1.448964789091    5.361109595638   -1.798464870988
C      0.506215014042    5.184397351244    0.092256250466
H     -0.405154324925    5.015718012885    0.676504890998
C      1.541797017400    5.970134629865    0.832117127749
O      1.509110244826    6.161127939362    2.024459884017
O      2.508292810686    6.469556001838    0.031405394133
Pd     1.235739636512    3.140280095250   -0.150378876546
C     -1.698979062004    2.565296124549    1.046384145356
O     -0.663618891871    2.179549299765    0.355255901569
O     -1.821816982159    3.666429868600    1.563945141400
C     -2.851696015100    1.544017813851    1.207846936909
H     -3.755995641160    2.100870358122    0.925012232891
N     -2.782479499364    0.416858041146    0.298443329380
C     -3.417269278659    0.414980680585   -0.916813121027
O     -4.181881801685    1.300099808979   -1.268067494708
O      0.213057523921    0.029942562850   -0.468507309101
H     -0.249169026619    0.914618757053   -0.165320014289
C     -0.265252507323    4.481665031108   -3.564436037441
C     -1.239795409100    4.102881433097   -4.491146897486
C     -2.554667652990    3.847229011330   -4.031100239143
C     -2.841779741874    4.009770685341   -2.665847290205
C     -1.866874471102    4.403369644422   -1.754882391690
H      0.755312932037    4.665293228777   -3.914255685782
H     -3.847891528335    3.789624531878   -2.303565754424
H     -2.128846472925    4.522698367181   -0.703262987652
C     -0.891886678576    3.960126106652   -5.952505013016
H     -1.067938216287    2.932645485391   -6.314123605210
H     -1.507833363301    4.622918694142   -6.583739883492
H      0.163892486099    4.204536155849   -6.139551997088
C     -3.634964658136    3.405510537074   -4.983780276083
H     -3.848992116465    4.179028701496   -5.742018366232
H     -3.338954809097    2.498979026460   -5.538329697495
H     -4.568410414734    3.182393596847   -4.448834158628
C      3.553077789913    7.215947670893    0.673479026527
H      3.102288241636    8.035849769232    1.255379105747
H      4.069980657650    6.560199274475    1.394053997137
C      4.491984439585    7.729874576259   -0.398282748213
H      3.961715105075    8.386813321220   -1.105053352995
H      5.308402979960    8.307592279256    0.062480582438
H      4.936665848927    6.898725040947   -0.967461277175
C     -3.090793237745   -0.782975564142   -1.796092652567
H     -3.272967301448   -1.730233037373   -1.263580166601
H     -3.715505806168   -0.743235942872   -2.696508775758
H     -2.027064962484   -0.759334129097   -2.083243796315
C     -2.990893931440    1.121445676320    2.693706862085
H     -2.991868419528    2.072951362833    3.251754118403
C     -4.328661119151    0.413744065873    2.937584723511
H     -4.470300192665    0.170783232791    4.001719989956
H     -5.173627759172    1.048347998853    2.627175940695
H     -4.391006148132   -0.525955484226    2.364521675337
C     -1.782261448242    0.295901592214    3.181607182940
H     -1.814563670644   -0.710300964197    2.721784259267
H     -0.853748211109    0.768016639810    2.816440321086
C     -1.687118363681    0.145356769756    4.702019402297
H     -2.552474607647   -0.392008220447    5.121217686529
H     -0.783352243673   -0.415819687245    4.988812431494
H     -1.636705485871    1.130668354150    5.194079734834
N      2.174305808117    1.197860761501   -0.057253022846
C      1.514097283466    0.038368452377   -0.282916402424
C      2.194400495359   -1.215115357807   -0.339874241448
C      3.562477679065   -1.217792760661   -0.119830603916
C      4.241139644807   -0.017442322415    0.149089415661
C      3.514172986277    1.155732858174    0.165719717237
H      4.109697749837   -2.164260579020   -0.149814330156
H      5.315937762842    0.003246808393    0.333707642645
H      3.996314942762    2.113586960385    0.356898859263
C      1.400370021798   -2.460480408909   -0.617091342170
H      0.618513118369   -2.609274901529    0.145517294884
H      0.879532412369   -2.392858924874   -1.586106271193
H      2.049268151685   -3.347828109952   -0.630038470751
