62

C      3.973357185478    4.859615243887   -0.197776743297
H     -2.981801981368    4.963732342904    1.187812533357
C      3.057229711860    5.070523815760    0.989337740108
H      3.636857353759    5.523092627195    1.815245317960
H      2.268177648292    5.793544579014    0.739444908875
C      2.408626430146    3.781364229315    1.506293008119
H      3.151218742217    2.991300747671    1.675746616777
C      1.622450041021    3.978442660359    2.763481791528
O      1.063304913389    5.000460949657    3.112385595520
O      1.580948486133    2.849462943109    3.514998441508
Pd     1.009398784960    3.007531524720    0.189824657452
C     -1.717857551327    2.857334341339   -0.941970220731
O     -0.596519047126    2.196375729884   -1.060930862831
O     -2.395829386768    3.295544755055   -1.845512577135
C     -2.183007096185    3.098194740120    0.529140223528
H     -1.577722488707    2.508398521925    1.236839972748
N     -2.129479682031    4.513361308972    0.879449946599
C     -1.048084291744    5.287215976301    0.719896289091
O      0.043981968460    4.865445702602    0.287467396303
O      0.029243738613    0.055339252088    0.162057443304
H     -0.331649302310    0.901084746107   -0.280753673409
C      5.343234770653    4.612936444163   -0.016043203436
C      6.218144873489    4.380961869985   -1.087511573364
C      5.706617182332    4.393105897637   -2.406075046846
C      4.339336474791    4.642902921641   -2.589724557340
C      3.482652366772    4.874054119417   -1.510802897196
H      5.748358690340    4.608584552750    1.001515621268
H      3.934192948718    4.659902773126   -3.605760105948
H      2.422142817549    5.067810941160   -1.692264559424
C      7.685491495969    4.133473453001   -0.833330742610
H      8.012280131075    3.157974041339   -1.232939640516
H      8.317276262886    4.895336028451   -1.321739763326
H      7.915023743910    4.149358032248    0.242199266469
C      6.610405514848    4.153574075444   -3.590612518520
H      7.417196690958    4.904647444383   -3.648044933362
H      7.105534876742    3.168607741541   -3.536545462727
H      6.049257031864    4.193437612497   -4.535548142506
C      0.814129089619    2.903178921470    4.723888075158
H      1.174070708391    3.740503712911    5.344047827999
H     -0.238547729793    3.122421697981    4.475662566057
C      0.957563250719    1.571966907661    5.433446088036
H      2.012497317786    1.366809336968    5.672781581705
H      0.385621903857    1.581720923827    6.374638533287
H      0.580998884811    0.747329143327    4.808649598907
C     -1.151903813493    6.737864515374    1.107566187374
H     -0.494938479747    6.881508700292    1.980004530841
H     -0.762711927653    7.356597045526    0.286433047501
H     -2.175881347582    7.052644910060    1.352601707958
H     -3.231598995225    2.782071938365    0.611161076412
N      2.030676482395    1.212068827114    0.029956155880
C      1.343351391799    0.046784935258    0.107647421197
C      2.020417077725   -1.192026901616    0.135357205207
C      3.401934044490   -1.247704093461    0.015486362075
C      4.087882034005   -0.023168486718   -0.140888188148
C      3.376114800895    1.160627903690   -0.124592500108
H      1.410244756232   -2.092186405403    0.224166679101
H      5.171437726531    0.006535321562   -0.269380856418
H      3.883840047011    2.119153225878   -0.235493933881
C      4.147832539864   -2.554859388950    0.028912868251
H      4.862853336188   -2.586649529247    0.867784349419
H      3.467305194858   -3.412461022987    0.125177676728
H      4.733832817265   -2.680914892210   -0.896329049740
