74

C      0.204579404550    4.945025867952   -2.680895653364
H     -2.849469868801   -0.043212617727    0.119942060720
C     -0.084281231270    4.839296165392   -1.246730560097
H     -1.085967054833    4.435322438203   -1.069291131899
H      2.356322559912    3.715158938860   -0.748280745452
C      0.505443041421    5.293500942790   -0.055721533317
H     -0.155128835673    5.232983521880    0.814686935505
C      1.676675426320    6.196877032414    0.153218515088
O      2.446001089578    6.641442207588   -0.670128606093
O      1.769852838748    6.495579666925    1.463580161955
Pd     1.061659666752    3.178324693352   -0.170046600210
C     -1.907294888383    2.845291048586    0.906463023290
O     -2.016169796113    4.009213182746    1.254648007700
O     -0.778609567196    2.278725689156    0.569927460909
C     -3.164420701252    1.941135062583    0.845167272246
H     -3.969862700829    2.622999421595    0.532956410115
N     -3.039408638368    0.908009861957   -0.170224354023
C     -2.923230803162    1.213552056349   -1.494326581225
O     -2.993418921905    2.366019651731   -1.903582048858
O      0.019876923879    0.053641407907   -0.066130865927
H     -0.425194471112    0.976654873888    0.182991995987
C     -0.756923744079    4.361577067395   -3.539010998761
C     -0.637213105234    4.399011306497   -4.930146288073
C      0.483309704785    5.046402305329   -5.502969563535
C      1.439192357406    5.623731307349   -4.650378442813
C      1.319940879244    5.579710300096   -3.264196803021
H     -1.617841644699    3.851230428905   -3.097115464285
H      2.305653553332    6.124953973458   -5.091410612223
H      2.073203728827    6.040224000919   -2.627332435225
C     -1.694213451700    3.758034163698   -5.796109383325
H     -2.185019192394    4.496354926493   -6.453449013998
H     -1.265915614620    2.986090295340   -6.458274162726
H     -2.471862651397    3.283916058923   -5.180590208867
C      0.651124779524    5.116568521254   -6.998587314249
H      0.698763050729    4.109836255466   -7.448238389441
H     -0.200740212632    5.629495553872   -7.477135467109
H      1.568887996419    5.654413927282   -7.276538068548
C      2.837849771246    7.371950291435    1.855587787713
H      3.798561059981    6.920301475901    1.557453066053
H      2.744604969342    8.319090476540    1.299460960742
C      2.747123966420    7.580893023384    3.352931317325
H      2.849040376196    6.626475523375    3.892033262090
H      3.551314467100    8.254724110638    3.687315431041
H      1.781145395941    8.030358731329    3.629736633671
C     -2.664514924197    0.033008228584   -2.414410811904
H     -2.991387294726    0.291111334293   -3.429539003904
H     -1.581859590308   -0.172327277438   -2.432354699239
H     -3.178253973769   -0.881516279813   -2.080761860330
C     -3.557478456555    1.339000151509    2.235612071040
C     -3.846069613917    2.483319152924    3.226331299974
H     -4.156268069031    2.065497019324    4.197734750683
H     -2.966928124911    3.121711958308    3.386309988202
H     -4.658448613036    3.130513357740    2.859905899582
C     -4.843787729016    0.502554870002    2.075791571957
H     -5.658684889507    1.108429343178    1.648268325868
H     -4.702720307307   -0.372927685772    1.423444660306
H     -5.178769982022    0.131772756763    3.057798816623
C     -2.427396466849    0.455149697566    2.801468531575
H     -2.169530033438   -0.385779170360    2.136035948577
H     -1.507007829191    1.034863152218    2.968527514499
H     -2.733113232368    0.020518164745    3.766562851497
N      2.010675995808    1.244980217172   -0.006329238610
C      1.323259642124    0.073746266591   -0.038553512065
C      2.014341364667   -1.168085212434   -0.055133972757
C      3.389112145494   -1.191261058539   -0.005506019862
C      4.091178275942    0.030026283852    0.059483408780
C      3.363200863187    1.206441416873    0.050668408569
H      1.415666176282   -2.078466618033   -0.094366658764
H      3.929374008140   -2.140936484145   -0.011082337261
H      3.871365582907    2.168488349482    0.082825660516
C      5.592813156152    0.038269831964    0.133224778547
F      6.032495161941   -0.573258097538    1.249853237661
F      6.137647557709   -0.622552663334   -0.905655921264
F      6.093556533040    1.283212670159    0.130883188751
