53

C      2.003062636594    3.150575448662   -2.385494598613
H      2.818746902319    2.426557617051   -2.453694961606
H      2.247169088363    4.214562801637   -2.370558979715
C      0.710626112608    2.734368216890   -2.594230241695
H     -0.099458991296    3.456668243981   -2.720118163904
C      0.398616000375    1.304749374124   -2.925665554247
O      1.228903453815    0.434795087792   -3.056253277086
O     -0.917802204836    1.131041700467   -3.062538413135
Pd     0.993993827874    2.959363144819   -0.363200232369
C      0.194230008804    5.536251534240    0.458250684286
O      0.246281364587    4.784009326448   -0.627042076162
O     -0.022246249784    6.726991278998    0.428366582414
C      0.464863517415    4.797587292251    1.789722312180
H     -0.351545161468    5.103622484776    2.460522448564
N      0.419112231284    3.350984640437    1.551493957371
C     -0.432891840746    2.538204045322    2.186333115754
O     -0.707964969149    1.376429048872    1.801432705769
O      0.012752811422   -0.068001669103   -0.054572438157
H     -0.337272856307    0.640602979501    0.645102833872
C     -1.382646976057   -0.216192232581   -3.284853977516
H     -0.839401570898   -0.639885575529   -4.144428259779
H     -1.123802317322   -0.810723108920   -2.394801694961
C     -2.876984918727   -0.162012844328   -3.519591176137
H     -3.118579991875    0.450143142339   -4.402257164219
H     -3.264410104731   -1.178882978631   -3.687988752440
H     -3.397223423282    0.264825309506   -2.648657048604
C     -1.152169618148    3.006604109318    3.444652335274
H     -1.570565628002    2.119837172012    3.935892178461
H     -0.499653146135    3.545758874407    4.142256897244
H     -1.986545403447    3.674450578833    3.173411194123
C      1.782303446872    5.331091023565    2.421308308931
H      1.636838320216    6.424817878259    2.443679343678
C      1.975574961807    4.841088409373    3.859883108545
H      2.899311088681    5.257888857950    4.292544822587
H      1.141095135194    5.147425525405    4.510924589041
H      2.057223945190    3.742122382802    3.899753546867
C      3.027880666351    5.043860193726    1.575050877503
H      3.243560333784    3.963355577151    1.540752039600
H      2.920024115119    5.409693966209    0.541741948368
H      3.909604256354    5.540915242059    2.010187077897
N      1.969532956930    1.133486004476   -0.023250534053
C      1.322037733247   -0.054593827178   -0.047466163409
C      2.051332788284   -1.264856070645   -0.072346584808
C      3.437169997809   -1.262262460150   -0.027577720210
C      4.083443632073   -0.006612456427    0.056565204300
C      3.321552192696    1.143661727671    0.051402529689
H      1.476859902156   -2.191479250369   -0.109604334673
H      5.171054493468    0.066674434739    0.114372718659
H      3.792174141085    2.128525929257    0.094567921059
C      4.236332473454   -2.536911197015   -0.056302508142
H      4.914147146268   -2.596841962649    0.810832332260
H      3.588435285340   -3.424455842544   -0.051472610645
H      4.866492400446   -2.577582369118   -0.960457110278
