46

C      1.978877793848    3.258988568258   -2.392771616449
H      2.823276747791    2.567594701674   -2.449462617895
H      2.182569051210    4.331795406595   -2.376213765622
C      0.705936020443    2.795148170066   -2.633243535361
H     -0.125267612174    3.489933314140   -2.777183102169
C      0.446627013687    1.352555504938   -2.966796221995
O      1.308981576503    0.510788755318   -3.061215913990
O     -0.857385842273    1.143554323944   -3.143073685483
Pd     0.945751707269    3.005154233091   -0.411320620578
C      0.036172338368    5.541595644601    0.418572923080
O      0.129118511225    4.803726289307   -0.670564690809
O     -0.252228853309    6.715373377073    0.414120316685
C      0.363562820144    4.811275307400    1.743849611036
H     -0.410300464264    5.132565833259    2.455299221166
N      0.290097901578    3.358210641736    1.515722693876
C     -0.361931677432    2.571975815007    2.326593144381
O     -0.639989453386    1.330360380123    2.072741071522
O     -0.037188442231    0.134242559403   -0.039299884330
H     -0.420676172546    0.955836282855    1.129119239112
C     -1.284421375363   -0.221333847949   -3.345587139970
H     -0.680036111282   -0.663792437379   -4.152772221074
H     -1.071368669394   -0.774545994028   -2.417376857589
C     -2.761554805035   -0.205390579050   -3.673927309771
H     -2.958360694943    0.366844192192   -4.593685896168
H     -3.119085779721   -1.235670360259   -3.825567796969
H     -3.342958098142    0.243433538583   -2.854269644950
C     -0.892889515964    3.029096481737    3.664754044532
H     -1.102045367522    2.141689580637    4.274480421799
H     -0.190005803622    3.685660574557    4.193391515352
H     -1.838762181477    3.577964518292    3.525226004362
C      1.732511767900    5.259292644850    2.268603293912
H      1.954863388693    4.799330279997    3.243966448690
H      2.535259007445    4.979658448120    1.567453536429
H      1.737168199168    6.353036856236    2.381703864995
N      1.958436959439    1.225840978744   -0.086618110658
C      1.219659872028    0.053575705831   -0.052685241762
C      1.939554724812   -1.190097866200   -0.011740227700
C      3.309264457285   -1.211828762976    0.049951990876
C      4.003019712379    0.018457564456    0.062540436322
C      3.296849933802    1.206084765021   -0.017344502843
H      1.345492730481   -2.104475921963   -0.013880164316
H      3.877062905732   -2.141768587126    0.096191370383
H      3.834910916516    2.155574013468   -0.030428380125
N      5.456970469983    0.057770999257    0.140627427563
O      5.999922012145    1.155568678828    0.140136339592
O      6.045252451961   -1.011757627072    0.202992107585
