63

C      3.981175858910    4.860954835146   -0.191814207794
H     -2.963710515278    4.957663635457    1.171865167039
C      3.067568263531    5.051722941287    1.000645294674
H      3.649246782749    5.489370899675    1.833169585265
H      2.278844847635    5.779701761000    0.764740667692
C      2.418700482353    3.755081682928    1.497598022556
H      3.160686778966    2.962453283786    1.656496825725
C      1.627073587673    3.934110198895    2.753940125463
O      1.065297369132    4.950792658385    3.114383892845
O      1.582942735515    2.794862975791    3.489497552422
Pd     1.023219694982    2.997585786609    0.167759743005
C     -1.696348711820    2.871570085308   -0.978872791740
O     -0.581669703537    2.199098978222   -1.096282745181
O     -2.359926586846    3.331274107975   -1.882365373116
C     -2.172419359234    3.096913322299    0.491187604642
H     -1.577102976617    2.494448021512    1.196616926654
N     -2.113006991945    4.507413499716    0.858915026684
C     -1.028036600983    5.278527229404    0.711421677568
O      0.063587305486    4.857925812490    0.276461865842
O      0.020554736430    0.066961048723    0.148765036462
H     -0.332594972550    0.911180282699   -0.306059063587
C      5.351827374351    4.613745565726   -0.017556564986
C      6.224340741484    4.400891339185   -1.094868257796
C      5.709511045701    4.433972801492   -2.411743433670
C      4.341400751125    4.684449348355   -2.587870211217
C      3.487080889873    4.896244288159   -1.503160090552
H      5.759444228963    4.592851416560    0.998790911179
H      3.933617298621    4.717258901402   -3.602463810838
H      2.425776030805    5.091018084452   -1.678648865872
C      7.692556451842    4.150799600029   -0.848423475363
H      8.018910408533    3.181786846927   -1.263877770523
H      8.322570462418    4.920595406413   -1.326583457057
H      7.924826291275    4.150095794115    0.226636126163
C      6.610602045768    4.214877595887   -3.602285897634
H      7.416766444871    4.967337997386   -3.649274537504
H      7.106421648698    3.229457078009   -3.565775656451
H      6.047082416889    4.269960276840   -4.545039509718
C      0.809062464180    2.830633229063    4.694474949973
H      1.166997723243    3.657082578098    5.330256380775
H     -0.241685161891    3.055961676386    4.443616044536
C      0.945718237278    1.487745890675    5.383120530898
H      1.998906940197    1.276452976929    5.624915626491
H      0.368524295089    1.483519582108    6.321157785000
H      0.570758164862    0.674376203200    4.742777963606
C     -1.127086832332    6.724745224017    1.116597889956
H     -0.474230921653    6.854243567939    1.994336629695
H     -0.730549408934    7.351747646581    0.305338021104
H     -2.150887506191    7.041339405081    1.360122078673
H     -3.223609246331    2.786369681291    0.560582495041
N      2.037860242805    1.194685102647    0.004095865282
C      1.331583964753    0.052698167495    0.088439335083
C      1.998757332510   -1.215585084336    0.115046785805
C      3.378655946384   -1.248289160578   -0.023695961994
C      4.081116138349   -0.038927963820   -0.183501515742
C      3.387524601645    1.151946820302   -0.161650630552
H      3.916799930527   -2.196521057607   -0.029804467315
H      5.163203508032   -0.033838379354   -0.320438827267
H      3.892579103071    2.110183202567   -0.276484418519
O      1.187581988371   -2.282681673249    0.257462697897
C      1.758431109904   -3.571759029317    0.272967104290
H      2.465285211439   -3.697234518235    1.113489034215
H      0.927947308669   -4.279085495156    0.396127707520
H      2.285049838895   -3.797517404392   -0.672211265349
