75

C      1.618076712831    5.834253140889   -1.217708574734
H     -2.847329618448   -0.188721092607   -0.553877130055
C      1.258239713582    5.435722486794    0.150728872545
H      2.251196744054    3.518349991687    1.021695979574
H      1.985465052264    5.695422051806    0.925701942833
C      0.005827552472    5.033855121447    0.604179306632
H     -0.854741680788    4.990377705615   -0.067861022875
C     -0.302455963622    5.025419975281    2.069858350382
O      0.477714058162    5.295060030409    2.956917996340
O     -1.577892789493    4.665283412255    2.249538728017
Pd     1.014343739786    3.129303550898    0.234844926752
C     -1.882547117467    2.786723014783   -1.125731708845
O     -1.982155615830    3.918099336059   -1.580795263172
O     -0.805884729241    2.281457349649   -0.606299933937
C     -3.088027261684    1.809492521094   -1.234272973281
H     -2.947154153914    1.304917577133   -2.206154007986
N     -3.058977821587    0.748884505337   -0.238190100051
C     -3.173910500934    0.954988371532    1.108003508233
O     -3.386196765178    2.058647739826    1.589799248944
O     -0.049010771703    0.028117216343    0.131509481888
H     -0.471518028684    0.928580226402   -0.146753343357
C      2.874866411097    6.432842280930   -1.430968461647
C      3.286454411698    6.881259597845   -2.689636334104
C      2.409455966498    6.722615104339   -3.789146315984
C      1.158647925602    6.120203965656   -3.575491205193
C      0.753569130333    5.678176648530   -2.318639501692
H      3.550428234060    6.556665155275   -0.578986937069
H      0.480166006405    5.995128584154   -4.424056635374
H     -0.222536498084    5.201380898013   -2.195341414877
C      4.639685186698    7.524887737494   -2.867415844134
H      5.260959359357    6.973856557834   -3.593964419624
H      4.552645633845    8.556171234240   -3.249894939158
H      5.191939693430    7.566405974663   -1.917429623001
C      2.806968614694    7.191399534844   -5.165354458129
H      3.015770028253    8.274935274745   -5.180321696803
H      3.727241172187    6.692531092566   -5.514857862657
H      2.015292532164    6.991405453886   -5.901464809470
C     -2.073666526035    4.477363467640    3.587074135951
H     -2.800125097069    3.659556987471    3.486718530051
H     -1.240686726040    4.157718822823    4.231208836808
C     -2.715021618421    5.747931281256    4.119127748175
H     -3.515654607902    6.094019286827    3.447076227679
H     -3.157681835460    5.556591532916    5.110147640753
H     -1.970983877802    6.552061061928    4.226700796874
C     -2.989540237968   -0.291116468856    1.959845921423
H     -3.338390995740   -0.080627294586    2.978249704044
H     -3.540550358076   -1.152798504889    1.551154136469
H     -1.919686225124   -0.553214690654    1.988458573157
C     -4.427570281163    2.578813584036   -1.295508812529
H     -4.563214781875    3.098551258263   -0.337851342532
H     -4.311052330220    3.347883429962   -2.071332435798
C     -5.614365061959    1.692840936240   -1.594033378507
C     -5.936780334084    1.338537752432   -2.915121340302
C     -6.413555017076    1.181712897223   -0.558093335055
C     -7.017030938422    0.496812585724   -3.194077268761
H     -5.336290964054    1.737378258075   -3.739001980505
C     -7.496586725416    0.340817385820   -0.832062846755
H     -6.184034410228    1.458183993569    0.474718235880
C     -7.801198617338   -0.007074217545   -2.151404106446
H     -7.252656503135    0.239276640613   -4.230392053379
H     -8.108826405908   -0.041084060259   -0.010377867364
H     -8.649648886537   -0.661810015204   -2.367207525755
N      1.949845601391    1.205967697865    0.017371077204
C      1.263133049956    0.042769307783    0.066853653049
C      1.951828048275   -1.194606677483    0.059880153161
C      3.328133725044   -1.213321158331   -0.031860796280
C      4.051081063466   -0.003879197233   -0.122337413203
C      3.303997008171    1.164214794875   -0.088259174076
H      1.356755066108   -2.107009280972    0.113995053321
H      3.859488975254   -2.169660882719   -0.043083011380
H      3.800959184890    2.133409998584   -0.141708971604
C      5.553276452342    0.020617379682   -0.240024314511
H      5.936125337954    1.050558931729   -0.288739435270
H      6.031739826870   -0.474494942018    0.621379303485
H      5.893630827481   -0.506709906121   -1.146898639653
