74

C     -0.570831572161    4.668011457583   -2.192677319835
H     -2.015905458063   -0.294794284528    0.391319115734
C      0.537414879379    5.036444033704   -1.306738444938
H      2.605545634418    3.730410715272   -0.580173226920
H      1.428517438204    5.405897544548   -1.820829465375
C      0.517668563595    5.191521053860    0.081725962666
H     -0.383096132931    5.007613776978    0.677875678518
C      1.562248632220    5.968244701441    0.818166730036
O      1.551282259476    6.134861210541    2.014584008832
O      2.510784598021    6.489841746945    0.009856141758
Pd     1.251107648560    3.155001904355   -0.209274225914
C     -1.664691196226    2.546226673164    1.013073086253
O     -0.637253867659    2.178511652340    0.301788532409
O     -1.783502497196    3.634814979574    1.558250848080
C     -2.815237025253    1.520166049760    1.161024547858
H     -3.720207461156    2.075843253740    0.877500124142
N     -2.738466577183    0.400494026306    0.243255613025
C     -3.387593901773    0.394135052821   -0.964634350424
O     -4.167288486222    1.270809877077   -1.304212831359
O      0.224040886594    0.057176393715   -0.619728680225
H     -0.235414163614    0.926393231800   -0.280326751998
C     -0.309111780140    4.542070528521   -3.572768360388
C     -1.295931318922    4.169323438233   -4.488852627592
C     -2.601963463594    3.900239214860   -4.011614961750
C     -2.868799102580    4.045204082728   -2.640288932738
C     -1.882047540835    4.432977261520   -1.739745897907
H      0.704993842959    4.735193392557   -3.936024979990
H     -3.868232526074    3.815248334399   -2.265768361002
H     -2.128009405762    4.537803467547   -0.682719829540
C     -0.969957355739    4.045894003861   -5.957002091291
H     -1.144567817834    3.021369711036   -6.327577333942
H     -1.600211215791    4.711527108138   -6.570875366527
H      0.081102337328    4.299790803833   -6.157553911420
C     -3.694093262525    3.462016829504   -4.952243241985
H     -3.926467216275    4.243204458796   -5.697133332951
H     -3.399856813174    2.564839888570   -5.522651446813
H     -4.616749528338    3.224313022257   -4.405049211359
C      3.562933273094    7.229379139776    0.647404981055
H      3.118509165852    8.034148867586    1.254795600901
H      4.097568075890    6.562267474049    1.344289738261
C      4.478109402562    7.771517771410   -0.431020137588
H      3.930407455783    8.439507106800   -1.113731611081
H      5.299706429070    8.344838105960    0.026037800679
H      4.916736914525    6.955241746983   -1.025881902819
C     -3.066398644369   -0.805203698653   -1.844154609391
H     -3.366023088909   -1.743225396343   -1.348979333868
H     -3.611064916616   -0.706584275182   -2.790843967292
H     -1.983499265191   -0.859214304760   -2.039466218024
C     -2.961022597755    1.086431173257    2.643073660206
H     -2.967561446908    2.033732632860    3.208079253267
C     -4.297641550922    0.372511147640    2.874504408818
H     -4.444355327919    0.121211098268    3.936038881608
H     -5.143153652787    1.006393746228    2.564015671021
H     -4.353467213964   -0.563193482589    2.294249780465
C     -1.752290334170    0.260782176849    3.130197400463
H     -1.777792060034   -0.740819617998    2.660233133627
H     -0.823392295447    0.740387143192    2.775576349067
C     -1.665473644765    0.095796204547    4.649628631350
H     -2.530947412957   -0.449409655323    5.058395370004
H     -0.761038590719   -0.464423173399    4.936303612908
H     -1.622292416826    1.076432155733    5.151685720528
N      2.188891446043    1.212486353068   -0.169318614864
C      1.523220900312    0.063456961782   -0.428535037985
C      2.223088168420   -1.165286213318   -0.510920567008
C      3.584633058320   -1.195809591107   -0.292762491458
C      4.282540097324   -0.007087848723    0.013819996748
C      3.528821068279    1.156125898855    0.054783912827
H      1.646870188082   -2.063670154698   -0.735443898201
H      4.123353154731   -2.146354424922   -0.350324879585
H      4.008232201015    2.110704499701    0.272891123877
C      5.766684496883    0.001511356215    0.275082726620
H      6.133332893272    1.018162235972    0.479268224781
H      6.024754410991   -0.627829869758    1.143197901083
H      6.329097958554   -0.391353968736   -0.588291269144
