77

C      1.815663294500    4.018550551461    2.479529437954
H     -1.639176096799    1.387043175727   -3.744800488617
C      1.139199429612    5.354245122338    2.174922363132
H      0.620399884154    5.731127069644    3.071544654128
H      1.900568152384    6.089990534285    1.880263281677
C      0.169029815116    5.086996945606    1.026116499030
H      0.290395619476    5.713405445751    0.135071084949
C     -1.259720700786    4.941663194727    1.429573366713
O     -1.640922050929    4.725893500950    2.565842447104
O     -2.104511647202    5.062800913761    0.387572489105
Pd     0.863418517179    3.237741755193    0.468517247321
C     -0.507870433257    2.934107982886   -2.115591805161
O     -1.191290245118    2.015880344844   -1.608111817603
O      0.376416835602    3.619059853378   -1.513696516533
C     -0.706421585080    3.258946364108   -3.609421848985
H      0.266090910966    3.577232200977   -4.010144120075
N     -1.057994861892    2.020352302985   -4.284135535717
C     -0.372065245680    1.543822775268   -5.367927486882
O      0.491873752714    2.182473745090   -5.946151462289
O     -0.311060922962    0.228833039500   -0.053383075165
H     -0.668687896785    1.061766438897   -0.541240609780
C      1.023088598695    2.904331136833    2.863415230294
C      1.609538062315    1.685077575447    3.293030586896
C      3.007199785484    1.567767553524    3.314178977960
C      3.791584631493    2.668893955778    2.899511828804
C      3.222521556145    3.863452360930    2.485749776984
H     -0.050590462320    3.050100539820    3.008314963169
H      4.880585623746    2.570249041917    2.904541628211
H      3.858303941808    4.701326775825    2.188484067781
C      0.724235684098    0.550395543057    3.740338181256
H      0.887246150407   -0.353858450940    3.130203137003
H      0.931951652065    0.265556979565    4.785771929149
H     -0.338870386053    0.817197409084    3.665063444959
C      3.671759769628    0.295452529828    3.776090435799
H      3.386386200373    0.042666136072    4.811260160450
H      3.376813370550   -0.563679416501    3.150356653890
H      4.767301547837    0.378612996761    3.739562200150
C     -3.508611877178    4.864732667127    0.641694100896
H     -3.779542616700    5.389453113299    1.570348691188
H     -4.008680268654    5.355067977305   -0.205696863216
C     -3.875732754780    3.391265295967    0.721277194381
H     -3.425937972080    2.925506946815    1.609734656450
H     -4.970186056625    3.284776182343    0.794758831433
H     -3.528678990777    2.849732208016   -0.171682027101
C     -0.779435691466    0.150903374116   -5.828121899570
H      0.111597496650   -0.495165558163   -5.824868373570
H     -1.566279049180   -0.310491790831   -5.213539037475
H     -1.127254668410    0.213759054265   -6.870462934202
C     -1.726361701060    4.423813177917   -3.885040897336
C     -3.141559036753    4.035043076174   -3.423173571619
H     -3.852971117043    4.844818424570   -3.653860613737
H     -3.495220890716    3.127628686519   -3.937835322339
H     -3.180132295933    3.848529404283   -2.340029166801
C     -1.274697487741    5.701773605288   -3.155081658319
H     -1.332172672353    5.595168603516   -2.062778779774
H     -0.238644125902    5.968006211673   -3.419191355533
H     -1.922373060592    6.545036986194   -3.446486662668
C     -1.743217980704    4.693666965609   -5.401717759860
H     -0.741593190824    4.954087599342   -5.776045514734
H     -2.088891456083    3.814280580728   -5.964980055446
H     -2.426053334139    5.528867286422   -5.628175940275
N      1.747710812428    1.274739869852   -0.048601961830
C      0.996646429346    0.148250282521   -0.078984938831
C      1.608467817327   -1.129040808349   -0.116959921302
C      2.985334986305   -1.223439836841   -0.178307776921
C      3.758492772920   -0.043942817366   -0.193796501167
C      3.083427834917    1.173708759425   -0.124666400821
H      0.961070602444   -2.006599509927   -0.125559473730
H      3.479281939442   -2.195235035877   -0.226413228429
H      3.654427714139    2.104254730561   -0.118052675191
C      5.243513833110   -0.024397389126   -0.250945540281
O      5.919969249237    0.976752517258   -0.180309278935
O      5.763339709232   -1.259847711706   -0.383730290672
C      7.187149653393   -1.342235420848   -0.451949260240
H      7.647012859494   -0.937200095534    0.462244777652
H      7.426946796180   -2.407071076695   -0.559962155003
H      7.569824134652   -0.774796094550   -1.313579281985
