59

C     -1.558606862432    3.771248252518    2.014200484442
H     -0.037187623967    4.651516318182   -3.291619571811
C     -0.245301875979    4.383585847284    1.744248054451
H      0.369518403282    4.450491248629    2.647198847565
H      1.749873521594    3.019223139836    1.643518129062
C      0.270713602424    5.110709816571    0.664061190018
H      1.222144952190    5.622303053828    0.839317023256
C     -0.416761695232    5.710396168712   -0.525265571414
O      0.195587912910    6.297324365600   -1.390557113761
O     -1.748583623737    5.609751585068   -0.494016206203
Pd     0.986514324898    3.070450393527    0.325079880010
C     -0.642610639553    2.438061780764   -2.270366978767
O      0.128137446201    3.231365304034   -1.650510070149
O     -1.115665427342    1.369473932674   -1.825443483397
C     -1.016477446950    2.835830793533   -3.695986816727
H     -2.104766677641    2.712228130621   -3.822951289605
N     -0.593459741942    4.181912972029   -4.002175784662
C     -0.764585835405    4.730630419800   -5.239788562774
O     -1.339966435144    4.142188976780   -6.141830316009
O     -0.063283908793    0.076228702307    0.030121541785
H     -0.512746551630    0.718104645125   -0.666529655931
C     -2.367504642647    3.150475739307    1.043562719643
C     -3.583170971754    2.544745575204    1.367566722784
C     -4.038844390798    2.579800147937    2.709285407262
C     -3.232610772359    3.192695065611    3.678848039225
C     -2.002835837372    3.758534546630    3.348959745968
H     -2.026068144430    3.109885231134    0.012131862474
H     -3.569651986675    3.211071131908    4.718930865807
H     -1.384568561561    4.204805783372    4.132640620433
C     -4.386064511805    1.854200831413    0.292441402906
H     -4.640165487047    0.820612316843    0.579539398255
H     -5.342751966987    2.371744796427    0.102489287421
H     -3.824242324733    1.806232164294   -0.650892212076
C     -5.353297074046    1.951561096704    3.093244269114
H     -6.191003999068    2.382834901319    2.519498525103
H     -5.358723674717    0.868049678882    2.884260407329
H     -5.568458840284    2.089536483033    4.162591862610
C     -2.481886730432    6.230900247795   -1.570360664402
H     -2.159661733861    7.280902213728   -1.654403083495
H     -2.211147858014    5.727029555533   -2.510991270127
C     -3.959879168699    6.111919959976   -1.264305810783
H     -4.209859847360    6.612145402029   -0.316064746505
H     -4.543761476908    6.583919377740   -2.069734609359
H     -4.267622611154    5.057937341136   -1.189595752716
C     -0.184186641483    6.127410633973   -5.410300798573
H      0.684866664908    6.071757889247   -6.085258560966
H     -0.935358492494    6.761361273096   -5.903613107018
H      0.126604569030    6.589009812372   -4.461729367676
H     -0.559569799159    2.098421998470   -4.381995163342
N      1.944453839443    1.223293837029   -0.059734065840
C      1.243835739757    0.062001537171   -0.033087116180
C      1.931401825664   -1.176657206078   -0.042768377860
C      3.311567232700   -1.199638774396   -0.125749264857
C      4.018030526257    0.013186922251   -0.202908260335
C      3.294320261348    1.191550505218   -0.158527719123
H      1.330429021102   -2.085789553990   -0.003578282737
H      3.844872508519   -2.153680723427   -0.143311619696
H      5.105463728541    0.042318096344   -0.281866815393
H      3.794572268494    2.161560455117   -0.186885278181
