71

C     -0.177448108252    3.988178010399    3.347746760404
H     -1.412687893043    5.490220652365   -3.365753523448
C      0.962645858992    4.369449834550    2.437963124328
H      1.825584756878    4.787677248927    2.977824432978
H      1.522921105532    3.317446931727    2.118921092037
C      0.678611790901    5.092262987546    1.181584043486
H     -0.350591767685    5.379033043424    0.948099184511
C      1.746453065838    6.014297580275    0.708242654804
O      2.888877908175    6.018217406622    1.123118031695
O      1.322938176650    6.851281872572   -0.261159067651
Pd     1.151483250189    3.255196167216    0.402333589761
C     -0.853344735376    2.932473330613   -1.626185927384
O     -1.220371290098    1.903313899262   -1.031070474555
O      0.249590863922    3.553389665789   -1.461530477675
C     -1.831724767068    3.519202510579   -2.670371683883
H     -2.816030600468    3.152372726467   -2.341683365107
N     -1.857460305440    4.970878927758   -2.619892588262
C     -2.165392269734    5.632398649393   -1.468472173504
O     -2.505704729642    5.043945723298   -0.449197339699
O      0.023968076865    0.128724003850    0.244858596753
H     -0.423646617515    0.946195024669   -0.196057032672
C     -1.457064755093    3.700789531332    2.846379639787
C     -2.521293628188    3.363562591889    3.690166591114
C     -2.302437632804    3.298060927524    5.088095158921
C     -1.022497272249    3.581043576037    5.582183336373
C      0.030333334270    3.922582129998    4.730178929551
H     -1.645454367251    3.741346485515    1.770260521029
H     -0.845387884202    3.535796128498    6.660636011377
H      1.017129607478    4.143347551479    5.147294009349
C     -3.880466722921    3.075780810655    3.101765897019
H     -4.196047378009    2.037058740017    3.301168140596
H     -4.656202708581    3.728560189908    3.536784205333
H     -3.880708459193    3.229231308239    2.013525024055
C     -3.423448431837    2.930307483242    6.027359322591
H     -4.262681964090    3.643416396039    5.957096122899
H     -3.839922249726    1.935992375687    5.792307660339
H     -3.082751971442    2.914148974900    7.072901146594
C      2.323101783350    7.716859882269   -0.826114543313
H      2.771491334157    8.318696279862   -0.019281980746
H      3.130548911251    7.096233694009   -1.247546499264
C      1.672598627486    8.584979137475   -1.882666130902
H      0.881435724217    9.216615125078   -1.449862924843
H      2.427416480040    9.246110907991   -2.336433045966
H      1.229068664051    7.971679661811   -2.682056584005
C     -2.033394865922    7.143562614861   -1.515815974571
H     -2.838346808245    7.586190051973   -0.913459545899
H     -1.071337583971    7.417210782246   -1.055161161481
H     -2.069048841968    7.553206681157   -2.536541669668
C     -1.589570167482    2.993177125817   -4.122179165508
C     -1.604470318974    1.452266076420   -4.112402413125
H     -1.525572549759    1.070756862935   -5.143130755475
H     -0.770207238976    1.034423191405   -3.530867937162
H     -2.536128756083    1.063202771805   -3.673362290194
C     -2.738636918690    3.487030877252   -5.024882634686
H     -3.712306255113    3.124225088734   -4.658393303235
H     -2.790000604441    4.585765472178   -5.071045495196
H     -2.604832275383    3.115192583433   -6.053558372757
C     -0.238422195380    3.477813886344   -4.684777563639
H     -0.193256290388    4.574812790484   -4.792888136635
H      0.598571643921    3.175049125387   -4.039114468813
H     -0.074860212187    3.054573301365   -5.688911636759
N      2.015130594341    1.284682860920    0.043866818667
C      1.329331395562    0.125120340069    0.153242692576
C      2.015702188614   -1.115254221865    0.193042600008
C      3.393312362675   -1.137606591233    0.082714417947
C      4.093764535270    0.072107570243   -0.073084255731
C      3.361402328717    1.246956272988   -0.083310799197
H      1.419685416907   -2.022677782663    0.297170605037
H      3.930011003200   -2.089747565081    0.106357870972
H      5.179341184324    0.100429019813   -0.175126630095
H      3.856782426835    2.216528141003   -0.184769974504
