59

C      1.979959897141    3.244190190288   -2.404304293006
H      2.815509638919    2.545942590515   -2.495503991845
H      2.194270737828    4.314605610870   -2.379819559302
C      0.695300337327    2.795318274578   -2.610504351702
H     -0.133736894694    3.499235237924   -2.718080938693
C      0.412273889625    1.362114208084   -2.963288674137
O      1.263793452002    0.521015646849   -3.130211003959
O     -0.901386379340    1.160603870544   -3.072221843514
Pd     1.004322233798    2.974578560105   -0.398535887584
C      0.164940612414    5.511518255929    0.498616325118
O      0.196231951703    4.790884984943   -0.603880828267
O     -0.053401954822    6.702053722411    0.518291150512
C      0.452060598267    4.741800906489    1.812356880689
H     -0.341713050933    5.055997562079    2.504700928239
N      0.354200504117    3.295709181079    1.543662961810
C     -0.462486121209    2.526840085016    2.217692705831
O     -0.760146898281    1.311315806945    1.889084895082
O      0.030352302664    0.078174553781   -0.094528862153
H     -0.414509061755    0.903593914569    0.978613020163
C     -1.342143028623   -0.199378299169   -3.272026012254
H     -0.791926777008   -0.627363952359   -4.124697220682
H     -1.071320667643   -0.768823920314   -2.369210603641
C     -2.837353453967   -0.176547973690   -3.505398751771
H     -3.091985373505    0.414418477914   -4.398876065658
H     -3.205808564110   -1.203437448036   -3.654448509350
H     -3.364424912625    0.255800529709   -2.641291264144
C     -1.191563514466    2.980459728843    3.463247678526
H     -1.603462951420    2.094150768653    3.960188893812
H     -0.542817883074    3.527078910368    4.156842757421
H     -2.029868056044    3.640090431890    3.184969831904
C      1.796669430894    5.217713260633    2.432585482825
H      1.680921860538    6.315205568058    2.470426457077
C      1.971868310992    4.704325504442    3.866593630332
H      2.898075735947    5.090150402982    4.317286563315
H      1.141869515914    5.027275594331    4.515262920230
H      2.025905890572    3.603124781510    3.895630697006
C      3.024778774909    4.913803756001    1.553071410580
H      3.230239391236    3.829099005069    1.579195272537
H      2.786553240802    5.160355129357    0.504321809368
C      4.291603217735    5.679322226930    1.946554829719
H      4.640195896956    5.418983921521    2.958236038306
H      5.116293045363    5.453355827393    1.252568920909
H      4.121449200461    6.768397188006    1.920629076019
N      2.017818080303    1.190435255598   -0.127101612745
C      1.293811965459    0.014991940147   -0.104628125166
C      2.025373975219   -1.217701258102   -0.080477836413
C      3.397990953888   -1.221604121983   -0.038302943440
C      4.105584282947    0.007945574523   -0.023442272309
C      3.359683164331    1.177735493600   -0.077842092254
H      1.440576593953   -2.138276316852   -0.084019526875
H      3.955283788327   -2.159596094752   -0.011001307221
H      3.877940228559    2.139775775274   -0.088422375852
C      5.581353669742    0.126293668507    0.026721385213
O      6.190521842010    1.174112512783    0.029004445514
O      6.188460846710   -1.077019753125    0.070162189307
C      7.613968138714   -1.062238448851    0.114780300461
H      7.973036482458   -0.528795842537    1.008093945112
H      7.930296720955   -2.112233648821    0.145709114641
H      8.028983015625   -0.564806115337   -0.775055358295
