78

C     -0.670175242525    4.644788467827   -2.159830838167
H     -1.889920732712   -0.318444924899    0.505712151608
C      0.474004679615    5.064406738133   -1.345103622997
H      2.612466836806    3.819069016809   -0.699268617487
H      1.328094218314    5.438350237578   -1.915444935588
C      0.523097164831    5.259461768538    0.036775218913
H     -0.338369592898    5.068897017263    0.686410917093
C      1.593845850482    6.070280731786    0.694262256605
O      1.674632519392    6.230670401700    1.889319874814
O      2.455841779845    6.626195011448   -0.184064404943
Pd     1.294888345111    3.232997158002   -0.229030035134
C     -1.549058609883    2.546693137806    1.095186171637
O     -0.539413959895    2.198722685478    0.355100233753
O     -1.662981085146    3.620055274380    1.671114530472
C     -2.684642183167    1.504856165762    1.250526870793
H     -3.608257832331    2.039673450860    0.986281867052
N     -2.600808837700    0.384517838499    0.340322087931
C     -3.316184566994    0.319619952135   -0.827246002145
O     -4.125664462832    1.172716769321   -1.156051644946
O      0.322407160419    0.304357220769   -0.997830770493
H     -0.157891968869    1.063650358742   -0.481195482856
C     -0.475791878573    4.468880582417   -3.545332173380
C     -1.499839457593    4.041542479475   -4.394559374143
C     -2.774549776970    3.768589555339   -3.841340171346
C     -2.975750458057    3.967631069909   -2.465629299537
C     -1.952605827381    4.407542370517   -1.632296688076
H      0.514966735376    4.664567616624   -3.966921956339
H     -3.951518615744    3.737474897988   -2.033827410174
H     -2.147053089147    4.550511454200   -0.568886821749
C     -1.245055735639    3.863890601497   -5.871176960497
H     -1.413410037857    2.821103147199   -6.190141510103
H     -1.921211723327    4.489180489906   -6.478530808356
H     -0.211743527086    4.132012527415   -6.135323578897
C     -3.902996687106    3.267941330610   -4.704670118433
H     -4.203047677971    4.018128846154   -5.457368305479
H     -3.611833769166    2.363191524692   -5.264288777572
H     -4.783881802423    3.017218764952   -4.097868382549
C      3.533173636676    7.396660978716    0.369501527711
H      3.114445459771    8.188360902434    1.011397881620
H      4.140797594334    6.746190080811    1.020746956011
C      4.343847610641    7.963836308387   -0.777388992362
H      3.724439753599    8.614575915150   -1.413861228798
H      5.181955053730    8.561483359755   -0.386249934061
H      4.757402810083    7.159471047215   -1.405411008402
C     -3.014903610430   -0.902266790980   -1.681164371838
H     -3.181034133392   -1.831142724017   -1.112007766940
H     -3.671262046288   -0.891236035697   -2.559559109844
H     -1.961772971553   -0.886057176589   -2.005090798223
C     -2.769474963656    1.060000398330    2.729934023420
H     -1.841114289059    0.525665576499    2.997645661832
H     -2.788476960715    1.980792776959    3.331793236116
C     -3.968629689177    0.195277852940    3.045541763938
C     -5.249847011721    0.762376601925    3.149387916675
C     -3.840960774518   -1.190481855133    3.223683819430
C     -6.366923618796   -0.030543064453    3.420457821621
H     -5.371977977595    1.841683794492    3.018298097261
C     -4.956162740868   -1.989259199542    3.496686924211
H     -2.850550310777   -1.650977357649    3.156556728650
C     -6.224269157157   -1.411322681873    3.594651909806
H     -7.354378692283    0.431948235290    3.499254149318
H     -4.832309319360   -3.066676926639    3.635856964296
H     -7.097877783249   -2.032344428158    3.809034913138
N      2.245832507215    1.291445385007   -0.179236778475
C      1.604410706117    0.251796880754   -0.722674948647
C      2.283835813908   -0.969421287525   -1.042246830429
C      3.602718461859   -1.110102061113   -0.721917870106
C      4.289558516058   -0.056085387779   -0.050500568403
C      3.564460441088    1.146205140322    0.219147622557
C      5.642312177672   -0.168866048322    0.358038336637
C      6.265745652088    0.863274921046    1.031546235990
C      5.542208408808    2.041370916642    1.319805692075
C      4.224226159845    2.183413121620    0.923233668815
H      1.703895014917   -1.756520354057   -1.525058703954
H      4.137950897442   -2.034629959182   -0.955156279042
H      6.180375871657   -1.093978767500    0.134437058333
H      7.306818526309    0.768507038799    1.348135277091
H      6.025476524820    2.852835954396    1.869540405307
H      3.667212848329    3.090497280656    1.161224123860
