78

C      1.572377652065    4.035831634509    2.391427801117
H     -2.459015652584    1.804489567602   -3.379989431696
C      0.766832185042    5.267018182043    1.980383624281
H      0.104281503302    5.579637110305    2.804036872722
H      1.453949885302    6.095553261008    1.757439295644
C     -0.021482277964    4.865227256738    0.734079034499
H      0.131959468285    5.485456582025   -0.156361243639
C     -1.458752798892    4.551083078812    0.971930396124
O     -1.927878511362    4.224292072503    2.047306871706
O     -2.212117470422    4.643843837816   -0.142814989020
Pd     0.917222573337    3.079851292054    0.335305929459
C     -0.429108026360    2.642067148028   -2.197155573580
O     -1.094547017899    1.760999592943   -1.612798022215
O      0.525580395444    3.310664097762   -1.688225077955
C     -0.764035408910    2.994533802210   -3.656474292212
H      0.111965187800    2.729566674642   -4.271802782699
N     -1.867851944532    2.177536750180   -4.116172371206
C     -1.811159543854    1.498881040027   -5.307626857751
O     -0.908941172234    1.647280626764   -6.113811338120
O     -0.030483769394    0.017618849670   -0.079099945286
H     -0.444389584702    0.818091338059   -0.565348034166
C      0.893342717345    2.836136483736    2.732231912306
C      1.585330969654    1.708377976107    3.247206903309
C      2.977549169164    1.771772678295    3.405003675578
C      3.651204809829    2.960595998400    3.041738187257
C      2.979998743164    4.064318630124    2.538759205937
H     -0.199589953276    2.846116824771    2.768709281204
H      4.736445779659    3.008566216981    3.170665981271
H      3.529032793019    4.975039760831    2.285638565871
C      0.811669200892    0.474884953834    3.635109998884
H      1.156275214043   -0.410549214431    3.075211912392
H      0.940378816362    0.239084053376    4.705310874384
H     -0.262358915814    0.597110499335    3.439312897651
C      3.749621992944    0.600093324419    3.956593024590
H      3.386436275462    0.309606249601    4.956735696070
H      3.644636638190   -0.289187596426    3.312500624159
H      4.821705953054    0.828802308709    4.041341155953
C     -3.587971265934    4.246487297129   -0.010911784263
H     -3.621204029097    3.184472570942    0.282091189616
H     -4.048456595063    4.821944852584    0.807799574401
C     -4.291487193043    4.484902149744   -1.330557147416
H     -3.848525660727    3.878172046755   -2.134514032406
H     -5.354087026035    4.209955281679   -1.239810614284
H     -4.234653119087    5.544485253990   -1.624685432801
C     -2.991958890216    0.579616730801   -5.579584028720
H     -2.624212660169   -0.333808269221   -6.067268746447
H     -3.561961389993    0.315705540645   -4.676202789898
H     -3.671771500278    1.081491602395   -6.286832342236
C     -1.006821626920    4.522373907965   -3.795742626941
H     -1.778878015752    4.824295688589   -3.072025224311
H     -0.075771286202    5.021055592270   -3.486987304294
C     -1.403972933570    4.970090141406   -5.183884494048
C     -0.453395454558    5.065247641141   -6.213176342394
C     -2.736044612606    5.296178714864   -5.480152241067
C     -0.821066695880    5.475627959869   -7.495624707365
H      0.589712779211    4.808911657017   -6.007574798678
C     -3.110618542848    5.707228412844   -6.763549068642
H     -3.490349129873    5.232116488418   -4.690846698878
C     -2.152867093303    5.798778334874   -7.776397075045
H     -0.064585428212    5.540959789871   -8.282135764199
H     -4.154254071078    5.959485213206   -6.970861869686
H     -2.441409738155    6.120357840782   -8.780610286136
N      1.956959093770    1.178476363346   -0.035811636759
C      1.285215875462    0.030329879728   -0.069698188782
C      1.967892226547   -1.242168503863   -0.067687022586
C      3.394149176275   -1.247011676045   -0.079754277190
C      4.066002947387    0.011714409450   -0.101323161879
C      3.325047422785    1.162653254240   -0.077062902200
C      1.253884635786   -2.465950483357   -0.069953846666
C      1.938643626449   -3.666775417754   -0.069101004282
C      3.353818816564   -3.678833772385   -0.074709172169
C      4.068958257676   -2.496041232068   -0.082736257073
H      0.163714381119   -2.434120232554   -0.073877351900
H      1.388727602766   -4.610846273344   -0.070193142638
H      3.884553348779   -4.634469750401   -0.077751164628
H      5.161836165261   -2.508064283282   -0.094035488969
H      5.155955939770    0.057979922811   -0.135822052058
H      3.802664769028    2.144498032971   -0.082989429155
