83

C      2.309088426289    5.422560656126    2.587576462195
H     -0.149775239664    4.838807856404   -3.473478643385
C      1.144301918490    4.556165758205    2.174773820921
H      1.638679725238    3.463519490176    1.915358047369
H      0.526080052000    4.238424949339    3.026762658594
C      0.302998633720    4.949532460190    1.024202891992
H      0.589934427179    5.829223107185    0.439022189325
C     -1.172563015989    4.754459167931    1.174287979488
O     -1.690095027377    4.146549489801    2.088084202951
O     -1.851019285217    5.321301471886    0.164383934094
Pd     1.115848154398    3.242452755440    0.252872610969
C     -0.724119483191    2.799509299373   -1.930256398291
O     -1.226768325571    1.911887702603   -1.215747200205
O      0.359947329983    3.425234143343   -1.673726508933
C     -1.438979675433    3.199535616448   -3.232208062118
H     -2.516429732123    3.167201733087   -3.019138108068
N     -1.127477908361    4.581956864426   -3.554617355244
C     -2.054732703401    5.581002855660   -3.439586001779
O     -3.248261091131    5.369757090118   -3.276361560500
O      0.058284748195    0.246532622539    0.174959314263
H     -0.405102078626    1.041596000007   -0.298217123958
C      2.504619340145    5.709725012841    3.945343607474
C      3.552009948865    6.526611855545    4.393048166751
C      4.446164267702    7.076350878064    3.445687660836
C      4.250921444387    6.781541934267    2.088409680264
C      3.203572104940    5.966935805963    1.657774583125
H      1.814012255531    5.288420792047    4.682059972330
H      4.940617831105    7.200120442581    1.349949768452
H      3.085776397225    5.753887217853    0.591869896786
C      3.717577037914    6.811354877100    5.865299642207
H      4.699950511919    6.472855041600    6.236344663092
H      3.658286364505    7.892149521693    6.078985551203
H      2.942502928951    6.308880524178    6.461586876274
C      5.588520154761    7.959053935026    3.882023164988
H      5.229001768192    8.854468821924    4.417255195421
H      6.267773014576    7.433308046491    4.574629194242
H      6.183708026827    8.299058923013    3.022277218290
C     -3.290481823909    5.154007139514    0.147558670660
H     -3.565525170460    5.266267925781   -0.909594477277
H     -3.523674808385    4.132145338734    0.479732238338
C     -3.982776221390    6.186590454713    1.020670831390
H     -3.713847266037    7.209156332577    0.711708195885
H     -5.074985936714    6.078779117289    0.922135515630
H     -3.719899871079    6.052775988997    2.080491112053
C     -1.492537601554    6.991555659160   -3.503004222325
H     -0.533974999764    7.052663127569   -4.039713286044
H     -2.230281123052    7.648134277854   -3.983169069401
H     -1.340747976155    7.349478485116   -2.471227199153
C     -1.161634758500    2.212121068591   -4.422417240964
C     -1.960580889938    2.702253452062   -5.644809022794
H     -1.823346292663    2.010194944232   -6.491477097855
H     -3.037601535376    2.758313467287   -5.420809900657
H     -1.633156341345    3.702106811618   -5.965980924617
C      0.338130007386    2.176154923181   -4.769348269933
H      0.715300316487    3.174976123377   -5.042598553620
H      0.945990874105    1.803122809253   -3.930249944706
H      0.514497126191    1.513086858014   -5.631797778906
C     -1.641088567550    0.795888442844   -4.053418864661
H     -1.091136558098    0.379892452077   -3.198050076373
H     -2.710180521167    0.794513225634   -3.787428424468
H     -1.505206931474    0.119430746602   -4.913046147067
N      2.080318603993    1.304345263591   -0.079568131205
C      1.363271561007    0.208746543683    0.089899289920
C      1.980153584520   -1.105756013174    0.228078748860
C      3.390191572624   -1.220946806272    0.135550426163
C      4.162899225091   -0.013516124213   -0.123923741541
C      3.462405093961    1.221040798399   -0.229234795127
C      1.178328282855   -2.246083433564    0.452819898061
C      1.765475600795   -3.492413433418    0.598706421593
C      3.165372401646   -3.617242260495    0.516685392255
C      3.962167578117   -2.505260987683    0.288136265698
C      5.567771755931   -0.006980711811   -0.278108932778
C      6.263978664201    1.165392117273   -0.529496722265
C      5.565568270944    2.380745829811   -0.639272351917
C      4.187827115383    2.404748309272   -0.492002519732
H      0.097117580531   -2.118729210657    0.510085781915
H      1.145866529435   -4.374639408015    0.775424008975
H      3.631079100023   -4.599396707385    0.631849977031
H      5.043578647005   -2.631555842784    0.226792035582
H      6.120800275817   -0.944135733108   -0.201074409115
H      7.349971928635    1.142036511838   -0.645427160309
H      6.105756544396    3.308152427248   -0.844414914441
H      3.632014238795    3.340373051047   -0.586663623342
