74

C      1.304487320381    3.803981980901   -3.487171416522
H     -3.122253699730    2.213123152952    1.493582533842
C      1.593419560866    4.883761604605   -2.466093590954
H      2.264649397494    5.640404861579   -2.915767300429
H      0.672504169888    5.427907004390   -2.208878575603
C      2.258363087757    4.384677323539   -1.182493702923
H      3.150931511947    3.778486424723   -1.385205140790
C      2.586194717718    5.505076612683   -0.235763333873
O      2.139049858200    6.626213276910   -0.300933290328
O      3.466042524274    5.120609765148    0.728936436055
Pd     0.937356864026    3.200658671444   -0.156977429783
C     -1.348701273989    3.794982477255    0.788320522485
O     -1.073588691559    2.550960392154    0.757817900638
O     -0.513270106008    4.643729283683    0.356598890300
C     -2.665405961568    4.268614823949    1.383090729079
H     -3.117464926721    4.988348213814    0.681256184720
N     -3.556229208660    3.129514933136    1.503505241643
C     -4.914040473060    3.267114117858    1.465576602010
O     -5.460203060819    4.356309197644    1.387197422133
O     -0.276800107551    0.671021482234   -1.154068999845
H     -0.566639362800    1.416209069856   -0.572420749877
C      2.341251969819    3.218728755098   -4.231193159105
C      2.113224598222    2.212252180249   -5.178460194925
C      0.788970229047    1.764426068566   -5.401050336427
C     -0.247063158718    2.351539773722   -4.663831524977
C     -0.000147848099    3.354725614815   -3.722548898137
H      3.368112976888    3.566037228751   -4.074796189727
H     -1.275008051672    2.017159950179   -4.832053465298
H     -0.832443245151    3.796728967316   -3.167775401896
C      3.264559294091    1.623001520662   -5.956637098806
H      3.350509094860    0.534255486938   -5.797248509754
H      3.139529516619    1.768988703732   -7.043352697702
H      4.221484232095    2.080336899935   -5.665706545661
C      0.496157657963    0.687586884997   -6.416976135695
H      0.814889064847    0.984171128248   -7.431206561826
H      1.029433648699   -0.250784286514   -6.185721190099
H     -0.578928011080    0.459466285877   -6.458860784655
C      3.822643680083    6.096668283248    1.723279630699
H      4.825195612715    5.798229064018    2.064631696303
H      3.886770367880    7.084743781922    1.244437004319
C      2.831469112692    6.118102561779    2.875371064703
H      2.745950696665    5.124770662141    3.343256938807
H      3.165582482146    6.833297723412    3.644358252391
H      1.836115924303    6.430458281975    2.527015023641
C     -5.706382949252    1.970460255650    1.537414943843
H     -6.352991901696    2.002289792208    2.427629815387
H     -6.368543418792    1.914527804208    0.660290400698
H     -5.080639750299    1.066932135352    1.578846197716
C     -2.474244386969    5.020833666764    2.739608001752
H     -3.508156007114    5.165996536642    3.094134657910
C     -1.720842789618    4.175933935290    3.771827429167
H     -1.742286992775    4.662194442846    4.760103684841
H     -2.170061689745    3.176515590574    3.882169881260
H     -0.661158289458    4.044752259672    3.493225702315
C     -1.849213500292    6.407515371678    2.560091138328
H     -0.816459591289    6.345162014576    2.185680406054
H     -2.425079487459    7.016344956968    1.845061033519
H     -1.836473350342    6.944672142598    3.522262770599
N      1.868148073122    1.374226189813   -0.613150098748
C      1.031605612141    0.472513641746   -1.129669725009
C      1.486517613885   -0.756945341224   -1.695357530989
C      2.818677518212   -1.054994873664   -1.657902561663
C      3.730714946453   -0.161853512089   -1.024799393912
C      3.211621428937    1.057537859556   -0.487416858611
C      5.111640157381   -0.454718899458   -0.890747130447
C      5.956190060368    0.415256154626   -0.229966910371
C      5.434212145583    1.604975328842    0.324083718129
C      4.093065188609    1.924979347956    0.201416143283
H      0.739371558676   -1.418789735284   -2.133481547332
H      3.193026511448   -1.988139873989   -2.087178944233
H      5.491314270140   -1.389332398393   -1.312115867812
H      7.018354739900    0.182437639675   -0.126074585030
H      6.096401782682    2.287561207337    0.862437694948
H      3.706762291122    2.846035950538    0.636971132898
