63

C      1.512756139650    3.919973690832    2.358868154491
H      0.754772952131    4.166540748250   -4.035988756583
C      0.808363746152    5.206342541845    1.920672263660
H      0.078067707264    5.516743158023    2.685398192645
H      1.551169357902    6.008675643428    1.805847058429
C      0.137064608657    4.891018395156    0.585706377181
H      0.421748131568    5.528108558258   -0.259968460516
C     -1.335050621602    4.652250979227    0.645045395825
O     -1.931111417942    4.290035099061    1.643463268821
O     -1.934004295949    4.868601461538   -0.538876408559
Pd     1.037173828425    3.082082826551    0.236876658633
C     -0.343999464124    2.514008729220   -2.227101183675
O      0.613003265190    3.237736874551   -1.790650487264
O     -0.926732717289    1.608005563063   -1.606275686674
C     -0.769872231051    2.771598388055   -3.673653260465
H     -1.865244085121    2.844957550909   -3.715157637664
N     -0.217503102783    3.974472984215   -4.247424470318
C     -1.007577143071    5.004885835700   -4.674441284187
O     -2.223981051774    4.920583296280   -4.758241634313
O      0.148321165847   -0.021937211079    0.036477588021
H     -0.278337146716    0.729917935572   -0.514234585441
C      0.738677585087    2.763432578263    2.638820455585
C      1.314722748218    1.592370649822    3.191158344671
C      2.695293084443    1.566733746136    3.445472932788
C      3.468812793918    2.710874532688    3.144829727728
C      2.905622787031    3.859594002542    2.610485933747
H     -0.350245509609    2.836811624999    2.568577978114
H      4.543160583796    2.686680356538    3.348682594011
H      3.526881849336    4.737023792787    2.411805571032
C      0.436603806143    0.407450490049    3.502998942788
H      0.677898827462   -0.456144312743    2.860503636914
H      0.558829169266    0.075836987285    4.547445582971
H     -0.623467903617    0.644505041981    3.339435417328
C      3.350762429167    0.342689818853    4.032804308407
H      2.918853620192    0.083352065478    5.014198081508
H      3.207354552469   -0.536985946867    3.383297142699
H      4.431834905791    0.489978201497    4.168418861784
C     -3.339166094182    4.559722034309   -0.653719107493
H     -3.420924259424    3.490153454436   -0.911670412765
H     -3.812813526492    4.705344573399    0.327752132251
C     -3.948192963387    5.442918669546   -1.724139000964
H     -3.466591025343    5.294307807685   -2.702560662005
H     -5.018923135479    5.204636540641   -1.829509528973
H     -3.862449056232    6.505905140466   -1.447107258295
C     -0.267575266142    6.282320586701   -5.037536060386
H     -0.710210780116    6.697828416168   -5.953526332327
H     -0.422395945443    7.019520540140   -4.233155250614
H      0.813416474862    6.138387713048   -5.182555453674
H     -0.488947191043    1.873031334914   -4.253500756053
N      2.118976520396    1.183054662293   -0.052582067748
C      1.460479945940    0.019954197490    0.019648813592
C      2.180016063146   -1.217762867932    0.119817365772
C      3.567100233991   -1.189648550263    0.056263849628
C      4.226670664253    0.047436775869   -0.083348188806
C      3.471326949985    1.201960599527   -0.125588154414
H      4.146225538096   -2.112621478887    0.101358982201
H      5.314655975587    0.096008169023   -0.149360659046
H      3.933645631473    2.187590596994   -0.209716810086
O      1.413840058485   -2.318967313188    0.258977814798
C      2.040119487879   -3.580468914564    0.330061603406
H      2.714748946797   -3.655882106589    1.202579489503
H      1.237306622856   -4.321841768109    0.434546743872
H      2.617358607776   -3.802384406614   -0.585882140738
