75

C      1.565518439404    4.050405669356    2.408897211261
H     -2.441313348863    1.800139554292   -3.375007793223
C      0.762706967970    5.284576971235    2.000994020144
H      0.102354344906    5.597674084785    2.826221665573
H      1.451758849164    6.111516255680    1.778041837373
C     -0.028878659570    4.886379315752    0.755567157937
H      0.124536214570    5.507161609874   -0.134489415811
C     -1.466481712545    4.575042689673    0.995181432317
O     -1.934849451675    4.249477112582    2.071325424976
O     -2.220111064903    4.668584529623   -0.118812460065
Pd     0.905753935192    3.099951802149    0.354297663949
C     -0.436338876214    2.663694115508   -2.177302246212
O     -1.111133229363    1.794820977950   -1.589137284401
O      0.520394024988    3.332781533441   -1.669101567618
C     -0.756762381767    3.004586355591   -3.643085795943
H      0.128298067974    2.745670291052   -4.247596300189
N     -1.847934813849    2.174380942015   -4.109090218050
C     -1.773155379321    1.488735932384   -5.295203264626
O     -0.864959384810    1.640705376490   -6.094232070381
O     -0.052582820732    0.033541522438   -0.028909391369
H     -0.462481666591    0.826831869662   -0.513827137016
C      0.883344348169    2.853090613837    2.751604882291
C      1.572905120179    1.722222951990    3.262584068944
C      2.966043279152    1.780197146342    3.414379889095
C      3.643178706568    2.966270622864    3.048970284315
C      2.973934102605    4.073201015185    2.550024868866
H     -0.209447530440    2.866618594618    2.790661739388
H      4.729161174907    3.010090655958    3.173509474939
H      3.525383811842    4.982055282125    2.295412063100
C      0.796185041585    0.490992960622    3.651345873367
H      1.136190402178   -0.393567535527    3.087389249824
H      0.927604124390    0.252983128571    4.720756603541
H     -0.277834575213    0.616701070054    3.458391414441
C      3.735546855985    0.604732509000    3.961824230441
H      3.377923743533    0.317007178723    4.964773459948
H      3.619907191048   -0.284529941988    3.319404638996
H      4.809579258153    0.827183762819    4.038781882814
C     -3.595290106161    4.268993039067    0.012496240199
H     -3.626828519784    3.209589959425    0.314689146946
H     -4.059829549283    4.850783668717    0.824532105729
C     -4.294521168819    4.493830369019   -1.311747340086
H     -3.846401918833    3.880351640712   -2.107656502320
H     -5.356785207853    4.217044303993   -1.222724648318
H     -4.238967886212    5.550758702438   -1.615556760779
C     -2.942447882553    0.556200416615   -5.572039522271
H     -2.562214233305   -0.354138099888   -6.055842858582
H     -3.514415186041    0.287965718226   -4.671174088385
H     -3.623905372679    1.049350338125   -6.283871231584
C     -1.013822029125    4.529159602244   -3.792752224049
H     -1.797593659151    4.826331034075   -3.079643210818
H     -0.091730627530    5.039181303986   -3.475746774220
C     -1.399710305475    4.965604761158   -5.187555652704
C     -0.436956028215    5.073718398722   -6.204153602908
C     -2.733169265237    5.266884230371   -5.503308606134
C     -0.794112330073    5.472767490236   -7.493147513684
H      0.607597147081    4.836744585435   -5.983064189834
C     -3.097240073965    5.666416196064   -6.793319370635
H     -3.496998431784    5.192135928616   -4.724159991013
C     -2.127429354300    5.771198793773   -7.793365630864
H     -0.028168432289    5.548668978308   -8.269508312666
H     -4.142238056259    5.899298269767   -7.015919429091
H     -2.407818253378    6.083895236536   -8.802681665547
N      1.945487002404    1.201260855781   -0.024209709386
C      1.266797385091    0.037219323541   -0.057516490176
C      1.948243110276   -1.200485833670   -0.094136553964
C      3.336388124071   -1.239587542737   -0.148857475172
C      4.022259461190   -0.004646793972   -0.162017259750
C      3.292564921232    1.169197805815   -0.096313729791
H      1.344686461556   -2.109557419953   -0.108327146846
H      5.111739178685    0.035259816416   -0.221438875211
H      3.792029886370    2.141146646651   -0.091094309295
C      4.089883041394   -2.541388954251   -0.220097937737
H      4.830243036092   -2.613729469895    0.593401138975
H      3.416074912066   -3.406997685491   -0.152017895726
H      4.648150296065   -2.616063978015   -1.168155846278
