43

H     -2.578904702893    5.498996777625    0.957192353436
H      2.271307230737    3.608702440664   -0.968885827055
Pd     1.038927053726    3.078542613934   -0.253684083539
C     -1.564652637856    2.726067188959    1.518252792280
O     -2.513028318646    2.149953631200    2.016979154542
O     -0.776427136124    2.258344004709    0.601642853378
C     -1.219588638739    4.192887748141    1.925599887816
H     -0.124553260868    4.282391366415    1.986786277690
N     -1.652424026842    5.099194821695    0.851968338758
C     -0.985829105740    5.401687821682   -0.270792392999
O      0.122499100283    4.930939087831   -0.593172927608
O     -0.010787635900    0.172701465459   -0.563547435088
H     -0.459624963756    0.963907479460   -0.100132740224
C     -1.626875616775    6.409030276732   -1.197962027649
H     -2.545892745143    6.854726462773   -0.792520871445
H     -0.897198623713    7.204626000934   -1.408521836018
H     -1.853000081325    5.913460788863   -2.154664715720
C     -1.877971504212    4.621240815328    3.237777870082
H     -1.739309329673    5.711038119775    3.364489023848
H     -2.959832128711    4.426685483867    3.142788714226
C     -1.366791323143    3.897715014005    4.497958308565
H     -1.483201641624    2.815824808536    4.318691085436
C     -2.242845977044    4.264911193210    5.702530079866
H     -3.299473423790    4.009646247706    5.523044729972
H     -1.918047777940    3.728603191060    6.608576333090
H     -2.189780126256    5.346312815566    5.919973857558
C      0.111283278445    4.188981922481    4.791396366161
H      0.441022349812    3.659441522422    5.699681716217
H      0.775513927645    3.869280151575    3.972715635166
H      0.279623925533    5.267634243121    4.957959740482
N      1.999054500010    1.244709970072   -0.070217939108
C      1.284979587073    0.124015911191   -0.367725555778
C      1.922348497088   -1.131781892385   -0.490572837377
C      3.274556337112   -1.231868116151   -0.234727513288
C      3.983799069207   -0.087239722122    0.155386345400
C      3.327455836789    1.137884994007    0.229904195773
H      1.302456396252   -1.987176730093   -0.759783548193
H      3.781853035103   -2.196936982828   -0.312191255769
H      5.045010451605   -0.140789226229    0.400542566980
C      4.080209930727    2.369698167199    0.648251131603
H      4.231550587996    3.047475656364   -0.206634744690
H      3.517001677770    2.936008434356    1.405004176614
H      5.062932226831    2.098653683802    1.059070889038
