74

C      1.204242327566    3.932473163760   -3.510263978309
H     -3.262302206559    2.152670825227    1.233210819618
C      1.739204210701    4.827075117769   -2.411705878713
H      2.498161231415    5.511385679152   -2.837277676121
H      0.942976671993    5.474789119649   -2.017462172999
C      2.396511090521    4.076780415080   -1.252370505372
H      3.138127161718    3.346324735008   -1.601772846074
C      2.983063710681    4.991682847799   -0.220798676058
O      2.623364915824    6.123773863337    0.006437955780
O      4.001604114683    4.403571522876    0.469067133412
Pd     0.966473048328    3.042431412790   -0.215014437208
C     -1.413299228709    3.675761397017    0.420415573336
O     -1.058923564847    2.484376172510    0.701357182459
O     -0.602357426484    4.463693279094   -0.148597698856
C     -2.791867055616    4.169229182485    0.822135012953
H     -3.181404618316    4.809252666489    0.017444298271
N     -3.682589202386    3.029982751501    0.948124275950
C     -5.014560375533    3.115169498826    0.660641041320
O     -5.541343967628    4.153912715051    0.294925846884
O      0.032467832744    0.144629701212   -0.229798028466
H     -0.368234397472    1.017254373939    0.002726917022
C      2.070205407280    3.341351929586   -4.443207640453
C      1.614716862072    2.497230165743   -5.464491090499
C      0.229145489382    2.229156701477   -5.567420925537
C     -0.636872292064    2.824471492294   -4.640980725008
C     -0.164852769354    3.662462190605   -3.627058342223
H      3.143196491088    3.552855363687   -4.379679244170
H     -1.710927066836    2.630320692037   -4.717308539994
H     -0.864877592788    4.116653765976   -2.921475674995
C      2.589564722613    1.892022193325   -6.445225536291
H      2.556748941495    0.788991737519   -6.425811892927
H      2.363255835928    2.191265242854   -7.483129974703
H      3.622517757615    2.200223900369   -6.226568015793
C     -0.307101406724    1.330592365509   -6.654685064862
H     -0.068138862370    1.717280173318   -7.660497971443
H      0.126443084173    0.317037382605   -6.599576335492
H     -1.400215729169    1.230287903034   -6.586975064427
C      4.587643612852    5.179404898505    1.526545621779
H      4.913589667406    6.149897700760    1.119679460397
H      3.815482857299    5.394400448303    2.283823133833
C      5.744809176366    4.394132578798    2.109444031784
H      6.508152185143    4.187664933584    1.342718418410
H      6.220017373153    4.970474267908    2.918528872841
H      5.405063395246    3.434158464908    2.529027250365
C     -5.804921613735    1.827223013732    0.835234168721
H     -6.562258809571    1.981844917699    1.619247638825
H     -6.346369172431    1.619107427672   -0.099543310936
H     -5.186540632670    0.956796440548    1.099265948179
C     -2.742284431674    4.999754474447    2.132128952625
H     -3.791884817203    5.246957633676    2.365844790886
H     -2.384563257236    4.335764358263    2.938935208765
C     -1.910176833993    6.295104385506    2.122693628962
H     -0.858468007540    6.031456699647    1.915705850893
C     -1.963289993131    6.946714478730    3.511575133925
H     -1.612303523472    6.257531943758    4.297496412152
H     -1.331996749483    7.848938918086    3.550379243939
H     -2.993139300193    7.248920384111    3.769678717708
C     -2.362449843973    7.278707983709    1.035553318141
H     -1.796619926490    8.221608597381    1.105186220833
H     -2.195168098958    6.875444241222    0.025878496170
H     -3.434631638764    7.520713029779    1.136722736022
N      2.064760998844    1.283564957974   -0.109147808465
C      1.356436641163    0.136006076134   -0.164151070525
C      2.009376528607   -1.113439091245   -0.163559746537
C      3.387412376582   -1.158386499947   -0.069484839580
C      4.132837969718    0.034199553245    0.036438007575
C      3.414271610642    1.222767643471    0.010202293871
H      1.395215751966   -2.012231335563   -0.227612206824
H      3.898910101873   -2.125313854003   -0.065046791114
H      3.921293474051    2.184922470609    0.096179818129
C      5.634243756241    0.026734173524    0.168374768782
H      6.034833670776    1.047762788280    0.246404925282
H      5.955388846215   -0.530789583705    1.063896774151
H      6.110127621851   -0.455960457410   -0.701442718047
