44

H     -2.425023342953    5.610066193215    1.031949443022
H      2.395221508740    3.622719483337   -0.809233579957
Pd     1.089747917836    3.090384695393   -0.235579630681
C     -1.456243768008    2.735173419384    1.557448016767
O     -2.245427808198    2.077899077927    2.206405015541
O     -0.815896271264    2.340664559417    0.497474320358
C     -1.133536237768    4.208852405244    1.955267924935
H     -0.037427857231    4.289486877608    2.044352863960
N     -1.540206358412    5.134521942451    0.893355146574
C     -0.843706043736    5.471998987639   -0.200418135303
O      0.251021311599    4.977483630326   -0.533184637331
O     -0.010732302643    0.065361118626   -0.144188487166
H     -0.454609959744    0.954980294510    0.114480290827
C     -1.433898170109    6.547396651038   -1.083023587084
H     -2.341624660480    7.005330349773   -0.666328845521
H     -0.672883611215    7.325741975936   -1.240024272720
H     -1.662519300944    6.110841562963   -2.067413090507
C     -1.800941259544    4.598073302085    3.282325228951
H     -2.879926243752    4.392197827755    3.200632661610
H     -1.430683189755    3.893015261368    4.041750242699
C     -1.556160424678    6.028268906468    3.711787516808
C     -0.280281439342    6.451936461213    4.122508639441
C     -2.594142002294    6.973305979782    3.697357230728
C     -0.049063795377    7.776748067403    4.498212236140
H      0.543131709379    5.732077088643    4.154329300175
C     -2.367619932816    8.302232277200    4.072878757628
H     -3.601132048382    6.659966499398    3.403820280750
C     -1.092688295356    8.708755814550    4.472500230532
H      0.950419327067    8.083691530995    4.817413070241
H     -3.192884145754    9.019110481342    4.058630267049
H     -0.912328568025    9.745097242870    4.769062030717
N      2.004941217246    1.241143883163   -0.076028373528
C      1.296047070254    0.083762739558   -0.104735397921
C      1.974622060272   -1.161973890411   -0.107983630963
C      3.350325406008   -1.202588382327   -0.049101607377
C      4.092424460167   -0.002410936163    0.017208006234
C      3.364246450567    1.175863374359   -0.003367469709
H      1.361280908496   -2.062956513185   -0.144440697864
H      3.867256738622   -2.166890426680   -0.045673857642
H      3.874955662217    2.137082830997    0.031932552006
C      5.597462295286    0.001043212004    0.097687604300
H      5.996204467097    1.025624159392    0.131361844401
H      5.953166006940   -0.526804581174    0.998528576012
H      6.047736619765   -0.505224937916   -0.772561459617
