77

C      2.330588699960    5.360424755426    2.563152902611
H     -0.273938416387    4.804821780401   -3.567221813864
C      1.100771759224    4.552283396079    2.229287116376
H      1.511769700368    3.422358748568    1.996155089531
H      0.494182890711    4.304404535297    3.112449158930
C      0.246485132118    4.962245499968    1.092466320847
H      0.560843339652    5.814986478084    0.481732321909
C     -1.231507775501    4.836465439787    1.283642802718
O     -1.750118159705    4.272375632218    2.224926899093
O     -1.909764718330    5.407575342637    0.277271703763
Pd     0.973152470225    3.210702510148    0.337057933216
C     -0.865320705555    2.788347087685   -1.855505590621
O     -1.378139193018    1.892669597636   -1.157584932511
O      0.219252808298    3.406126231376   -1.587771732544
C     -1.549062895376    3.179469739540   -3.175105601217
H     -2.632267785728    3.128228311865   -3.005362160314
N     -1.256596891536    4.558185124515   -3.524588149490
C     -2.163389536507    5.565400169830   -3.349464844268
O     -3.338784623849    5.365594066419   -3.075957416531
O     -0.054292648661    0.119344326067    0.062254498163
H     -0.533128861873    0.947972577427   -0.321593029196
C      2.523553451429    5.815547601827    3.874396008856
C      3.630543879909    6.594830119450    4.238391406777
C      4.588828737217    6.928659556110    3.253570672398
C      4.395771717397    6.464763004028    1.944079159075
C      3.288326241323    5.690785650749    1.596239957730
H      1.784470452582    5.560578112605    4.639819369029
H      5.135177168425    6.714726820717    1.177875913839
H      3.170278522468    5.339832364292    0.566678777551
C      3.792248622658    7.066530284924    5.662269146700
H      4.733313956169    6.700578956773    6.107037651295
H      3.825111460362    8.167637159804    5.723731510238
H      2.964168886703    6.720056928838    6.297097801158
C      5.796602837930    7.762436304052    3.601258554188
H      5.507782002825    8.751248690224    3.996646790555
H      6.412425535050    7.282454497608    4.380946767955
H      6.436697231616    7.926982564581    2.722494052618
C     -3.354946400169    5.301811726615    0.296440829902
H     -3.647330074279    5.384463591757   -0.758609963100
H     -3.624036623872    4.304988712707    0.674369767630
C     -3.981212333121    6.396073453424    1.143910491654
H     -3.675835039921    7.393464075496    0.789766298798
H     -5.079139975300    6.332921654735    1.074081095752
H     -3.699297704758    6.291390865460    2.202267462268
C     -1.604578497911    6.970850906124   -3.497615207486
H     -0.684720005256    7.012649454141   -4.099892332503
H     -2.372924631465    7.613543091585   -3.947941974457
H     -1.384267008325    7.362610060065   -2.490893638689
C     -1.148063973422    2.227068044866   -4.323813135345
H     -1.664149121851    2.590709893359   -5.229972040503
H     -0.066238966679    2.352038264180   -4.513273364322
C     -1.453888869341    0.729361464244   -4.133614283460
H     -0.895783204932    0.374017561472   -3.249817465729
C     -0.953657405602   -0.059031431499   -5.351569373284
H      0.122019671015    0.105858114672   -5.529196853203
H     -1.108640405685   -1.141526239126   -5.215604982597
H     -1.491800622157    0.241182540827   -6.267536116812
C     -2.941578114608    0.461521205850   -3.871742551400
H     -3.138751772624   -0.621447758790   -3.815639328799
H     -3.266831768794    0.903903015614   -2.919108134300
H     -3.569996987235    0.872519657949   -4.681330728354
N      1.931149422278    1.290778676298   -0.004584622909
C      1.253783185070    0.142500721288    0.030356658105
C      1.938954667225   -1.131885409521    0.058428081034
C      3.363020139179   -1.143568051698    0.016620659535
C      4.038682214909    0.111925995209   -0.059959287048
C      3.302026957185    1.263634132017   -0.067563023372
C      1.221381509712   -2.351002219017    0.118975278685
C      1.902101754642   -3.554435582510    0.146618590025
C      3.315913395742   -3.572712078407    0.109671258262
C      4.034238704549   -2.393108525005    0.044269144965
H      0.131709196240   -2.314854383182    0.143990089134
H      1.348682243504   -4.495217766708    0.195067166033
H      3.843715491321   -4.529774443361    0.130996190851
H      5.126674899760   -2.408992827173    0.012803831610
H      5.128215504752    0.154464960853   -0.108084365799
H      3.786296156427    2.241313048414   -0.118617394724
