62

C      1.595054086509    5.848930474337   -1.241706668448
H     -2.712246067976   -0.264359701944   -0.834075054667
C      1.236763219586    5.440541696029    0.122771584994
H      2.187423578898    3.522816114996    1.072180993260
H      1.961144359307    5.701989551924    0.900063796113
C     -0.010901224502    5.016682080991    0.573335201785
H     -0.871752143114    4.966536995345   -0.098482518410
C     -0.320029252579    4.993243007474    2.039815543037
O      0.454659380609    5.271296341918    2.928772374326
O     -1.587313349314    4.605508476085    2.214220352493
Pd     1.017638330189    3.131519187810    0.193712333372
C     -1.853360973672    2.780504460040   -1.249931035596
O     -2.009937094167    3.941628911902   -1.593164379738
O     -0.729381574487    2.284227908110   -0.808665622630
C     -3.011055832886    1.760487415947   -1.424043517338
H     -2.825786001936    1.310899852796   -2.415850217564
N     -2.948323507770    0.652983689727   -0.477249542554
C     -3.005935012976    0.812584779448    0.881006690300
O     -3.168268561230    1.904123300149    1.405125680965
O      0.001268854410    0.033799663221   -0.203668762251
H     -0.412474164256    0.977916324174   -0.461352689051
C      2.855963861774    6.440459889810   -1.452855149691
C      3.268183850139    6.895224050558   -2.708741848022
C      2.387065324084    6.751819778272   -3.807369260902
C      1.131734779350    6.157838753684   -3.595788095826
C      0.726480197568    5.708601925158   -2.341834389195
H      3.534306044867    6.552376147212   -0.601508426416
H      0.450253736001    6.045747434074   -4.443694788172
H     -0.253472411783    5.239998154839   -2.219521929929
C      4.626148161821    7.528868345649   -2.885080139392
H      5.241080949100    6.976981863646   -3.616235083770
H      4.546626770928    8.563145008487   -3.260897138146
H      5.180716550486    7.559566271131   -1.936115104080
C      2.785238180006    7.227806327906   -5.180662160557
H      3.003847107372    8.309439489915   -5.187197361705
H      3.700307404233    6.723434834221   -5.535670306828
H      1.990262838982    7.040672155747   -5.916522400938
C     -2.078572130530    4.380583057529    3.547519903022
H     -2.771867917578    3.535805879355    3.434729010927
H     -1.235617167296    4.084773211812    4.189918290839
C     -2.770765492604    5.617771445890    4.093806510801
H     -3.581953249378    5.941580050474    3.423397388489
H     -3.208579360854    5.396212795236    5.080628088193
H     -2.058872288243    6.448677749157    4.214584968799
C     -2.838087194920   -0.472550036172    1.677439583047
H     -2.988952924556   -0.252832294695    2.741260886244
H     -3.562195625057   -1.238507221818    1.356007984837
H     -1.825311622284   -0.878056714202    1.523950679367
C     -4.376156450427    2.452523019444   -1.455155380216
H     -5.163342300878    1.724170096014   -1.703817565120
H     -4.595030318674    2.896923799604   -0.475136536605
H     -4.371438313311    3.253021778503   -2.206417989333
N      1.990139848133    1.203024461022    0.017575483152
C      1.293629273168    0.045181159299   -0.070348955292
C      1.994203064840   -1.198770790457   -0.002495493588
C      3.371111642441   -1.226802967412    0.101392350229
C      4.060950365801   -0.004558216892    0.144754088624
C      3.341883613300    1.177418046434    0.107869705741
H      3.905457090534   -2.176556552092    0.142586287968
H      3.853547333947    2.136966528681    0.158079372270
Cl     1.077100015411   -2.670795196573   -0.068771573613
Cl     5.798162857428    0.029936719362    0.258930275781
