71

C      0.174804253967    4.972522175539   -2.561443785750
H     -2.685301287715   -0.186203722460    0.180247733299
C     -0.072281937555    4.856586153360   -1.121493756265
H     -1.062014675618    4.438244541957   -0.919369994447
H      2.418840990407    3.791201101400   -0.658068707197
C      0.541547005527    5.297445999887    0.062264085238
H     -0.092648025861    5.206976083320    0.949610737204
C      1.700118597207    6.220749744699    0.253324013194
O      2.416012601791    6.715693820666   -0.589045986362
O      1.848139366194    6.473935424375    1.567976482635
Pd     1.129421342976    3.193401078861   -0.129491263974
C     -1.851337287465    2.734004022225    0.854904192765
O     -1.988293936200    3.861870441464    1.299597446564
O     -0.705815709182    2.211316844039    0.507935480949
C     -3.106107855132    1.845705650188    0.673176069154
H     -3.831989151725    2.517746160846    0.191429009435
N     -2.909620584506    0.717938862170   -0.218007865323
C     -2.796263668768    0.875419953615   -1.571072027653
O     -2.907717836799    1.970122464763   -2.108704878129
O      0.159453174198    0.051316530164   -0.230349840645
H     -0.314381153583    0.947478863462    0.065518857266
C     -0.765471993673    4.314348542991   -3.388507580508
C     -0.678613597024    4.333839575014   -4.781901699168
C      0.380047369833    5.050755137527   -5.389127339643
C      1.312821237940    5.706291672335   -4.567418214391
C      1.231647673089    5.672331283228   -3.178003877461
H     -1.580114499998    3.752334569720   -2.922614265838
H      2.131092306969    6.260421050774   -5.036334307144
H      1.968782628312    6.187382790508   -2.564234189286
C     -1.705519938809    3.598872265585   -5.608474765959
H     -2.291587172382    4.290252954760   -6.238674709683
H     -1.232782697026    2.875230784891   -6.294148981450
H     -2.404427796556    3.048583983623   -4.962672623000
C      0.507997382327    5.110135514215   -6.889046974689
H      0.625829842366    4.102971778074   -7.324651678455
H     -0.393156299896    5.545029787648   -7.354185100305
H      1.373268830017    5.714712894380   -7.196713965863
C      2.910519803578    7.365034911761    1.942045298404
H      3.867661211380    6.949555422209    1.585470357332
H      2.767986826826    8.327451794720    1.423950322431
C      2.883314300125    7.520916489647    3.448299906197
H      3.033795149430    6.552024917785    3.948840720628
H      3.684707802390    8.204448277899    3.769427647950
H      1.920063593411    7.934907651719    3.783708026724
C     -2.510815466943   -0.400389334486   -2.344728440021
H     -2.610273462875   -0.198574650409   -3.418078687546
H     -1.484911414771   -0.739516631948   -2.128989283844
H     -3.201308459965   -1.208849042064   -2.056520858832
C     -3.681123089032    1.422654942920    2.047168324524
H     -3.734922906937    2.364471627418    2.618980408470
C     -5.103762171013    0.867113508782    1.902681546778
H     -5.550441823277    0.641835468742    2.882894096421
H     -5.761012416401    1.592522587959    1.397910012723
H     -5.115387203709   -0.060851583065    1.307431682485
C     -2.740288833921    0.468913047470    2.814062155648
H     -2.754616369943   -0.532103958897    2.341421946336
H     -1.703160588072    0.832358560304    2.717458749906
C     -3.071524467011    0.315113753680    4.300704572914
H     -4.070239365755   -0.120688325293    4.461710634654
H     -2.343241044088   -0.342268520949    4.801538985851
H     -3.047322913325    1.290691166839    4.813800359876
N      2.128073814378    1.271054643759   -0.064081530684
C      1.458823712808    0.100710318925   -0.194489527812
C      2.197139571193   -1.117131262672   -0.311910391359
C      3.576885053319   -1.113179931826   -0.247904609267
C      4.232613294833    0.115726038113   -0.072088195306
C      3.481447610805    1.275409043745    0.007409157921
H      4.138608488917   -2.044509302183   -0.327634357021
H      3.967542680151    2.242390877141    0.123594043432
Cl     1.322252492820   -2.601111343065   -0.522572552125
Cl     5.969162265769    0.187723465801    0.029114054849
