66

C      1.544004684033    3.967805555182    2.450175579094
H     -2.202257228418    1.626527839135   -3.275344427018
C      0.785758242948    5.229617000026    2.034281333580
H      0.088347725823    5.534183033843    2.831657928482
H      1.501012448946    6.047812730285    1.869085022969
C      0.054823166987    4.876691672658    0.739566405565
H      0.261724875475    5.516270346978   -0.126337327599
C     -1.397470364266    4.575642706761    0.892773493258
O     -1.929993163491    4.246882338388    1.937707672325
O     -2.080638185617    4.682276624499   -0.262974043885
Pd     1.006620463979    3.100824220049    0.346167667286
C     -0.293354534863    2.622997823558   -2.187826348344
O     -0.935961471038    1.728747856345   -1.597066016852
O      0.641270509790    3.321674819336   -1.682640657699
C     -0.613185812041    2.925529451028   -3.661375284737
H      0.239284039516    2.536865243339   -4.250946271037
N     -1.809412992599    2.185045092791   -4.028470779533
C     -2.132112772727    1.917269549665   -5.327039504292
O     -1.513020557544    2.380124103949   -6.273055997867
O      0.127271569197    0.022232111279    0.023112790264
H     -0.291012744599    0.791826946982   -0.493532712752
C      0.819577608175    2.780811776528    2.737559375792
C      1.454964584541    1.623376152059    3.256802759520
C      2.841483516914    1.643200299837    3.469748419046
C      3.563301591645    2.819838834500    3.163633607735
C      2.944641795341    3.953901118187    2.660732209342
H     -0.272906048066    2.818466413932    2.717272738978
H      4.643281541283    2.832680147733    3.336814364427
H      3.528748094288    4.854477929196    2.453689900177
C      0.628550648840    0.404943256429    3.579911981451
H      0.892988730114   -0.447824884783    2.931860760645
H      0.783078169348    0.074751352493    4.620613876924
H     -0.442927334044    0.600902005808    3.437597273577
C      3.557906769094    0.435525067220    4.018905286982
H      3.166141712112    0.147022409296    5.008997053712
H      3.427254143464   -0.440005910433    3.361077251773
H      4.636575408970    0.620235101399    4.124511665215
C     -3.466106670171    4.297267179474   -0.220563869473
H     -3.528528493888    3.243492228672    0.096075570951
H     -3.978301856020    4.896793498050    0.549117670657
C     -4.068698214978    4.506486785311   -1.594032488007
H     -3.574945851693    3.874403494170   -2.347150176819
H     -5.138520417052    4.245006028451   -1.572734084678
H     -3.979169248966    5.557461390524   -1.910221399598
C     -3.342242557726    1.014548497558   -5.525053213253
H     -3.050272402033    0.169240142211   -6.166189820869
H     -3.770558947867    0.631779652968   -4.587222001517
H     -4.115932783681    1.578906870457   -6.068238109811
C     -0.719515772676    4.429438699768   -3.940798436145
H     -1.503032838719    4.890889545184   -3.321935501781
H      0.236247509690    4.920365363074   -3.710956979010
H     -0.954972760133    4.580427239765   -5.003018030004
N      2.102613012435    1.224986242995   -0.010536660183
C      1.443535650752    0.061254663083    0.003246299273
C      2.158546543097   -1.181031525305    0.032247592876
C      3.546146690532   -1.150892198779   -0.034935048849
C      4.206998450375    0.090283327028   -0.111410394774
C      3.454211811598    1.247439260152   -0.089775198539
H      4.123836866830   -2.075765157454   -0.043476281913
H      5.294627645756    0.140298521587   -0.181515977073
H      3.916826119097    2.235537825055   -0.128022700662
O      1.391725987925   -2.287259907008    0.111416655884
C      2.016961210583   -3.551668532307    0.107732480129
H      2.694312293394   -3.677460318831    0.972195262503
H      1.213569294223   -4.296910248475    0.172589421310
H      2.590450513275   -3.721228910666   -0.821561015565
