68

C      1.475707457089    4.021593757151    2.531554908526
H     -2.152506868178    1.670361506463   -3.312750363389
C      0.654647667935    5.235600505792    2.100852404428
H     -0.077251095000    5.495284631295    2.883085477228
H      1.323058484501    6.096129197960    1.955220549456
C     -0.026745044886    4.849492235289    0.789242821006
H      0.171087850001    5.501342858235   -0.069455127135
C     -1.468395906940    4.485179135445    0.908397902394
O     -2.001770821500    4.100033303625    1.933265028824
O     -2.138327308416    4.606695645099   -0.253342238261
Pd     0.990326239230    3.108694228298    0.396768728443
C     -0.278277614982    2.673356443568   -2.163642066051
O     -0.934684484100    1.774012958259   -1.594990959722
O      0.648364409708    3.362606080826   -1.632669609310
C     -0.570409772080    2.995934967647   -3.638018302372
H      0.301834416869    2.634176524190   -4.215230339996
N     -1.744674000474    2.242721323144   -4.047018583779
C     -2.029695741280    1.992111787698   -5.358018905258
O     -1.392949875142    2.480305986893   -6.279078076485
O      0.057821106933    0.094091892953    0.075648346937
H     -0.331464790844    0.869354874069   -0.461669645359
C      0.819679284464    2.788908967243    2.788384861632
C      1.514277837123    1.673067965871    3.323289542190
C      2.889460606055    1.780503035082    3.579792454236
C      3.542280368003    3.001864303164    3.298271646625
C      2.866021682272    4.096433359936    2.782664159455
H     -0.272628327055    2.758628238625    2.743542667576
H      4.613901742324    3.082691257339    3.500711462705
H      3.397267187355    5.033132266753    2.594782333347
C      0.758907661555    0.407234253120    3.636361965937
H      1.195956217146   -0.462915058998    3.119426577958
H      0.790232195268    0.179303395722    4.715849128814
H     -0.293863605046    0.482440884776    3.332713600421
C      3.663235003462    0.622210797992    4.157239494884
H      3.249425612823    0.302201893162    5.128431814990
H      3.624329315486   -0.257950663959    3.493553147433
H      4.720706894252    0.881090812501    4.309805018908
C     -3.506587289801    4.161541465977   -0.248576814728
H     -3.525143768278    3.089402846823    0.005976903592
H     -4.050631978834    4.693598038714    0.548096805728
C     -4.105208688818    4.423148071036   -1.614764620298
H     -3.579820620716    3.854240530068   -2.396253498797
H     -5.163678005987    4.118270093962   -1.619710942882
H     -4.055678778804    5.492970345892   -1.870836757055
C     -3.219517512352    1.074263120077   -5.602940962321
H     -2.895527046026    0.240880148004   -6.244335063429
H     -3.670236155867    0.674066352128   -4.683055547337
H     -3.984661674661    1.633456263351   -6.163179904008
C     -0.697680611297    4.503326761838   -3.890905073926
H     -1.503010197182    4.938612454068   -3.281066436012
H      0.243890941207    5.006853998315   -3.631514091825
H     -0.912625058603    4.670286167907   -4.955072245759
N      2.075924830977    1.205284437508    0.009801699156
C      1.375060221251    0.076488426979    0.067642761483
C      2.012511250198   -1.204686139752    0.151578350739
C      3.376891300526   -1.279101953467    0.102259924928
C      4.151374569360   -0.090669073788   -0.046194890616
C      3.447961023194    1.153412624316   -0.096908039486
C      5.565626892301   -0.099494959336   -0.152694018299
C      6.267782692930    1.078864958939   -0.315665353006
C      5.570047664324    2.307164068481   -0.378756954322
C      4.192209369260    2.347918903565   -0.269046521440
H      1.373579126245   -2.085319564530    0.226183188163
H      3.884577957923   -2.246467533636    0.152478748978
H      6.089310098715   -1.058518586143   -0.111280520629
H      7.356535561255    1.064705768701   -0.403868365501
H      6.126021525405    3.237138554961   -0.522106645350
H      3.651356516137    3.294163282302   -0.326958270840
