83

C      3.946744493504    5.178585375300   -0.076444073832
H     -2.722803902792    5.009860002023    1.007085035602
C      3.088604878465    4.991142645554    1.156740868214
H      3.675980380014    5.298592442893    2.042105300365
H      2.226279811081    5.668572363382    1.116216415753
C      2.586184809759    3.566109271892    1.419922906225
H      3.407910711533    2.840620728011    1.450047485410
C      1.773143550283    3.476331522558    2.673463665436
O      1.055551996750    4.351054862943    3.121988132951
O      1.902398966520    2.272065578789    3.282734852553
Pd     1.195159666283    2.834171855134    0.068566305099
C     -1.546272018599    2.765603748052   -1.060794883039
O     -0.498128233291    1.983441326347   -1.079924046940
O     -2.094962122059    3.250582345979   -2.027042925320
C     -2.112024880249    3.079589135460    0.366908365319
H     -1.564635715505    2.482974852715    1.114174961178
N     -1.912077362069    4.499133465044    0.675757194805
C     -0.784914588978    5.199133250178    0.514476620348
O      0.287079064692    4.723215084276    0.084801451768
O     -0.039661923261    0.131392628578    0.561043634756
H     -0.324378727738    0.901603263396   -0.076710868333
C      5.346526483142    5.158217977295    0.010334747495
C      6.176046799608    5.333764386662   -1.106708993339
C      5.585238940404    5.535725827359   -2.375586838506
C      4.185865235436    5.558552617845   -2.464030137417
C      3.374668964815    5.387382583680   -1.339812923352
H      5.812657464499    5.005814238892    0.989361054490
H      3.718367114392    5.720870020433   -3.439814754481
H      2.287525027694    5.419851838554   -1.442049796166
C      7.677575454140    5.315531900311   -0.950695167427
H      8.144593526386    4.524367446876   -1.562614843654
H      8.132710807103    6.266979710502   -1.275802615980
H      7.970126613611    5.145155211562    0.095676980551
C      6.437070243415    5.734793374352   -3.605478693373
H      7.090863484580    6.619173869634   -3.511504532272
H      7.103320502516    4.873972363781   -3.788166499184
H      5.816596068602    5.872137598184   -4.503025187753
C      1.113783881765    2.051930139438    4.459523282745
H      1.309562669875    2.861004039739    5.181910625020
H      0.044484351079    2.112834052383    4.194345914962
C      1.474740325882    0.691812463654    5.021633588490
H      2.544710113347    0.644045717651    5.276916571880
H      0.892467415021    0.494971007782    5.935612520828
H      1.259082407313   -0.107608372719    4.296018600983
C     -0.812460761427    6.656555015018    0.900148078820
H     -0.233347663488    6.758086950265    1.832063503711
H     -0.307170572699    7.243990381056    0.121154256695
H     -1.827909623962    7.046815708654    1.056335657087
C     -3.616945805685    2.792194271756    0.425729206673
H     -4.016353715551    3.170073584996    1.387018169721
H     -4.076623717117    3.382531162043   -0.384343450500
C     -4.026448896159    1.317111718442    0.268260939924
H     -3.558238634488    0.937075693478   -0.657873115051
C     -5.546962820150    1.216613478227    0.087413075000
H     -5.888933555225    1.800380904282   -0.782022236860
H     -5.860620038556    0.171465165403   -0.064263211489
H     -6.078276045576    1.596511773467    0.977660671603
C     -3.556446578376    0.441444107778    1.438333499383
H     -3.892631342300   -0.599388871897    1.303763321553
H     -2.460683635562    0.416338402055    1.534241803005
H     -3.976114115132    0.802796296811    2.393730750718
N      2.055547806914    0.923815137321    0.087110274472
C      1.257001049855   -0.051517368337    0.491399808165
C      1.765379596189   -1.351279443883    0.896659279936
C      3.152601235965   -1.614855592059    0.775361443268
C      3.992838201911   -0.593512143193    0.167059556301
C      3.401091383717    0.654885232369   -0.178012620923
C      0.888103385921   -2.327117094795    1.419624820346
C      1.382445862859   -3.548436996436    1.847326116749
C      2.761928259078   -3.814130935007    1.749594923119
C      3.629114961651   -2.869357969482    1.221665948261
C      5.359869146513   -0.796298531922   -0.129125465061
C      6.116515546621    0.181421566680   -0.755558998743
C      5.517408915400    1.400945896309   -1.114983887330
C      4.181126447436    1.633251139174   -0.829052203335
H     -0.175489148486   -2.095806839880    1.480801680793
H      0.706540773199   -4.302681114766    2.256799867588
H      3.154952790785   -4.775886717438    2.089112591798
H      4.691878764843   -3.103749516603    1.154274505529
H      5.828421232709   -1.748019146870    0.124940268165
H      7.169970169887   -0.002589783871   -0.979013634460
H      6.096124425309    2.174809769110   -1.623264332546
H      3.711325048675    2.575127263547   -1.111823950354
