62

C     -0.176672139361    3.993469883621    3.375547781825
H     -1.552255262032    5.514854624209   -3.407758550735
C      0.945349562525    4.376307444068    2.444817564250
H      1.816475643385    4.799863778054    2.967118739006
H      1.507788654915    3.322540987828    2.123729863161
C      0.642671342563    5.086769430100    1.187278863574
H     -0.390578371196    5.361473033145    0.956598612278
C      1.701516424831    6.010256715374    0.692591130859
O      2.845495329842    6.027357533862    1.101487308374
O      1.266305321059    6.827080007570   -0.287451092748
Pd     1.117651901041    3.248546737977    0.416739236073
C     -0.880086296998    2.925369198606   -1.630900268641
O     -1.239151525625    1.859488298945   -1.097402217095
O      0.213386813256    3.549138137922   -1.442268140660
C     -1.851493406695    3.545305067142   -2.649259519919
H     -2.840688417330    3.112300117815   -2.439334928108
N     -1.898219730851    4.990289862580   -2.615399892683
C     -2.183375490067    5.649228540845   -1.456808469452
O     -2.460914107460    5.048594594099   -0.425858582415
O     -0.003216462971    0.111027663857    0.162032938468
H     -0.456400856061    0.937866232491   -0.290717696622
C     -1.466342076026    3.706715680659    2.900090375320
C     -2.512076596215    3.365228449264    3.765100164134
C     -2.263883002794    3.296154426913    5.158050356300
C     -0.974235595113    3.579322941897    5.626008239281
C      0.060192771702    3.924006754819    4.753131093749
H     -1.676942176119    3.752695086529    1.828262949422
H     -0.774490695134    3.531440223580    6.700316100840
H      1.055349354716    4.144173062083    5.150103483448
C     -3.883417684505    3.076688370329    3.206141986181
H     -4.196709856128    2.039700358351    3.417353879286
H     -4.649126697031    3.732928479836    3.653540678545
H     -3.906556078114    3.223991853603    2.117281098904
C     -3.364514635954    2.924774298541    6.119601768717
H     -4.206372691875    3.636294796682    6.067615455650
H     -3.783651291241    1.929911638521    5.891773447545
H     -3.002330421372    2.907844281866    7.157809214982
C      2.260200403461    7.683924066392   -0.878306983962
H      2.702339139164    8.314022643942   -0.089831252091
H      3.072919350690    7.056993957405   -1.279291943872
C      1.603731003019    8.512947815679   -1.961992435852
H      0.810626659990    9.155956724969   -1.549953755678
H      2.354854429307    9.161522925575   -2.439261623185
H      1.162206758017    7.870213098619   -2.739128145848
C     -2.106450390581    7.162516671643   -1.511357622819
H     -2.922566902004    7.578886326916   -0.905145699168
H     -1.152346348161    7.470290565387   -1.056173869255
H     -2.162217888729    7.568313752389   -2.532566336169
H     -1.548243471913    3.226969605240   -3.658479520369
N      1.988532176263    1.273107751205    0.056870505742
C      1.296640468105    0.111816685976    0.129491904399
C      1.985448845184   -1.130939027379    0.193347484404
C      3.360703650396   -1.154846914005    0.132721172969
C      4.065608930634    0.061183475846    0.005867142270
C      3.334869495690    1.237829575857   -0.022367245695
H      1.387670673294   -2.039249968450    0.273978806476
H      3.901150722122   -2.103661536362    0.173551367139
H      3.841084354081    2.202588594673   -0.097192945256
C      5.564135197716    0.063442974157   -0.096375531217
F      6.128233592059   -0.599123149078    0.932225930399
F      5.985211465371   -0.548243127485   -1.220939630697
F      6.070024785379    1.307370831216   -0.103223136674
