41

Pd     1.078894584583    3.065252748890   -0.566230764877
C     -0.003075661368    5.664341899793   -0.421423477046
O      0.416717181765    4.766727176992   -1.296323588413
O     -0.405345608874    6.761230935824   -0.735376405575
C      0.112709839506    5.189654482656    1.045001756412
H     -0.754786247397    5.586723222108    1.592755814680
N      0.068326162446    3.719748318431    1.018853933872
C     -0.875344214716    2.969146173062    1.596957076373
O     -1.060541015742    1.759953763366    1.339637680498
O     -0.013864256688    0.097287741203   -0.142325825871
H     -0.438539010102    0.902511718630    0.389399390726
C     -1.785356420906    3.598927789034    2.642784727992
H     -2.301182295483    2.782328141676    3.162145827872
H     -1.238422013230    4.215090232062    3.368601137066
H     -2.540988998463    4.234942819854    2.153709217764
C      1.403355719156    5.748563659908    1.712523672903
H      2.247841403770    5.462763758199    1.056883395226
C      1.367112308357    7.279884962476    1.803447339102
H      2.316826828082    7.660064666823    2.212451220885
H      1.192159091241    7.748579735158    0.826071810634
H      0.559181707344    7.610947329727    2.478386743472
C      1.649193637634    5.125396628261    3.091120686988
H      0.853363130327    5.406962523505    3.801896689789
H      1.695853768494    4.027440837875    3.044585231499
H      2.601281896772    5.487641894245    3.510808046119
N      1.973425534018    1.249715299506   -0.022052002333
C      1.284094877713    0.101029159151   -0.113179450959
C      1.959978475477   -1.162348089489   -0.205043388991
C      3.321197397801   -1.210999630334   -0.133148150567
C      4.074350658061   -0.010657307116    0.042744422207
C      3.355539103676    1.221926361405    0.102582002945
C      5.486620993000   -0.002946908270    0.154886561567
C      6.177827804206    1.181920680492    0.324457754580
C      5.465914426837    2.398811480642    0.390789753592
C      4.085659549204    2.422240145320    0.282905925697
H      1.338344893858   -2.051523039749   -0.313318249883
H      3.848135473246   -2.167180615969   -0.193772296856
H      6.019923015816   -0.956007751767    0.105557856745
H      7.266584552670    1.179562510913    0.410347456269
H      6.007650420463    3.336956180836    0.533723817000
H      3.541890054077    3.367100916196    0.347261522554
