71

C      1.864196495436    3.951330178075    2.431468756260
H     -1.681525520080    1.266892094783   -3.663654353845
C      1.214324879924    5.300045053667    2.126994836872
H      0.676428353354    5.671229858776    3.014734691695
H      1.993286297520    6.029859727157    1.864670264114
C      0.272277672795    5.063275517995    0.948186799906
H      0.434793709847    5.694959008685    0.067329380090
C     -1.170449393190    4.949315629255    1.306381827748
O     -1.592715821743    4.707768841689    2.422891898849
O     -1.977964083855    5.133969187565    0.244267087047
Pd     0.937618899560    3.198806941848    0.398370194322
C     -0.500422781699    2.873828238064   -2.122231300490
O     -1.190532950042    1.998363658416   -1.554938200202
O      0.429171797072    3.553618520152   -1.584036724322
C     -0.776798085829    3.157129317186   -3.610636398957
H      0.152137379244    3.509308343561   -4.081723059698
N     -1.121152572763    1.890662910615   -4.235211484632
C     -0.518777455995    1.427438002239   -5.370620614113
O      0.279371712707    2.083826357496   -6.020100925375
O     -0.289126905258    0.223521740753    0.048199062382
H     -0.653690535872    1.035921599653   -0.450233898862
C      1.046778634356    2.846355910374    2.787353026870
C      1.604520766514    1.612797973212    3.213707720666
C      2.999322785497    1.472761304402    3.263675273324
C      3.808919831683    2.568167166788    2.885075356020
C      3.268218931133    3.775562827185    2.470889447679
H     -0.027837574734    3.007399453709    2.908609422699
H      4.896215062332    2.457074537214    2.930196130507
H      3.922300470067    4.609879614956    2.204308258683
C      0.692245651829    0.487830387540    3.629196842555
H      0.864153079763   -0.415861581805    3.021171846917
H      0.864087500714    0.197987804418    4.679906008123
H     -0.364453818274    0.766975747245    3.519936597667
C      3.633053566802    0.182570443878    3.718795128954
H      3.308158557446   -0.092245224213    4.736416033388
H      3.351556410467   -0.656450846045    3.060400424080
H      4.730246840529    0.252689613758    3.723283774020
C     -3.395242281194    4.973991167059    0.442390729437
H     -3.679170784413    5.459918836452    1.388197223091
H     -3.849205101224    5.526054309122   -0.393363200263
C     -3.815119501416    3.512748784699    0.430870290901
H     -3.420379889606    2.988148839800    1.313021664952
H     -4.914806033606    3.442418162617    0.453304623988
H     -3.444074208434    3.002847987672   -0.470884803569
C     -0.935264133321    0.026032428744   -5.796448197971
H     -0.029059863074   -0.580769149704   -5.941433263454
H     -1.602679592422   -0.478027176887   -5.081969248502
H     -1.439395459308    0.090720409794   -6.773158052541
C     -1.871914246466    4.246872530283   -3.808664260818
H     -2.772183518675    3.899758460866   -3.266697992238
C     -1.443470256932    5.595925944146   -3.218160604534
H     -2.219750248386    6.355768181175   -3.405208206866
H     -1.279472545307    5.542618182976   -2.133702087344
H     -0.511597583748    5.950733397627   -3.690067359121
C     -2.235987651974    4.389778216147   -5.291723480539
H     -1.356920294379    4.678851245699   -5.889809742782
H     -2.625810988720    3.449464736653   -5.707611560683
H     -3.010154486866    5.163119276206   -5.422255328329
N      1.782029084866    1.228274365071   -0.120580489218
C      1.022383213556    0.118390168786   -0.081458376887
C      1.590687659719   -1.184396431512   -0.152915928887
C      2.967460948276   -1.269985667064   -0.325977213603
C      3.748822732134   -0.107528693562   -0.425068791300
C      3.112663908183    1.117407598404   -0.312360042495
H      3.437415615146   -2.254738706486   -0.403898954765
H      4.827063229152   -0.156466894177   -0.583392791843
H      3.669101197971    2.056008554622   -0.365623509464
C      0.688529213102   -2.384273212091   -0.074974406671
H      0.137170760113   -2.408992283568    0.879330828992
H     -0.076105627361   -2.351280759756   -0.867675675218
H      1.259870717221   -3.318620879183   -0.172967031852
