74

C      1.364126618756    3.962933447964    2.660358845159
H     -2.247475163684    1.685285916986   -3.211482787773
C      0.507995289887    5.169214949753    2.277805715656
H     -0.214475175564    5.391142605633    3.080086297037
H      1.153977191967    6.048217947020    2.142259987749
C     -0.188450768819    4.799411542448    0.968975423828
H     -0.017664041390    5.474944214022    0.122947212484
C     -1.618294454462    4.398751863063    1.102577158213
O     -2.126973543609    3.979073258230    2.126484966154
O     -2.308779984256    4.526662847380   -0.046984867878
Pd     0.866637955751    3.092027109369    0.527897710526
C     -0.399599284906    2.709622663503   -2.050172559756
O     -1.016389584942    1.762457595937   -1.516677919709
O      0.519784882666    3.393274659182   -1.497364586667
C     -0.743113459971    3.110208503550   -3.494491568924
H      0.132681237566    2.842101199059   -4.112909285505
N     -1.874018038977    2.305009220530   -3.925056446744
C     -2.150331966971    2.094733350105   -5.243851605287
O     -1.539981052726    2.653127285943   -6.143488917872
O      0.133425751317   -0.006867874390   -0.041819044247
H     -0.315085658004    0.788510385947   -0.490461629189
C      0.739218968435    2.711776868914    2.905837852365
C      1.469444045265    1.597024791869    3.394533383732
C      2.847636953319    1.726601314124    3.620894741950
C      3.469458486354    2.967572344643    3.352059418008
C      2.760029671705    4.059441791818    2.876198379145
H     -0.353114341596    2.660454576019    2.886106335678
H      4.543421614090    3.066719124153    3.534941728526
H      3.267362609478    5.011175214754    2.697978979823
C      0.749664209127    0.304858096567    3.682064617912
H      1.173772579435   -0.530221060918    3.099872038025
H      0.837393196640    0.023227053000    4.745347733147
H     -0.318102047553    0.376750410542    3.434525738214
C      3.658946981653    0.569464176685    4.146421898580
H      3.267690839918    0.204106727254    5.110748847201
H      3.633428796119   -0.286528730319    3.451059622551
H      4.711498134688    0.850328574198    4.295031630407
C     -3.665472934551    4.046582494773   -0.033393736267
H     -3.653588359618    2.970702777214    0.205256746183
H     -4.212854830640    4.552430333502    0.777953544810
C     -4.287555079077    4.313289302871   -1.388102430248
H     -3.752765574477    3.776724792924   -2.185910062908
H     -5.335656762290    3.974379162072   -1.386482903728
H     -4.275226597393    5.388374916035   -1.625620102686
C     -3.294017871703    1.131131880886   -5.527250525324
H     -2.932448871343    0.344491597809   -6.206434202618
H     -3.719782340306    0.668592739909   -4.624872673286
H     -4.088830842403    1.676120820030   -6.059569421841
C     -0.989346204606    4.633275685786   -3.642559112624
H     -1.694153494729    4.770536279806   -4.477772212471
H     -1.490878614242    4.998332135948   -2.732267710584
C      0.270998304189    5.476488558935   -3.918099927278
H      1.051112648120    5.145665695586   -3.211584161547
C     -0.008207705237    6.959623022695   -3.643021481001
H     -0.310269986756    7.127132754468   -2.595938478437
H      0.882641850066    7.578611860621   -3.840200945255
H     -0.821259137405    7.336067068849   -4.288414870068
C      0.791112934057    5.279786256693   -5.349021716241
H      1.746083814712    5.810334804162   -5.498844926273
H      0.948490610424    4.219302129014   -5.596765836898
H      0.067926989133    5.669981768609   -6.084940408375
N      2.047660662064    1.282548841247    0.111623041472
C      1.451613453027    0.082235597895   -0.005987033212
C      2.202039984642   -1.126513339094   -0.066038275003
C      3.587403514992   -1.018180945270   -0.050845755666
C      4.205173495077    0.241155713645    0.020421551003
C      3.394737600045    1.360587807407    0.103315263778
H      4.196173952742   -1.924932062233   -0.112260650651
H      5.291074188192    0.345483273558    0.013592050449
H      3.816365200408    2.365810178548    0.175520805548
C      1.473977886399   -2.437162840257   -0.171817528781
H      0.811809856747   -2.596943549294    0.694880277587
H      0.822502227480   -2.452374321979   -1.060368940317
H      2.178225062764   -3.279203986066   -0.234718989658
