33

H     -2.514073206641    5.516168308495    0.886249301854
H      2.451988037092    3.677767577123   -0.682774244800
Pd     1.126397912359    3.131246734170   -0.180386262439
C     -1.456126357772    2.732398068333    1.543763897721
O     -2.183685180445    2.026883086631    2.208331525788
O     -0.810246999549    2.366268975483    0.466954715802
C     -1.206094663526    4.219065861050    1.929889176400
H     -0.118098557786    4.331774950964    2.071777272891
N     -1.581913492655    5.119491690907    0.832531715178
C     -0.837430917752    5.467929340286   -0.225440868577
O      0.299620238440    5.019619334365   -0.475377973188
O      0.012135956700    0.111027278901   -0.020178243416
H     -0.446454717600    1.041425854562    0.187630771565
C     -1.417636432217    6.497218989836   -1.166416946039
H     -2.372180203634    6.917795199337   -0.820941796150
H     -0.685186102613    7.308224299731   -1.291461541252
H     -1.559058269693    6.031941029093   -2.154044957574
C     -1.943954696426    4.618921622349    3.200531496323
H     -1.721365390435    5.660964747060    3.477459156303
H     -3.031428401369    4.494933448275    3.076077022242
H     -1.645273476670    3.959142668599    4.025553913590
N      2.030934524167    1.271018922578   -0.031539432792
C      1.304018980975    0.108505141164   -0.026284908408
C      1.966627492904   -1.153589288658   -0.037935434251
C      3.338456786165   -1.224392073437   -0.017815779596
C      4.053626137531   -0.014708680041    0.011167878660
C      3.379301632829    1.193319842581   -0.001136726839
H      1.335600585053   -2.042501532923   -0.048033084869
H      3.877449569375   -2.172035027544   -0.016866668642
H      3.940910384439    2.123966878424    0.007355814001
N      5.516942166144   -0.017613286906    0.045236219883
O      6.088584176708    1.061315746639    0.080506990194
O      6.071154078894   -1.106224286727    0.037059074729
