62

C     -0.575583510839    4.699632412865   -2.273166575795
H     -2.250057408572   -0.210341752532    0.418250193573
C      0.505523938318    5.063696778411   -1.352532721992
H      2.513875964663    3.727965042792   -0.520585014930
H      1.423825098113    5.402613657680   -1.839045095837
C      0.435633103015    5.250190740795    0.030485981536
H     -0.491467358988    5.099080141896    0.594819714041
C      1.468201621901    6.021223900592    0.789605461569
O      1.414694304330    6.216489064655    1.980471923204
O      2.458912774718    6.502789331116    0.007378609849
Pd     1.133213871464    3.192352083466   -0.188819455975
C     -1.837406786120    2.681080288588    0.938504245855
O     -0.793769375579    2.274773561220    0.273797056114
O     -1.966788622172    3.784180966919    1.446409441209
C     -2.987832807759    1.663825186027    1.083504516647
H     -3.919292998337    2.207768459389    0.879546925022
N     -2.937987161780    0.507290059424    0.220886087013
C     -3.525277114740    0.505875887935   -1.018853551900
O     -4.241378554347    1.414093296842   -1.409217573334
O      0.046045030395    0.108908707977   -0.564552058064
H     -0.402943328452    0.996815253491   -0.262717931155
C     -0.263314935764    4.537498858278   -3.638923463082
C     -1.222336795378    4.167697472216   -4.585155039376
C     -2.552104082676    3.939591614745   -4.154280089194
C     -2.868303035612    4.119328648164   -2.797694484263
C     -1.908363398882    4.503758445777   -1.867193112796
H      0.768464851313    4.699420884178   -3.965832284473
H     -3.886419056145    3.920325748675   -2.457362967492
H     -2.192740335358    4.636543735935   -0.823052429946
C     -0.842720996476    4.004929766981   -6.036481776375
H     -1.028772373650    2.977345119762   -6.392739940708
H     -1.431472958541    4.672608610179   -6.688202735985
H      0.221447606900    4.228588888538   -6.200597357704
C     -3.616963926880    3.507898645783   -5.128631535242
H     -3.794975191282    4.275178750465   -5.902320741565
H     -3.326231891298    2.587670309837   -5.663107011819
H     -4.568370982003    3.311699703061   -4.615228128741
C      3.501505686066    7.235028153066    0.668519035610
H      3.051707659930    8.063562825510    1.238887582495
H      3.993647439526    6.573867094162    1.401447433310
C      4.469779784258    7.731272842964   -0.385362239213
H      3.964032629237    8.394072151131   -1.104536980956
H      5.285570844417    8.297828167325    0.090161806708
H      4.912858712943    6.891641876494   -0.943278280479
C     -3.218966490934   -0.724069772075   -1.859378591275
H     -3.516916714256   -1.645488819355   -1.333234896203
H     -3.767125363819   -0.652083485598   -2.806405032991
H     -2.137096187139   -0.786469774016   -2.059282407400
H     -3.016068675757    1.352305200520    2.141077778431
N      2.020873831551    1.229251897213   -0.070277366321
C      1.337729635614    0.090227219790   -0.328228153077
C      2.010862149237   -1.155701893566   -0.358727340872
C      3.362478050068   -1.212646685979   -0.089757997452
C      4.076677886031   -0.033793613278    0.217160063397
C      3.349765445448    1.147061539038    0.204988607627
H      1.422131149689   -2.045461660458   -0.585221327083
H      3.880235163499   -2.176337210692   -0.107180644309
H      3.843411255047    2.095057607852    0.419988750238
C      5.549970867019   -0.053410062513    0.533416385091
H      5.932761911318    0.958830342915    0.729636413791
H      5.760947568778   -0.669237535075    1.423644271236
H      6.134358721650   -0.477885885733   -0.299861945500
