74

C      1.237154065372    4.016143192269   -3.398057677189
H     -3.130638288713    2.075897892043    1.410066525021
C      1.778023294646    4.847519763260   -2.253716195632
H      2.544649425811    5.545335059542   -2.641942839525
H      0.987169978008    5.481615566873   -1.827839490685
C      2.425463319852    4.031440907961   -1.133908222162
H      3.160075508936    3.312443583891   -1.519902119377
C      3.019297804262    4.885465253828   -0.055395060922
O      2.669698388500    6.007356072497    0.230717619374
O      4.031601708669    4.252490591946    0.603243091655
Pd     0.982530832699    2.961372145081   -0.151733029941
C     -1.389058369196    3.599416692720    0.511471345830
O     -1.054042434764    2.389721292177    0.732633988249
O     -0.563057603797    4.399184426967   -0.017883960528
C     -2.765599179350    4.095657987479    0.922888796021
H     -3.202636268266    4.634049525230    0.066057763783
N     -3.606382256664    2.949348399337    1.213621419634
C     -4.962413738772    2.991893094729    1.059444233250
O     -5.552297942254    4.008260424629    0.728124688709
O      0.014209292368    0.080045809789   -0.312638601811
H     -0.375727865761    0.945772873370   -0.040836570654
C      2.099389006787    3.468866159567   -4.360704151599
C      1.638553396807    2.682746498401   -5.424986944164
C      0.251218241234    2.430094275690   -5.541975168470
C     -0.611089220571    2.981972448418   -4.585635190897
C     -0.133744182551    3.762233728043   -3.529044610268
H      3.173784841875    3.669282231416   -4.285994801868
H     -1.686405504409    2.799419152056   -4.672241956356
H     -0.830678509930    4.183903427071   -2.800565440891
C      2.609717443039    2.123121240973   -6.435975733627
H      2.569090976058    1.020862369278   -6.474703608514
H      2.386215310293    2.478237956072   -7.456732546705
H      3.644672504146    2.412041961610   -6.201067875107
C     -0.290690565911    1.593410818993   -6.674838768548
H     -0.047951490306    2.030130196562   -7.659027811442
H      0.135335243691    0.575181191899   -6.672280508006
H     -1.384570674023    1.497770981641   -6.613016815883
C      4.623693419102    4.966292358778    1.700339659112
H      4.959968738231    5.953306965116    1.344862926695
H      3.852618994975    5.149376206597    2.467037429586
C      5.772026536113    4.140132160724    2.242793505578
H      6.534384818337    3.965932365944    1.467129584107
H      6.251825498927    4.668868316069    3.081152202497
H      5.421978946401    3.163205374307    2.611743836975
C     -5.694987210462    1.688159496828    1.338170225112
H     -6.408410902799    1.854432992162    2.159727093259
H     -6.284775852795    1.419637646804    0.448820585307
H     -5.031817561691    0.851056320914    1.600949484157
C     -2.707414501156    5.110651446527    2.110684945975
H     -3.770245359212    5.252232791956    2.371925995918
C     -1.981291760190    4.521719117513    3.325239921082
H     -2.117931947770    5.152581897309    4.216247283130
H     -2.366908458757    3.520122624870    3.571886389141
H     -0.895956215515    4.435470893776    3.144835500586
C     -2.160395130803    6.482316074052    1.676490577174
H     -1.094173959664    6.392064473476    1.412522130651
H     -2.675409349776    6.781515387060    0.746878085776
C     -2.347423862168    7.587114823295    2.719454143369
H     -1.772737406649    7.393260763301    3.639348291265
H     -2.007887253741    8.557846924114    2.324622884368
H     -3.407282780021    7.697062216804    3.005752028708
N      2.059880534378    1.186438523314   -0.132185902215
C      1.338025819084    0.051741862669   -0.244824840845
C      1.975560984923   -1.204132029412   -0.303905483968
C      3.352772876384   -1.270318804593   -0.209548840478
C      4.112342400497   -0.093506044074   -0.044368077287
C      3.408271380181    1.103636108441   -0.013780214184
H      1.350792641059   -2.091202567956   -0.412967917805
H      3.852538176577   -2.242470362788   -0.251348019656
H      3.926528675510    2.054310271413    0.119857599735
C      5.613215264174   -0.125759687267    0.089809689409
H      6.026206648774    0.885513653951    0.215604091305
H      5.925243070235   -0.727923883779    0.959284457122
H      6.085156541179   -0.573755305336   -0.800464349144
