73

C      1.686498476761    4.035729036441    2.174950142771
H      0.460052621346    4.344254654368   -3.922504619267
C      1.010037096256    5.311443184600    1.670547298030
H      0.357941144756    5.728726449456    2.454615868843
H      1.777054020384    6.059087411185    1.424014154632
C      0.220818207429    4.911946858747    0.426121775838
H      0.467701351891    5.451970118199   -0.495255630752
C     -1.253519756832    4.757291200192    0.619713499079
O     -1.775493233043    4.504209334657    1.690186200858
O     -1.936482597820    4.914225460573   -0.526169446043
Pd     0.986864771078    3.028732493191    0.178165634079
C     -0.513959606215    2.509031744041   -2.251560803403
O      0.531958790828    3.117327121576   -1.850973201405
O     -1.170724886559    1.683708003569   -1.581774740049
C     -0.946125481551    2.792510808976   -3.695409682727
H     -2.043746502817    2.812795762016   -3.716310237205
N     -0.506053498772    4.108564295337   -4.119082509509
C     -1.379811851203    5.107887664713   -4.439839229905
O     -2.586803916666    4.932502779904   -4.528518438839
O     -0.130121313562   -0.068305911748   -0.137951749209
H     -0.522014790443    0.771164537115   -0.620198425712
C      0.886452762103    2.948186284257    2.614225535666
C      1.455070188379    1.807602730621    3.236063809823
C      2.847765686329    1.740019896152    3.399601514785
C      3.644825424324    2.809265304543    2.929040257298
C      3.090879262297    3.928441524867    2.326191046186
H     -0.200522554250    3.070760569042    2.620631965620
H      4.730076212224    2.748058829685    3.048118429202
H      3.732876549432    4.749161403460    1.995820402464
C      0.556050253211    0.703790014252    3.731276187843
H      0.801850813828   -0.262052033409    3.258508254750
H      0.662896994304    0.555236258779    4.819215832484
H     -0.499873476171    0.921200490235    3.519636307941
C      3.492690370228    0.555032232476    4.072937223106
H      3.125314323722    0.429241575049    5.105452995134
H      3.263591758103   -0.385637849497    3.544355531943
H      4.585971251801    0.660710473738    4.115137739814
C     -3.362170844780    4.669655984700   -0.513278557118
H     -3.509138011763    3.623772902859   -0.829990996169
H     -3.722694969668    4.768924067844    0.519831353944
C     -4.043895675723    5.639441040068   -1.457327975182
H     -3.681459345420    5.525229527501   -2.489928356753
H     -5.129141624613    5.447963105869   -1.453380354992
H     -3.882296223993    6.679902286349   -1.132707018313
C     -0.750494748167    6.473295847265   -4.662353716036
H     -1.274601587292    6.973762879754   -5.487957052394
H     -0.901254549059    7.081349729583   -3.755405377617
H      0.326864190033    6.428269316616   -4.880836107107
C     -0.429797310495    1.700283079963   -4.663556363601
H     -0.756942210898    2.002808849803   -5.673793443379
H      0.674551601786    1.743162505341   -4.671754112915
C     -0.877646047008    0.249696208588   -4.403353916273
H     -0.504715191741   -0.054004186877   -3.409599486752
C     -0.242382638482   -0.680470998959   -5.445959514875
H      0.857282252548   -0.599205727955   -5.447912484071
H     -0.500703032780   -1.733552641892   -5.249475113373
H     -0.594992736220   -0.436401826114   -6.463041441237
C     -2.404207052477    0.099558184052   -4.383499677983
H     -2.690619951806   -0.958933405277   -4.272611028705
H     -2.851056106018    0.649870067910   -3.542926811797
H     -2.854047682678    0.469922566432   -5.321174644262
N      1.906926756882    1.019683363797   -0.012008929502
C      1.164255691196   -0.116774152748   -0.021913817034
C      1.785066805828   -1.390215350683    0.117241919266
C      3.156285067535   -1.477977625462    0.219511151668
C      3.897567484502   -0.284784677255    0.186994665356
C      3.241805866245    0.932790778015    0.071972259943
H      1.143546365630   -2.271853293885    0.117155064697
H      3.675333447523   -2.432297241888    0.314055880268
H      3.814154694162    1.860686789421    0.062006158784
N      5.354820149329   -0.310929441405    0.303584693504
O      5.942384526758    0.761418151515    0.324755414989
O      5.891267228689   -1.405489846283    0.380875977522
