35

Pd     1.256410565573    2.961821927860   -0.618592629718
C      0.472678428485    5.663349540629   -0.536543442354
O      0.831806574380    4.711358190982   -1.380001459534
O      0.333132543146    6.817440272480   -0.870000108551
C      0.267898502829    5.184522611661    0.914749080951
H     -0.716677464680    5.569420927682    1.221171002087
N      0.236831203525    3.711912914382    0.915631869286
C     -0.654029556448    2.988178716922    1.599950250565
O     -0.849366854992    1.764197371566    1.432390634865
O     -0.051453708739    0.030712655196   -0.103634109714
H     -0.397461817566    0.863470060331    0.456115985089
C     -1.503238372849    3.678258632973    2.658527159168
H     -1.920271039329    2.896751773867    3.305293898998
H     -0.942026412226    4.402925328855    3.262998758358
H     -2.340118155451    4.209121020539    2.175449801162
C      1.325646070201    5.781575688131    1.889576675837
H      1.181104502113    5.236716832284    2.840128608902
C      2.770816147232    5.542685659008    1.436439903518
H      3.476668604567    5.903569520054    2.201129545440
H      2.975868170848    4.472414511237    1.275296546664
H      2.991712733849    6.081632790539    0.500446627872
C      1.057275247469    7.269444193393    2.150700495319
H      1.133422975616    7.852636238050    1.221818737873
H      0.046616516781    7.429550161283    2.561147524352
H      1.781881827966    7.667977830945    2.878575591999
N      1.991364634942    1.088248458829   -0.033323489500
C      1.239795726723   -0.039234829165   -0.079169919853
C      1.904517778604   -1.304499897246   -0.117035905383
C      3.283502542858   -1.374161578736   -0.044929814584
C      4.019375381126   -0.181001542509    0.067173209849
C      3.342079324420    1.025041277515    0.070213448514
H      3.787473917893   -2.341314091028   -0.057476388333
H      3.881129132250    1.971479673370    0.147805121595
Cl     0.945526772043   -2.739755119713   -0.232263433391
Cl     5.753192780085   -0.215905996630    0.195743120162
