74

C      1.583947193499    4.018483411515    2.437865870880
H     -2.200090782887    1.727737096350   -3.464520117659
C      0.797225597502    5.268964365906    2.048321015389
H      0.147310535330    5.583804817847    2.881043142520
H      1.497275919083    6.087086853283    1.827915750768
C     -0.008833379215    4.894540572972    0.805420285752
H      0.142793669761    5.525109678171   -0.077924031182
C     -1.449025474429    4.595869895298    1.053464750540
O     -1.914804958926    4.278350043724    2.132891785765
O     -2.204724446130    4.691984707073   -0.057273345697
Pd     0.908940550773    3.109652256563    0.370893034340
C     -0.390811013016    2.773828837450   -2.213713314857
O     -1.073912413732    1.877692479679   -1.669100197026
O      0.560535258766    3.405648371587   -1.655662772528
C     -0.707379447423    3.174117727773   -3.666489035188
H      0.209144607410    3.042477989241   -4.266487968552
N     -1.693815282078    2.240847232141   -4.180289391003
C     -1.618475925812    1.724531721420   -5.443548073144
O     -0.827617538336    2.128281831052   -6.282108612754
O     -0.035699493085    0.041249691316   -0.248267632607
H     -0.433752961985    0.881011300427   -0.682060789919
C      0.885753190860    2.828257680905    2.774106386991
C      1.561520533763    1.685037793998    3.275784568382
C      2.956539383234    1.721203630416    3.418171893271
C      3.650491713455    2.897356111277    3.050702939218
C      2.993761590181    4.018196049368    2.566596320731
H     -0.206455340481    2.857799058139    2.818959357804
H      4.739106592587    2.918080727295    3.151459831663
H      3.558420202276    4.917945071860    2.309204559446
C      0.769004638959    0.463745736849    3.665117259202
H      1.084626014401   -0.422632415128    3.089442282319
H      0.912165210404    0.213117729257    4.729955190004
H     -0.305894576730    0.610642058119    3.491593545380
C      3.712730735061    0.533449469021    3.957762396590
H      3.370228717659    0.261585401446    4.970537299992
H      3.565471305323   -0.359122078023    3.326536960770
H      4.792176328985    0.734736604995    4.009322956103
C     -3.586057092324    4.313399594909    0.079018072219
H     -3.633089014488    3.286064261669    0.474218567518
H     -4.061402372350    4.968232908443    0.827425230851
C     -4.254241530347    4.424445811225   -1.274996654309
H     -3.782947946531    3.747458755747   -2.002801881020
H     -5.317708072948    4.151675910320   -1.187501621906
H     -4.194161987325    5.451599670544   -1.666663034215
C     -2.622922064934    0.624495607486   -5.755318492795
H     -2.088424144023   -0.220250851677   -6.214038383308
H     -3.184116750117    0.272116177286   -4.877456760894
H     -3.335873923921    1.001614700067   -6.505324470688
C     -1.111541307935    4.687812549407   -3.765693277139
H     -1.678008473571    4.941839759603   -2.852934473159
C      0.136327188074    5.579396459353   -3.813858782971
H     -0.148474520829    6.644172991367   -3.810497845970
H      0.799623813492    5.393839182484   -2.958614741215
H      0.709239437311    5.390335304010   -4.737961401727
C     -2.011957990563    4.965186855326   -4.975676693390
H     -1.513225805577    4.676568509118   -5.913728099701
H     -2.960641961480    4.411719666391   -4.916494762826
H     -2.251123516372    6.039940647351   -5.026285028116
N      1.952353648359    1.204867611018   -0.024124436727
C      1.271338208949    0.042223036561   -0.157268131535
C      1.955468588378   -1.199036875659   -0.174132525967
C      3.334105850906   -1.219209981303   -0.098923894415
C      4.038245756823   -0.000719418279    0.000253927352
C      3.292704179437    1.176197154191    0.033694648320
H      1.361621683500   -2.108432395409   -0.271742034129
H      3.883298775416   -2.161706033362   -0.125298570860
H      3.807158745581    2.134987892322    0.123467384638
C      5.517854737703    0.099210128677    0.096907666094
O      6.127128871333    1.132425106521    0.259672115824
O      6.116280087521   -1.102643745600   -0.009901032565
C      7.541882148826   -1.108284017225    0.068388443488
H      7.882508269343   -0.706055739284    1.034525570884
H      7.849788678605   -2.155540880449   -0.038557868435
H      7.979199704809   -0.497222004981   -0.735468861989
