77

C      1.648489815355    4.057199553775    2.209331978391
H      0.447325789099    4.372744011965   -3.892045658966
C      0.951450587822    5.328292461637    1.722375916363
H      0.284549170329    5.718598670746    2.508043222150
H      1.705885323963    6.095239253930    1.496669464217
C      0.180928701420    4.936676967004    0.463240999802
H      0.426232315575    5.498988741359   -0.445174055139
C     -1.290925384250    4.753869645498    0.639745618326
O     -1.820735961718    4.471186579214    1.699211142615
O     -1.967176593862    4.922362162657   -0.509555817551
Pd     0.986160715142    3.070714295037    0.189619928842
C     -0.513966771321    2.546714973171   -2.229518389053
O      0.528430957116    3.169879312778   -1.838129928190
O     -1.161940002385    1.724930758458   -1.550433113226
C     -0.947455210290    2.811570988414   -3.677187426618
H     -2.045061031785    2.827668194756   -3.699451773152
N     -0.509844812865    4.124270264922   -4.115634380897
C     -1.384179052471    5.110143312274   -4.471824193010
O     -2.587536898679    4.923771670847   -4.586956422646
O     -0.064840632072   -0.038527293098   -0.110765729793
H     -0.474125121085    0.788992516876   -0.571080992206
C      0.865661685633    2.945535621695    2.617757325934
C      1.450642992339    1.801737976753    3.217861453441
C      2.842754913265    1.756559962151    3.391075678203
C      3.622981682005    2.851191344602    2.952923780370
C      3.053014263401    3.973297096959    2.371233469488
H     -0.223463650128    3.047114977907    2.616865867783
H      4.708364326480    2.807431646802    3.078346307270
H      3.682168267704    4.812439662249    2.063197389514
C      0.568985495479    0.667938161710    3.674871763760
H      0.835637697210   -0.278196022865    3.174560982850
H      0.670781413649    0.489560946713    4.758892328985
H     -0.489079645251    0.871905338279    3.460796968622
C      3.504216201349    0.565137128034    4.036321045107
H      3.119154312386    0.391744555473    5.055371834439
H      3.311573607060   -0.359803494799    3.466969625173
H      4.593261351871    0.698162774789    4.105346816657
C     -3.385469116327    4.644185931854   -0.512980579233
H     -3.505259639040    3.587627471428   -0.805303003834
H     -3.766214048422    4.759968641107    0.511344935182
C     -4.072622253637    5.575973185213   -1.490884776039
H     -3.691997893640    5.447453480225   -2.515354400677
H     -5.153540701230    5.361451772205   -1.499542367769
H     -3.938205960660    6.627122517794   -1.188929503326
C     -0.761101998933    6.477999077769   -4.699572187905
H     -1.272893998011    6.963732668982   -5.541539497531
H     -0.933642265961    7.096402971033   -3.803587072225
H      0.320651608993    6.438433013149   -4.896440778602
C     -0.427706803987    1.709788711704   -4.632447251229
H     -0.757321960830    1.997700053680   -5.646280063694
H      0.676391009956    1.757532570062   -4.642134670274
C     -0.868666469644    0.260717505161   -4.352795647062
H     -0.492525197714   -0.028366249748   -3.356096018452
C     -0.231880958711   -0.680034137484   -5.384911730887
H      0.867443474024   -0.593891163555   -5.390219393489
H     -0.485010391470   -1.731710306922   -5.174218227218
H     -0.587754490932   -0.450661302696   -6.404387330564
C     -2.394490575597    0.104216304453   -4.327213296434
H     -2.676076671522   -0.954225909783   -4.203477089376
H     -2.840272252370    0.661971000719   -3.491047911092
H     -2.848913432769    0.462398432586   -5.267499639777
N      1.951957037720    1.096270553070   -0.032191413363
C      1.240741847828   -0.056484039458   -0.042288651011
C      1.897553486491   -1.311283061052    0.045667340162
C      3.275850715179   -1.359083288387    0.096363310987
C      4.010476102213   -0.154278792161    0.065628533052
C      3.292424260945    1.038069878489    0.003342069996
H      1.280463584530   -2.210405307748    0.046883112013
H      3.802226581037   -2.313401789893    0.149792809853
H      3.831360302446    1.987581125758   -0.006759849558
C      5.493260934063   -0.082147170008    0.117791450445
O      6.130961166720    0.946477160504    0.147831861886
O      6.061587156503   -1.303624405914    0.134224412703
C      7.487906669337   -1.336205032262    0.182512708642
H      7.860565950341   -0.836426583160    1.089510069215
H      7.769653250596   -2.396247731419    0.188352971011
H      7.920141488438   -0.830635789731   -0.694179151100
