68

C      1.545838213330    3.965918462509    2.296354626880
H      0.669323433444    4.222569495735   -3.921308714672
C      0.819500904631    5.230384064105    1.833864866230
H      0.098841585570    5.554454759533    2.601835240369
H      1.550243125651    6.037492744831    1.682386556941
C      0.128967114116    4.867937949805    0.521331735275
H      0.400856227400    5.475636753580   -0.349596233441
C     -1.342375782871    4.628705231850    0.609293077965
O     -1.921143902327    4.286411564118    1.624362660773
O     -1.958592519445    4.821300794410   -0.569866253945
Pd     1.020645985526    3.048543072854    0.212950049519
C     -0.402444761358    2.509873456778   -2.247599007700
O      0.586263959830    3.190608830505   -1.817315085386
O     -0.984718023896    1.597633661917   -1.629032906443
C     -0.885863790503    2.826814131639   -3.669301320803
H     -1.969561903592    3.004955334148   -3.602823599737
N     -0.297095291323    4.051193565990   -4.175060515729
C     -1.055696150549    5.088241496191   -4.635976932281
O     -2.267897856896    5.012380364487   -4.780415400436
O      0.136907128801   -0.095999943552   -0.141284716101
H     -0.297388578873    0.703854900414   -0.634361511392
C      0.790030220853    2.811462952615    2.630062227780
C      1.392085060269    1.667541426578    3.211231225156
C      2.777353935783    1.665795100570    3.439518894330
C      3.533163598365    2.803427199247    3.074807969799
C      2.945115300666    3.926432268585    2.513012131824
H     -0.301168262243    2.871685213614    2.582455664216
H      4.613399301381    2.794407797887    3.244351832581
H      3.553950754787    4.799452301521    2.263864369140
C      0.535499229463    0.487259777540    3.591786059754
H      0.854707608687   -0.429548909487    3.068489058065
H      0.602241116545    0.272617439493    4.671965807726
H     -0.520167118504    0.662058857361    3.343207224883
C      3.456189273015    0.474973329387    4.067479667613
H      3.036646792251    0.248960462693    5.062311712940
H      3.321179895728   -0.433532685223    3.456672817922
H      4.535826498991    0.643939405408    4.187190553749
C     -3.367840939208    4.520361528854   -0.660908286666
H     -3.457630344189    3.456803168161   -0.939846411517
H     -3.818997569125    4.646902999012    0.333503820946
C     -3.996978510575    5.427952818319   -1.699119682017
H     -3.533510417787    5.303726395049   -2.689817837861
H     -5.069394557780    5.191441927658   -1.790052097489
H     -3.906484929497    6.484207055045   -1.399133715652
C     -0.291886105566    6.363878576379   -4.953774892198
H     -0.661694978237    6.767577548390   -5.906847179852
H     -0.512736035591    7.110237308289   -4.173850179641
H      0.797485669700    6.222558292805   -5.011787873855
C     -0.650043162531    1.623383471073   -4.595653904767
H      0.427483961540    1.429642641760   -4.725662454102
H     -1.118822691816    0.723987607762   -4.171307117151
H     -1.087313678041    1.821625819124   -5.585365472135
N      2.093091096091    1.133545153277   -0.038331290468
C      1.439968496774   -0.053821223999   -0.063294827288
C      2.159011422044   -1.274307192470    0.022466834444
C      3.537659581631   -1.252739881995    0.083676743859
C      4.210970980549   -0.012385418655    0.066606348034
C      3.434102078794    1.143015769735    0.007520254691
H      1.588351088204   -2.203570137464    0.011429180214
H      4.111310513664   -2.179589196913    0.134308814865
H      3.924781856836    2.118583633623    0.009709200708
C      5.687885258240    0.132980714857    0.127630961985
O      6.274179991880    1.191598127382    0.160684050368
O      6.315765237933   -1.059205424193    0.147672081345
C      7.741564144442   -1.021328060095    0.203230534637
H      8.084559363144   -0.503398347738    1.111752681523
H      8.075297154678   -2.066178274285    0.211214579998
H      8.152935667894   -0.495424772136   -0.671559036813
