65

C      1.546318409690    3.969145798969    2.296370469546
H      0.712086069396    4.198387669062   -4.052629375919
C      0.816999765284    5.232422254820    1.835549522048
H      0.098161708564    5.555890689209    2.605515091348
H      1.546269459880    6.040380535184    1.681535408993
C      0.123062550902    4.868408387469    0.525377291256
H      0.389509202203    5.477022392746   -0.346555809938
C     -1.346821385017    4.622125144197    0.618651790498
O     -1.920287076543    4.279405617516    1.636752971638
O     -1.966958129600    4.807425535663   -0.559064308297
Pd     1.015824069591    3.050485552014    0.213474459781
C     -0.380092368770    2.507725432856   -2.263297058684
O      0.593744176049    3.199247679614   -1.818042961591
O     -0.971621758499    1.594210474246   -1.657605092481
C     -0.819865067385    2.807235611361   -3.696243039817
H     -1.915162791614    2.888419897579   -3.723120742168
N     -0.267175649388    4.021422752702   -4.243539902280
C     -1.057094506631    5.065650643749   -4.637129402212
O     -2.274955598254    4.989426663048   -4.703486020419
O      0.124659292471   -0.090136704484   -0.143353429565
H     -0.303486267652    0.706958271463   -0.647626711868
C      0.793382584679    2.813221420780    2.631314860804
C      1.398961191699    1.670343763235    3.211152612297
C      2.784651680212    1.671072179902    3.436409901339
C      3.537543348533    2.810077212682    3.069867874703
C      2.946166638044    3.932057316338    2.509563613611
H     -0.298025092382    2.871707343764    2.586957991916
H      4.618202924623    2.802937247399    3.236819670792
H      3.552848278088    4.806172211683    2.259014024848
C      0.545294037167    0.488731634530    3.594150703631
H      0.866492076095   -0.428286132076    3.072462544593
H      0.613122039720    0.276223271635    4.674708512972
H     -0.510909980339    0.660633587898    3.345858943482
C      3.467072791184    0.481700629510    4.063275271700
H      3.050089669101    0.255156706915    5.059066742983
H      3.332629764053   -0.427237889450    3.452992879674
H      4.546631855774    0.652831139580    4.180663401773
C     -3.373327158938    4.492221544079   -0.648304701972
H     -3.451273006189    3.430797254472   -0.938612445472
H     -3.822176431704    4.603507773979    0.348933240648
C     -4.015395565571    5.402806020876   -1.675734249566
H     -3.548840090247    5.294294990290   -2.666626267393
H     -5.084508758071    5.152615646343   -1.769271035347
H     -3.939178522792    6.456828058461   -1.363986423758
C     -0.315181623120    6.345296009863   -4.987004914775
H     -0.755559730086    6.769287075288   -5.900302014715
H     -0.472267468629    7.075628262834   -4.176974406367
H      0.766007205776    6.202615121756   -5.131169752127
H     -0.551789274631    1.922562859557   -4.303210715317
N      2.084678542413    1.132713777984   -0.038749865244
C      1.427533453907   -0.052634130922   -0.061714285312
C      2.142413572776   -1.275180263373    0.029892217771
C      3.521008746718   -1.257939984657    0.094085964835
C      4.198493161849   -0.019882739362    0.074313637608
C      3.425539796908    1.137938296044    0.010016312260
H      1.568717526287   -2.202595440451    0.020534473817
H      4.091484500426   -2.186508410076    0.149029617883
H      3.919364934604    2.111935284722    0.010668178789
C      5.675688747488    0.120743595994    0.138170004383
O      6.265572732600    1.177464255990    0.168792727581
O      6.299586843293   -1.073486735454    0.163899867076
C      7.725333980350   -1.040110154253    0.222744166913
H      8.067899355328   -0.520135865945    1.130265526299
H      8.055614551282   -2.086018908222    0.235187336319
H      8.140568192000   -0.518627664684   -0.652874974064
