50

C      2.031268156238    3.217173427798   -2.394559014175
H      2.858394878867    2.505137556037   -2.447724395045
H      2.258611576707    4.285170873520   -2.373438579796
C      0.749568220119    2.783203477317   -2.645075107450
H     -0.065469404965    3.496845928304   -2.789096123930
C      0.461403496614    1.351002017390   -2.996508472026
O      1.306153204552    0.498658741247   -3.135328259769
O     -0.851663381628    1.163045878404   -3.141501339855
Pd     0.977104844806    2.978102450840   -0.427085666812
C      0.068936644102    5.515604740157    0.414276991124
O      0.174732001719    4.793658209674   -0.680657173991
O     -0.203599033578    6.694826539372    0.426474046706
C      0.359205969462    4.763258325229    1.737236517441
H     -0.431629532370    5.079073034759    2.432552501942
N      0.289797412086    3.313915750495    1.491410793332
C     -0.381108529888    2.518462110344    2.280245353809
O     -0.653356602507    1.282223420991    2.012822586217
O     -0.007850516576    0.102986694823   -0.060565181873
H     -0.402266395067    0.891436717068    1.064482806397
C     -1.297210070883   -0.191728073325   -3.358198369115
H     -0.751485083196   -0.609927273469   -4.218828427137
H     -1.024808261239   -0.777834705067   -2.466763840338
C     -2.793151835657   -0.160764047773   -3.585983559966
H     -3.048643474446    0.446001582909   -4.468549156265
H     -3.165682352036   -1.183748347624   -3.751073043716
H     -3.315455556916    0.259354920279   -2.713000686639
C     -0.943085478340    2.970716244967    3.609412834670
H     -1.178542491428    2.079926925773    4.204344248646
H     -0.246678246995    3.613475223339    4.163428333371
H     -1.877716971705    3.533446436100    3.451124064698
C      1.714461969300    5.202724807888    2.303639813493
H      1.910503923040    4.730898176340    3.279154282102
H      2.534008390499    4.927687811060    1.620213239437
H      1.718439921285    6.295261879244    2.428404369758
N      1.974739197450    1.204470132454   -0.098852548012
C      1.260133452338    0.052136940758   -0.063209749738
C      1.984735747007   -1.213770639526   -0.004641791933
C      3.406891946916   -1.213770596408    0.040180750086
C      4.082345987436    0.048872224735    0.037301869785
C      3.344663384205    1.195558335279   -0.033313650989
C      1.275883824436   -2.434175581603    0.021839264580
C      1.959772341111   -3.637422128714    0.077213316237
C      3.371429325166   -3.645177644533    0.112897831745
C      4.083515119659   -2.457745312980    0.097415387889
H      0.185574043724   -2.396455808850    0.000766799545
H      1.410281955245   -4.581732312583    0.095860429751
H      3.905933491125   -4.597920904865    0.156162221475
H      5.176192245923   -2.467142235051    0.129332772391
H      5.171119265416    0.098421546161    0.089918440345
H      3.825796991988    2.176803055879   -0.039437202002
