74

C     -0.548985964544    4.645441944254   -2.398117397039
H     -2.591964943404   -0.429800707357    0.721967890188
C      0.451506339013    5.023730977123   -1.397718187656
H      2.382703638515    3.713669557054   -0.497097110267
H      1.396117229620    5.382927442394   -1.814356549972
C      0.280464630946    5.204713450952   -0.021385160878
H     -0.688443230548    5.056581788328    0.467802452957
C      1.247226763668    5.986957785081    0.812092467822
O      1.091110815132    6.192861393889    1.992035124575
O      2.300037323524    6.456745460833    0.111342708575
Pd     1.012543082349    3.159802223682   -0.170112806305
C     -1.982951009958    2.649837211104    0.983040381430
O     -0.894460952994    2.226755879865    0.388603700802
O     -2.208460168246    3.811058677823    1.274272120060
C     -3.009998067286    1.559448722282    1.366757176941
H     -3.984137243163    2.068134468650    1.324967984023
N     -3.037615103545    0.438776760427    0.451220479605
C     -3.543182762233    0.563160743184   -0.813317451661
O     -4.035590263526    1.607763991465   -1.211145605103
O     -0.053314943033    0.004636577360   -0.061838428333
H     -0.519442745606    0.966508992971    0.126399800971
C     -0.147639969851    4.599619550981   -3.750355818487
C     -1.026369434450    4.252011763005   -4.778455575193
C     -2.363738888577    3.921079680840   -4.447638518051
C     -2.765232347512    3.967877094597   -3.102550786980
C     -1.886106301993    4.333504805388   -2.088028765275
H      0.888939841027    4.845492418412   -4.000514205463
H     -3.784236772339    3.682770076276   -2.834034298753
H     -2.241076918330    4.363917837611   -1.057790646420
C     -0.555402231761    4.224132492407   -6.211649506030
H     -0.671496287207    3.222285887273   -6.658992165550
H     -1.135887260699    4.917477607243   -6.843702428242
H      0.504550823308    4.505809873433   -6.291421305935
C     -3.345027348966    3.522741725569   -5.519201016637
H     -3.484539923608    4.328449300658   -6.260546190471
H     -2.994714157644    2.640261173392   -6.081587382209
H     -4.327934746430    3.282313962692   -5.090579339342
C      3.288612356079    7.194729619789    0.849200003678
H      2.795854676763    8.035457695121    1.363251622016
H      3.708604730630    6.542045576457    1.632390870513
C      4.348832571385    7.665780602590   -0.124175756830
H      3.913770167790    8.319167144950   -0.896280035702
H      5.123493509748    8.235534276670    0.412185249849
H      4.834180599933    6.813796193598   -0.625042618174
C     -3.420787362402   -0.680045227225   -1.678734786975
H     -4.013732843358   -0.538873578885   -2.590450970472
H     -2.364683670676   -0.834990288452   -1.954047902235
H     -3.766783046675   -1.580806644485   -1.147549809020
C     -2.729797866146    1.093216128482    2.811707143076
H     -1.716144861487    0.659755722324    2.855327131312
H     -2.714381491130    1.996978868328    3.440942874613
C     -3.736034880946    0.096865034652    3.346743670606
C     -5.061515508287    0.485125349009    3.605087080295
C     -3.374998362824   -1.237093736083    3.588811080778
C     -5.996588231588   -0.433479034758    4.085559257088
H     -5.363744428170    1.521893204114    3.430528714420
C     -4.308788554003   -2.161227143572    4.070414137532
H     -2.343421196242   -1.555937973738    3.409273542079
C     -5.623804438630   -1.762078675270    4.318783678146
H     -7.022133820098   -0.110462196157    4.282830272108
H     -4.004685633867   -3.194912839242    4.255373301381
H     -6.355594284298   -2.480549376310    4.696714642017
N      1.936984915076    1.193340793994   -0.060524918100
C      1.240046980607    0.017066958498   -0.074357889302
C      1.927154953408   -1.232057773483   -0.107929373883
C      3.300891037127   -1.271507369229   -0.100074996360
C      3.989119265656   -0.046687883476   -0.060722574949
C      3.285048421668    1.144784148198   -0.045524449751
H      1.319416664771   -2.136982073966   -0.129614623496
H      3.861704581926   -2.206379987365   -0.118748025490
H      3.828374829467    2.086898720870   -0.025778289515
N      5.452705527026   -0.017016378558   -0.046272617986
O      5.999504686852    1.074799431699   -0.014357623662
O      6.030885311794   -1.092596180879   -0.067519314044
