71

C     -1.414908148669    4.432379067493    1.533195742983
H     -0.304868443637    4.226092488994   -4.296355823235
C     -0.237753256445    4.881531832006    0.779434135223
H     -0.442258582689    5.222790757106   -0.237544451240
H      1.772634752679    2.936346485853    1.721916455760
C      1.033114344917    5.128623514629    1.289299444394
H      1.237893099418    5.035784976330    2.356307716736
C      2.080013325871    5.940571996938    0.601745449425
O      3.122824645519    6.249519543134    1.132769010247
O      1.740174087506    6.313228433345   -0.649124061397
Pd     1.144857640410    3.123080256563    0.347639396142
C     -0.721210118678    2.540995082260   -1.943944641064
O     -1.096188945541    1.516450655994   -1.329906419598
O      0.244181844984    3.296765015571   -1.632584491399
C     -1.545571918254    2.914644266843   -3.197078168338
H     -2.575445698618    3.032547993972   -2.828467959967
N     -1.162258847765    4.195527275801   -3.757630533689
C     -1.589812037387    5.368469335037   -3.206446236539
O     -2.455419784210    5.420674760838   -2.342105754875
O      0.203189019006    0.062642180051    0.220613660783
H     -0.321581296066    0.774219192187   -0.338471040399
C     -2.660238935651    4.442670419480    0.874457727253
C     -3.840724562322    4.054494160473    1.516922923770
C     -3.783396624610    3.634642089433    2.866367271650
C     -2.539354290543    3.623492342457    3.520799386364
C     -1.370038040685    4.012978173965    2.876223827778
H     -2.701832204072    4.767736112841   -0.169073376676
H     -2.492044268199    3.296486998857    4.563301870385
H     -0.422395405627    3.980298469295    3.417899679670
C     -5.150001616296    4.082372328387    0.767569614416
H     -5.612349111133    3.081377049030    0.724011938181
H     -5.884176479173    4.746321593121    1.255419550807
H     -5.007327854335    4.434317848451   -0.263757878948
C     -5.030524312943    3.201266275417    3.592718751758
H     -5.785674131452    4.005533589372    3.617032279670
H     -5.509030848783    2.340739495734    3.094526020876
H     -4.812491505319    2.911135900014    4.630655361576
C      2.709478788230    7.073179416902   -1.392219867670
H      2.118080546619    7.634916380529   -2.129892716405
H      3.202222948331    7.784024023510   -0.712695274571
C      3.729875001636    6.175934479682   -2.073202708138
H      3.234429393434    5.438579350711   -2.723552064850
H      4.409530276456    6.784456272202   -2.691405886156
H      4.335873696313    5.641085504169   -1.327066886908
C     -0.908973331745    6.623612269555   -3.724491482361
H     -1.649657656705    7.432888965552   -3.778229733489
H     -0.138606060838    6.921723305702   -2.994925821999
H     -0.434252404880    6.488973703014   -4.707837519230
C     -1.536875080303    1.774871863788   -4.243944312942
H     -1.834511753054    0.879050443834   -3.675905848497
C     -2.573116963974    2.018393412152   -5.346484673676
H     -2.600695937621    1.173694819018   -6.053616383979
H     -3.584046414482    2.139292845700   -4.925664177298
H     -2.341367900493    2.930963615950   -5.919576586335
C     -0.141056960624    1.512625520070   -4.826862728484
H      0.224183212323    2.364545573246   -5.427569295456
H      0.601722473342    1.309538957111   -4.039208733458
H     -0.160447391405    0.639625181646   -5.498429538682
N      2.125764200058    1.305054427732   -0.089110381651
C      1.497130739062    0.113366444698    0.043761750041
C      2.242643136470   -1.090939812233    0.013060239208
C      3.614492812349   -1.076342234904   -0.189520303094
C      4.233539423865    0.182523584121   -0.370694801011
C      3.461956773152    1.325653762041   -0.307517618171
H      1.687188511988   -2.021886181761    0.137567433010
H      5.308148041976    0.264781139579   -0.544516034058
H      3.911864694648    2.314385847164   -0.417202622552
C      4.424871422180   -2.344402738032   -0.229325942524
H      5.190581992059   -2.342648959394    0.564198882801
H      3.794920659940   -3.235082763352   -0.096294494484
H      4.958997620174   -2.439048123465   -1.189194101521
