75

C     -0.919630018830    4.480872171659   -2.079659731375
H     -3.634071590773    1.790095514672    3.220384305438
C     -0.477531292784    4.648660690186   -0.690546862074
H      1.832239357883    3.278393669962   -1.453737410345
H     -1.264326392383    4.477444938303    0.052707331768
C      0.696274381655    5.239014834716   -0.229705308224
H      1.437785147712    5.652197880295   -0.916293055938
C      0.765669752666    5.783679272935    1.162222435504
O     -0.157827381078    5.874044901771    1.937169463804
O      2.013561210764    6.210587453230    1.440374957015
Pd     1.125662221225    3.082865680263   -0.115114974160
C     -0.976005354667    2.353171475396    1.866670491788
O     -1.391191379616    1.410746851815    1.157837076849
O      0.176232000974    2.877569986608    1.812440540390
C     -1.939653849633    3.018810015073    2.871878731201
H     -1.887423706787    4.088715713931    2.620412885755
N     -3.309228457534    2.588515313803    2.687943924230
C     -3.998362604799    2.931376875415    1.563475261976
O     -3.571673080152    3.748726756317    0.755998012509
O      0.014984987089    0.173214028363   -0.485206227669
H     -0.512244189107    0.787915322454    0.189421641844
C     -0.120008712367    4.793042196101   -3.198303452270
C     -0.590335125819    4.661405778531   -4.504258350639
C     -1.916048030259    4.197987945315   -4.716610920183
C     -2.711109271137    3.893167894936   -3.604670999301
C     -2.232575002748    4.027789687386   -2.301124325130
H      0.904371027758    5.142535029881   -3.047605127645
H     -3.734370243655    3.541645839653   -3.763501165166
H     -2.873266296094    3.799961017464   -1.445075693639
C      0.298856867059    5.003666797544   -5.674515544101
H      0.452555519948    4.134133961837   -6.336048345734
H     -0.139120672482    5.799676045163   -6.300573460300
H      1.288017772941    5.347176932984   -5.338852635413
C     -2.458542152374    4.037853637479   -6.113324920816
H     -2.443275861646    4.992214573019   -6.667292381676
H     -1.855965671554    3.325982183739   -6.703210525973
H     -3.495154616753    3.671939245894   -6.100991483313
C      2.225526884334    6.785778755954    2.739656416088
H      1.514030601366    7.615169514292    2.883514660823
H      1.996058983307    6.027431846659    3.505955713616
C      3.663940975786    7.253756861148    2.818509155351
H      3.876823788115    8.006694571572    2.043929214260
H      3.857807024983    7.706988751066    3.803167634168
H      4.362187558988    6.413356553103    2.683008854497
C     -5.325562793407    2.223092998617    1.362109828893
H     -5.764912014573    1.853995416841    2.300954080575
H     -6.026200044671    2.912775631657    0.872686989080
H     -5.166096955502    1.365681271443    0.687720344865
C     -1.462997056680    2.838553080312    4.323705074166
H     -1.546099003006    1.775667322459    4.610907653719
H     -0.390302749673    3.084639407131    4.330522745522
C     -2.197235812171    3.707259607961    5.322901538052
C     -2.080426904666    5.107349111458    5.262661057341
C     -3.005847109240    3.147767185933    6.322359594138
C     -2.755532580020    5.918974166837    6.176374277995
H     -1.455531232453    5.562201312453    4.487903106521
C     -3.683130056790    3.958653045630    7.239927970944
H     -3.103082892390    2.059638549618    6.388692599564
C     -3.560464359258    5.347990644455    7.169035101524
H     -2.652942587674    7.005738327118    6.114045985231
H     -4.307588641700    3.501297524862    8.012211243267
H     -4.088354921877    5.984765818922    7.883759322829
N      2.055930191146    1.175835700537   -0.034525111386
C      1.307999762942    0.080288261358   -0.320084145381
C      1.929692057165   -1.182245504170   -0.479556354420
C      3.293227619282   -1.296439632826   -0.291844003758
C      4.039739660777   -0.161682800015    0.060810246780
C      3.394712074281    1.065455689375    0.179025195534
H      1.293227953667   -2.031384932364   -0.729649905214
H      3.785215193579   -2.266501118054   -0.401944447492
H      5.114364997116   -0.225476575011    0.235900272443
C      4.150610618109    2.314724319125    0.535254478829
H      4.118572982025    3.037246103691   -0.296441449304
H      3.696092877519    2.809182314731    1.408438803109
H      5.201451233071    2.089101485472    0.763820382724
