71

C     -1.408690474224    4.407627905683    1.525252337327
H     -0.266124864211    4.352564423336   -4.330369285691
C     -0.242183807969    4.887288581221    0.773847972964
H     -0.455411882997    5.234100458883   -0.239556454635
H      1.785401521604    2.962318437460    1.703382528684
C      1.024714488381    5.153151336136    1.284538183838
H      1.232558435196    5.052650427352    2.350278580065
C      2.057714723845    5.989139592888    0.604526321375
O      3.099569652101    6.301751355646    1.135340700160
O      1.706937989226    6.377343993353   -0.638320389412
Pd     1.174900513539    3.160244397280    0.322974815522
C     -0.650734486402    2.593623995573   -2.006159174063
O     -1.018895837491    1.551044732783   -1.417500082445
O      0.300110424548    3.355222265608   -1.666864082429
C     -1.468836431753    2.980433940977   -3.259349333499
H     -2.504636471837    3.061393165322   -2.897471758931
N     -1.114198949083    4.286208755064   -3.780503759283
C     -1.567621903851    5.431588644284   -3.194088248258
O     -2.426699549784    5.436205853895   -2.321559094005
O      0.270793016320    0.100578792042    0.133748387390
H     -0.255414143813    0.812927349503   -0.430063647639
C     -2.654815509199    4.397265346716    0.867858889264
C     -3.826161222452    3.979819459647    1.508704696085
C     -3.758406934382    3.550919386384    2.854846353082
C     -2.513554665288    3.560434212015    3.507856198956
C     -1.353422111008    3.978903685069    2.865010016116
H     -2.703628045453    4.730197480034   -0.172832296306
H     -2.458233139493    3.226638465632    4.547798323675
H     -0.404708635532    3.961861414990    3.405507024774
C     -5.136960421267    3.986656005650    0.761576008051
H     -5.578670179739    2.976740208740    0.710506418184
H     -5.883829418830    4.631353060719    1.255899998841
H     -5.003476485014    4.349851746463   -0.267069489604
C     -4.995375259322    3.086590890394    3.579385539191
H     -5.766651678426    3.875141757262    3.610872394344
H     -5.457002791640    2.220424605077    3.075093074078
H     -4.770029011276    2.792944074657    4.614755011682
C      2.665704307550    7.155781506942   -1.376238671697
H      2.065220260830    7.725943597167   -2.099936306587
H      3.159443790989    7.858285516368   -0.688865316654
C      3.685553090795    6.275563637892   -2.079862586306
H      3.188616457738    5.545352164672   -2.737094575242
H      4.356363665740    6.897672058472   -2.694184075697
H      4.301141154325    5.732681548939   -1.347470884795
C     -0.926922201146    6.719078295411   -3.682829613288
H     -1.695356669835    7.502736129881   -3.727895576718
H     -0.174646761695    7.030620639035   -2.940367720489
H     -0.439720768947    6.620780245461   -4.664330667482
C     -1.422797012751    1.870536646789   -4.337678686616
H     -1.687384081545    0.949110480610   -3.792981664404
C     -2.479801379948    2.116325988459   -5.421168207187
H     -2.512927857888    1.292362526881   -6.149961061694
H     -3.484306600017    2.206254888561   -4.978152514379
H     -2.276764081657    3.049062442452   -5.972460301445
C     -0.006360244871    1.672612766233   -4.916220659853
H      0.267972899773    2.546790288225   -5.537561670516
H      0.719931485607    1.649410851149   -4.085393114692
C      0.167692540634    0.400685692211   -5.750486193091
H     -0.467951352498    0.402247788683   -6.649935526113
H      1.210553200138    0.288517258607   -6.087608032937
H     -0.090227501181   -0.495860505406   -5.162617368640
N      2.188748984978    1.361314825903   -0.127703695450
C      1.565366585374    0.162068220861   -0.023322348730
C      2.324790230166   -1.034729924858   -0.063072252691
C      3.693171908045   -0.975407547484   -0.249391626946
C      4.316431697495    0.275830272321   -0.403991380804
C      3.525917451197    1.409057584836   -0.329941512929
H      1.786106118255   -1.977306355025    0.040474391938
H      4.282025323727   -1.895688295157   -0.287000972758
H      5.391458311876    0.368277910521   -0.563073113986
H      3.959930352098    2.407283972346   -0.415152010235
