71

C     -1.408035346469    4.411364481948    1.532084494513
H     -0.271849402009    4.355842132395   -4.361117585595
C     -0.249520631568    4.894083427624    0.771168273784
H     -0.470444545334    5.231185555362   -0.244139263454
H      1.792475967762    2.998661101735    1.710024244306
C      1.018658993643    5.171345901632    1.273870864653
H      1.229639351039    5.082492797581    2.340056571246
C      2.044526744610    6.010546488893    0.585724650503
O      3.078881195332    6.342737649325    1.118527354085
O      1.696338715590    6.375141316511   -0.664470496664
Pd     1.177046177816    3.170598575871    0.330200725367
C     -0.648298196702    2.579348740987   -2.023609661691
O     -1.024744317224    1.524380867212   -1.452431772451
O      0.296439948989    3.332574084352   -1.662999624340
C     -1.457204460058    2.975054550206   -3.278106856047
H     -2.495692806379    3.049045994416   -2.921660498330
N     -1.101308736171    4.285403875141   -3.784294637905
C     -1.548895588000    5.425339338275   -3.183561346305
O     -2.390631135021    5.418636645564   -2.294306739659
O      0.229412568351    0.155051277246    0.132955543740
H     -0.306304644913    0.857652081648   -0.494952908066
C     -2.656962175903    4.382707280137    0.880108231489
C     -3.821319421666    3.960226382154    1.530267231359
C     -3.743244671893    3.545013066500    2.880230793788
C     -2.495692648158    3.573261664378    3.527868704688
C     -1.342679681441    3.996692180735    2.876040887141
H     -2.712575905636    4.706047208364   -0.163169824007
H     -2.432741270171    3.250372211188    4.570738499668
H     -0.391843851568    3.994760230759    3.413033017942
C     -5.135780696857    3.947335080335    0.789843235544
H     -5.567592928177    2.932697540248    0.749985170715
H     -5.886417249670    4.588903483296    1.282379127001
H     -5.011539345310    4.302867134093   -0.242607778412
C     -4.972158028061    3.075517625398    3.614720656577
H     -5.750924390787    3.856782606753    3.641811161431
H     -5.427160807544    2.200097581385    3.120580167533
H     -4.739485255057    2.794064151755    4.651776899240
C      2.650355029960    7.156193198458   -1.407633973168
H      2.046977286905    7.708185756864   -2.142797149592
H      3.129763119662    7.874534139775   -0.726681189664
C      3.686240104128    6.279838611251   -2.091943598637
H      3.204011295586    5.535447139524   -2.744224690557
H      4.353800576696    6.902632515235   -2.708959741941
H      4.303558617223    5.754162865269   -1.348569491536
C     -0.927617394276    6.719658306204   -3.677917570437
H     -1.709333675797    7.489716040814   -3.731310451861
H     -0.185550705379    7.049453956924   -2.933365064455
H     -0.434401689970    6.624718574427   -4.656633548602
C     -1.401304706473    1.875488546898   -4.367147696369
H     -1.671290584342    0.948274222306   -3.835296310556
C     -2.449234295966    2.132908894485   -5.456794160564
H     -2.477469345480    1.314847277238   -6.192179137663
H     -3.457129520439    2.220597492446   -5.021215901639
H     -2.240488851774    3.069470266423   -5.999314916636
C      0.020109183938    1.682943859341   -4.935393400995
H      0.300959207130    2.563155229346   -5.545226080036
H      0.739736772565    1.650627740450   -4.098985109570
C      0.200264110264    0.419654124373   -5.781382151656
H     -0.427270323949    0.431684920003   -6.686338903557
H      1.245918884309    0.310355698058   -6.110298887448
H     -0.063573655783   -0.482802947861   -5.205430220830
N      2.183311990067    1.356111925905   -0.101052995162
C      1.515735568810    0.181405140438   -0.005223437794
C      2.271527464939   -1.032822338062   -0.037797965313
C      3.643306705896   -1.006116769899   -0.210051018640
C      4.280193131633    0.237784758099   -0.352814082470
C      3.520872646773    1.393611097320   -0.286796432967
H      4.214047476318   -1.934743638145   -0.245532845679
H      3.986274910740    2.376688676459   -0.364578735232
Cl     1.429052114265   -2.539221663384    0.121938897400
Cl     6.003237721382    0.331053523610   -0.591241618836
