71

C     -0.537778930870    4.626412493328   -2.358640939866
H     -2.397894022377   -0.250487996218    0.538035612025
C      0.491721485874    5.010750965060   -1.388527823824
H      2.443010614303    3.687656269373   -0.508722005359
H      1.430216721206    5.349514837257   -1.834670935687
C      0.351831517162    5.225472488301   -0.014648032737
H     -0.605676899910    5.090592483587    0.501070252136
C      1.345384610378    6.011570349172    0.780014611305
O      1.231980448483    6.229054833409    1.963006370300
O      2.375224962040    6.477692751361    0.040297677815
Pd     1.065651907930    3.168670394296   -0.143706927398
C     -1.926199672395    2.705921023312    1.019080697560
O     -0.845587489043    2.276848030055    0.427656168042
O     -2.139650418477    3.870308878700    1.326069721763
C     -2.973419382084    1.621882630180    1.366469987546
H     -3.944198140916    2.133021258266    1.328854617416
N     -3.018352315022    0.539658149779    0.398090322863
C     -3.609334043544    0.687808664476   -0.827386229274
O     -4.237903112910    1.689113761014   -1.134292575354
O     -0.036805853942    0.055702400996   -0.250596619952
H     -0.469816816242    0.972398928305    0.007594002932
C     -0.164792569047    4.523338586097   -3.715338105732
C     -1.072812676523    4.165008616929   -4.714311807756
C     -2.412078384736    3.884138599989   -4.348080070370
C     -2.786184387219    3.990194706591   -2.998485555191
C     -1.876918233549    4.365045540928   -2.013865818045
H      0.873287171491    4.730411993300   -3.993119808924
H     -3.807600270596    3.743563550354   -2.701660480038
H     -2.209845852981    4.441878892628   -0.978519717864
C     -0.630388130348    4.073401244389   -6.154055537075
H     -0.781394519953    3.059710673711   -6.562775251614
H     -1.204258730976    4.759159147890   -6.800379358672
H      0.435042279374    4.323082113347   -6.263160191005
C     -3.424964675205    3.476128831188   -5.386442890586
H     -3.561830798601    4.261383048436   -6.150068526441
H     -3.107744598308    2.568258063772   -5.927709977929
H     -4.403627027682    3.272786243142   -4.929770429949
C      3.383138731971    7.223471200480    0.739525514155
H      2.904979952876    8.062956401255    1.269328964579
H      3.836425825861    6.577132274516    1.509715792795
C      4.404568544689    7.699193045041   -0.272767881601
H      3.936887894393    8.347267173086   -1.030107960996
H      5.194923269661    8.275612322418    0.232881181565
H      4.875751516761    6.849002195721   -0.790186548345
C     -3.414374573547   -0.487935221741   -1.772796076311
H     -3.695607156795   -1.439533032460   -1.294088632346
H     -4.029038597169   -0.330922792093   -2.667313472220
H     -2.353879089775   -0.560226924503   -2.064651177600
C     -2.727267536886    1.039451057235    2.771759022574
H     -3.516795857501    0.287857408303    2.954012419088
H     -1.769189569205    0.486825161561    2.751866689964
C     -2.698053593857    2.035526957997    3.946041857239
H     -1.862294244517    2.737113476357    3.778398991161
C     -2.421090208970    1.282139133522    5.253974287892
H     -1.486091790731    0.700115165006    5.198291143437
H     -2.330768318607    1.979650570494    6.102019357838
H     -3.238300340874    0.577656707963    5.488417812627
C     -3.981606041699    2.869816807960    4.044135674868
H     -3.960672624320    3.510254084782    4.940773799047
H     -4.094342663184    3.529222101899    3.171732767822
H     -4.874528448816    2.223859013108    4.117727047374
N      1.960372425196    1.206281666214    0.031568436578
C      1.265164251601    0.048573585801   -0.107507359555
C      1.933716254633   -1.201792187585   -0.109684580251
C      3.302534423618   -1.250229922959    0.063843835991
C      4.012851072035   -0.050338457200    0.241785041218
C      3.304906032979    1.136710861023    0.214074047440
H      1.326065885045   -2.098317981361   -0.237922627859
H      3.822672828068   -2.211579904436    0.069483310443
H      5.093143249385   -0.036871261423    0.391033767178
H      3.815810435047    2.091285145805    0.335708211390
