71

C     -0.822930250091    4.539370765379   -2.219452285831
H     -3.855628285839    2.205147838857    3.335430407626
C     -0.343856436786    4.764642689539   -0.849210063386
H      1.954418972793    3.283134535615   -1.510028082631
H     -1.110679140688    4.670479824199   -0.072125230550
C      0.873404818022    5.315134926215   -0.460433081953
H      1.611427846350    5.647735459762   -1.192212995178
C      1.044485904994    5.908595639177    0.900569378380
O      0.187323953783    6.008462522416    1.747996371682
O      2.303984944886    6.361421751105    1.057545298321
Pd     1.145623597947    3.132027330299   -0.241309121705
C     -1.052076196413    2.439614489104    1.968133162366
O     -1.481022024160    1.316934641749    1.496306547468
O      0.007720198711    2.992797941948    1.654091963070
C     -1.943950064908    3.092866671126    3.030317029012
H     -1.737261516285    4.170151151945    2.956490867983
N     -3.352182695273    2.863224152053    2.752497038223
C     -3.908864062082    3.256518859084    1.573756894461
O     -3.275639216503    3.902420916034    0.747048030530
O      0.067536308352    0.317832951807   -0.156056816959
H     -0.817461999478    0.905725265077    0.785518809610
C     -0.033065436645    4.757318842230   -3.367060642933
C     -0.528537198277    4.562594714006   -4.656201168639
C     -1.871156155400    4.131247479424   -4.821408048794
C     -2.656827226139    3.919761215158   -3.681248990959
C     -2.152553969845    4.116612898842   -2.395718474954
H      1.003745093043    5.083751161156   -3.254403213790
H     -3.692648802781    3.591193719328   -3.804123041539
H     -2.782941909349    3.955523773578   -1.517919081130
C      0.352598687547    4.803824585829   -5.857173619525
H      0.468028835088    3.890828870999   -6.465704093283
H     -0.069949571836    5.573926111993   -6.524790423606
H      1.357389450175    5.134567356862   -5.557158538692
C     -2.441011091033    3.904016172782   -6.197723583788
H     -2.402152918591    4.820960184863   -6.810529550497
H     -1.872279622692    3.136244141148   -6.749810836373
H     -3.489043838994    3.575594924483   -6.148445974203
C      2.619415815845    6.985760661720    2.312568275592
H      1.884376971708    7.782689781222    2.510111495617
H      2.510778615656    6.240283885622    3.117565699129
C      4.033066798770    7.523124284439    2.228266653627
H      4.125031172925    8.265199050390    1.420165834965
H      4.306753583445    8.010249030305    3.177133404366
H      4.753871582150    6.713463146752    2.036098854533
C     -5.344636037448    2.830519786567    1.335521998815
H     -5.867594807262    2.522756336914    2.252800478240
H     -5.886620408252    3.662591706592    0.865383875426
H     -5.347860398216    1.987284350458    0.626056551374
C     -1.612598279495    2.576574606166    4.443089627613
H     -2.344502047776    3.031326682923    5.135544865597
H     -1.794531641183    1.486612760304    4.458316907644
C     -0.192455501698    2.858567202370    4.967109006747
H      0.528432958875    2.420365082912    4.254524580810
C      0.005215642157    2.158481679728    6.318550381162
H     -0.170027822810    1.072686661941    6.244640980517
H      1.029606583871    2.307406161478    6.695298482270
H     -0.688899173160    2.558328986441    7.078186793210
C      0.108538527103    4.359665692172    5.072928419308
H      1.113126387520    4.520955455824    5.497299785031
H      0.078708249753    4.863335606926    4.095434408453
H     -0.613892556525    4.860336879357    5.741671916729
N      2.133835504763    1.294536164966   -0.014477531488
C      1.315196469117    0.192145829698   -0.022066211451
C      1.969757726829   -1.089667455469    0.118296806944
C      3.337826658240   -1.195752105213    0.247784757224
C      4.111543572424   -0.018320695306    0.246731930827
C      3.475442760968    1.201004828212    0.109299007541
H      3.810916667181   -2.173262497093    0.351031806978
H      4.044712985729    2.131469265211    0.094378479038
Cl     0.966659856678   -2.509652328041    0.118889529195
Cl     5.849607849239   -0.096328718710    0.407992835181
