75

C     -1.404583837069    4.466105901696    1.748151680238
H     -0.741551345238    4.640556049080   -4.652106913424
C     -0.347583022192    4.860042017206    0.807551567257
H     -0.697433677312    5.111401894319   -0.196924232649
H      1.514456535391    2.874321245226    1.761118336438
C      0.978439273395    5.151616619159    1.114485518983
H      1.341655960092    5.127619297279    2.142861964050
C      1.916876500327    5.878852222175    0.209489595595
O      3.088518429883    6.043405181612    0.470933399060
O      1.324458775385    6.347305963578   -0.904968184009
Pd     1.002935146849    3.082112911870    0.341323865170
C     -0.719211217316    2.664436735631   -2.066350393522
O     -1.232031413890    1.694870351479   -1.463936635078
O      0.285570626341    3.338410218275   -1.702909757101
C     -1.373061367856    3.017209826027   -3.420989276644
H     -2.444453522169    2.799283775221   -3.285125282174
N     -1.215207136892    4.410653472971   -3.787445493299
C     -1.750622951993    5.405464981020   -3.032038170566
O     -2.368178956195    5.176349750216   -1.998951724541
O     -0.225320593646    0.216616064681    0.282685297096
H     -0.622598680740    0.934090238106   -0.362625851147
C     -2.711871590076    4.323731227047    1.241983283240
C     -3.788573770312    3.969700029168    2.061978255902
C     -3.560124152256    3.748794208153    3.440287846857
C     -2.255561293587    3.893795944937    3.943226515787
C     -1.189878127985    4.244198792565    3.121168063033
H     -2.877695216578    4.498216124134    0.175795793067
H     -2.076498514513    3.723318110242    5.008577549479
H     -0.190282045180    4.339130586948    3.550456204642
C     -5.170567155730    3.824080765738    1.474275228203
H     -5.565584979391    2.803646279660    1.616721384112
H     -5.891293125327    4.509504262674    1.952392939644
H     -5.166491783059    4.035475833508    0.395824269936
C     -4.691505656770    3.361481948990    4.357411274594
H     -5.490019558716    4.123167827678    4.360798137437
H     -5.164564437533    2.416874607817    4.038581203855
H     -4.344668570625    3.231686169894    5.392756279965
C      2.165419825262    6.956556378999   -1.899377695918
H      1.518039420160    7.685778042136   -2.408230670866
H      2.983207519974    7.493774543335   -1.397524637706
C      2.698050443602    5.920124415498   -2.875284652894
H      1.871670099582    5.324738680741   -3.291158329971
H      3.238690838145    6.417102127113   -3.697044240308
H      3.396096577693    5.235062947049   -2.371442805713
C     -1.530995880454    6.823387903875   -3.528510768992
H     -2.499947636696    7.343018889489   -3.550085550781
H     -0.895939121949    7.347367075421   -2.797991916576
H     -1.063643236423    6.881632888424   -4.522477450347
C     -0.800391592747    2.089700705808   -4.513061502006
H      0.291030131682    2.237355169876   -4.567558049317
H     -0.966439170480    1.058639004992   -4.164426512881
C     -1.414009644442    2.286722250928   -5.883035549104
C     -2.750663353044    1.928643619470   -6.130230634748
C     -0.670661055474    2.842928971791   -6.935767413805
C     -3.325008972031    2.124849568748   -7.387334336750
H     -3.347033239904    1.486573104967   -5.326739977432
C     -1.242793258066    3.042276079351   -8.197571685879
H      0.377622047937    3.110982623432   -6.770042331078
C     -2.573035469228    2.684922717545   -8.426623220980
H     -4.365235623649    1.836053896820   -7.559459719306
H     -0.643547393967    3.473610785097   -9.003818773903
H     -3.022760681347    2.836865389326   -9.411103226565
N      1.857771800033    1.166328254912   -0.012169525922
C      1.071048767843    0.076470311229    0.158867916240
C      1.642851813417   -1.214874523020    0.228872330619
C      3.008788938050   -1.355421261062    0.069970133434
C      3.799710597571   -0.221031926005   -0.167923371477
C      3.198106613877    1.034008581297   -0.200394192255
H      0.974219866926   -2.061191265839    0.387981603967
H      3.468420733052   -2.346407596528    0.113163835515
H      4.876690929825   -0.306424743422   -0.317457996328
C      3.997259584250    2.283835485463   -0.439161119912
H      3.616172356979    2.819930941577   -1.323092735765
H      3.914366362751    2.977587383666    0.412866227376
H      5.058437458773    2.049306282368   -0.600152756627
