69

C     -1.404621953138    4.437195811125    1.588563011215
H     -0.316553862489    4.441716778652   -4.213365804611
C     -0.287224502172    4.878410611434    0.745455976260
H     -0.559963420947    5.160814820819   -0.273292848684
H      1.693696956883    2.963447470748    1.709946885425
C      1.006525527661    5.180237887094    1.160571531076
H      1.283490972917    5.137791765924    2.214450391506
C      1.995007630406    5.967349680198    0.365732217548
O      3.090205560877    6.260639773244    0.789330102605
O      1.541465875787    6.332270669938   -0.850577590817
Pd     1.116486208442    3.136820722789    0.312379458545
C     -0.689757177393    2.572068349215   -2.006226574993
O     -1.136254857525    1.616875623432   -1.331676682991
O      0.295937645765    3.304754561538   -1.708783148115
C     -1.442433041850    2.899738041054   -3.322443081773
H     -2.508323392229    2.838315446460   -3.051096174403
N     -1.200509327295    4.263757412356   -3.749610752597
C     -1.791793848696    5.314203463368   -3.106158308788
O     -2.682812916069    5.164323200367   -2.281010718309
O      0.123544979167    0.088423074833    0.200791841154
H     -0.374142976435    0.830062525890   -0.329086332160
C     -2.678175000773    4.338107975760    0.993986475909
C     -3.806332682995    3.944686633553    1.721318482210
C     -3.665462579525    3.635469524120    3.094410715501
C     -2.393790183006    3.735354936593    3.685613931738
C     -1.276720081640    4.127153197747    2.955859769792
H     -2.785526604314    4.578087368540   -0.067448430710
H     -2.282524821225    3.495334417329    4.746716927752
H     -0.305253241794    4.183871620092    3.451339919743
C     -5.147899981245    3.849935967016    1.037717192009
H     -5.557485452743    2.826833584495    1.092352282478
H     -5.893153821824    4.512558030242    1.510240610836
H     -5.071370565412    4.126641764447   -0.023049310001
C     -4.854152991344    3.201957847655    3.912564360969
H     -5.646616637014    3.969831843649    3.913816041832
H     -5.311452168846    2.284494347192    3.504269675238
H     -4.574318832967    3.003338982075    4.957169595896
C      2.463952821287    7.021392471935   -1.714483362747
H      1.826908507666    7.602764551622   -2.396678091474
H      3.067841065898    7.714554275677   -1.110892280129
C      3.346516354198    6.048941671664   -2.479388793670
H      2.736710918468    5.321607109248   -3.036960982025
H      3.979298562806    6.599210451848   -3.194260511279
H      4.007322744813    5.500048474608   -1.792277238665
C     -1.263133317628    6.690145784624   -3.469549639362
H     -2.102995793894    7.397747060505   -3.490188592460
H     -0.570849742581    7.013190592892   -2.675383877436
H     -0.734501890763    6.713094314579   -4.434018407377
C     -1.161229891658    1.895083664916   -4.444184639687
C     -1.130348837584    2.311014541604   -5.785204004782
C     -0.906211434438    1.395318289734   -6.818261728412
C     -0.713404897366    0.042794743004   -6.530745538183
C     -0.754332656317   -0.384289944777   -5.200140531706
C     -0.978203167777    0.528728160214   -4.167088524966
H     -1.299574916282    3.361209722153   -6.029378761685
H     -0.887676836954    1.745253759036   -7.853961967821
H     -0.537776131782   -0.674248772452   -7.336824724918
H     -0.613389736207   -1.441569226223   -4.960053684300
H     -1.020969293403    0.184977293651   -3.133169579180
N      2.078353246182    1.293508325993   -0.073809383320
C      1.422822326568    0.115171893131    0.050495952906
C      2.145981297790   -1.103413154179    0.040621627996
C      3.516822405695   -1.086596977189   -0.136606351647
C      4.176233525732    0.142997970050   -0.311495056607
C      3.418012090037    1.299434062911   -0.267008139697
H      1.579786852432   -2.027918724244    0.158906203599
H      4.079297602178   -2.023778965554   -0.151682033080
H      5.254348369197    0.201719766714   -0.465342344043
H      3.880532986080    2.282851182127   -0.371224669940
