74

C     -0.547951097562    4.647435184778   -2.397236413088
H     -2.591533647955   -0.429449343527    0.719499577641
C      0.452091494068    5.025355680163   -1.396247967387
H      2.383055714854    3.715079281442   -0.495410415523
H      1.396839220883    5.384842147038   -1.812325892159
C      0.280456953953    5.205677069005   -0.019901483466
H     -0.688640707858    5.057215767499    0.468809705378
C      1.246782737000    5.987639617327    0.814346293864
O      1.090132181698    6.192999423085    1.994314005041
O      2.299853774259    6.457840712720    0.114265029947
Pd     1.012812354744    3.160914144208   -0.169282845161
C     -1.983127088608    2.650094008455    0.982377404896
O     -0.894350835468    2.227429232455    0.388160327297
O     -2.208895899810    3.811150330899    1.274057157254
C     -3.010168561342    1.559381447421    1.365190420721
H     -3.984362654633    2.067956781732    1.323317595688
N     -3.037311779486    0.439167475619    0.449077893987
C     -3.542379504903    0.564145406530   -0.815598339107
O     -4.034821990234    1.608870773610   -1.213062452155
O     -0.052750995266    0.005570286388   -0.062684569735
H     -0.519066991947    0.967349852501    0.125680995025
C     -0.146042980499    4.602257553431   -3.749329505740
C     -1.024318690291    4.255038701844   -4.777948745516
C     -2.361797044427    3.923844952845   -4.447833861031
C     -2.763849746816    3.970001167031   -3.102890682766
C     -1.885172885239    4.335244591101   -2.087841302883
H      0.890619012266    4.848331156151   -3.998948966626
H     -3.782941455481    3.684689198137   -2.834923305688
H     -2.240570100253    4.365159339137   -1.057735465914
C     -0.552757738192    4.227845410065   -6.210961039178
H     -0.668594181944    3.226193691098   -6.658807011938
H     -1.133033457352    4.921435653204   -6.842937888649
H      0.507207826383    4.509636626691   -6.290168226400
C     -3.342610489554    3.525910661190   -5.519980959888
H     -3.481874610740    4.331937067827   -6.261026425425
H     -2.991998390181    2.643705466528   -6.082613361879
H     -4.325678129982    3.285219726291   -5.091874271876
C      3.288030226395    7.195597733212    0.852882606224
H      2.794977395118    8.036111986090    1.367002026672
H      3.707667796307    6.542645278909    1.636038934839
C      4.348706189910    7.667061839340   -0.119796464370
H      3.913991125210    8.320702944956   -0.891880499670
H      5.123068172650    8.236665050984    0.417155027332
H      4.834351481613    6.815285810215   -0.620729369189
C     -3.419350504978   -0.678549166758   -1.681658549974
H     -4.012225929124   -0.537149833819   -2.593385486019
H     -2.363129649840   -0.832836353616   -1.956930825421
H     -3.764965037134   -1.579779495516   -1.151005996503
C     -2.730403811604    1.092455525266    2.810003896307
H     -1.716720155831    0.659071050192    2.853741029907
H     -2.715284717606    1.995904824396    3.439699875247
C     -3.736720938721    0.095742881965    3.344213633269
C     -5.062303428187    0.483769625155    3.602388225812
C     -3.375657391114   -1.238317198984    3.585669180502
C     -5.997447960159   -0.435157058944    4.082104074127
H     -5.364556017199    1.520608416188    3.428299575060
C     -4.309519200264   -2.162773513665    4.066512020587
H     -2.344005902351   -1.556991367616    3.406253902609
C     -5.624634860019   -1.763852338839    4.314723835805
H     -7.023072802905   -0.112319246333    4.279259259929
H     -4.005395270702   -3.196534976995    4.251003961473
H     -6.356480703009   -2.482576338169    4.692064304905
N      1.937419348926    1.194498811820   -0.060185363809
C      1.240612480641    0.018149242535   -0.074698224083
C      1.927867922498   -1.230889870046   -0.108438749268
C      3.301605329662   -1.270189620375   -0.100087340395
C      3.989688078544   -0.045304613986   -0.060067197285
C      3.285483765223    1.146084635297   -0.044712836303
H      1.320233153955   -2.135875168719   -0.130661206971
H      3.862525739324   -2.204994529680   -0.118869870506
H      3.828703678801    2.088252817543   -0.024440574777
N      5.453266483503   -0.015473403501   -0.045074352965
O      5.999935661059    1.076388396642   -0.012618549257
O      6.031571490947   -1.090976165003   -0.066447532320
