71

C     -0.881815483056    4.539657474300   -2.141930662233
H     -3.698315372180    1.913940745185    3.099382148022
C     -0.401936584276    4.754020333394   -0.771201621510
H      1.850002000428    3.238287483421   -1.476985537968
H     -1.175736517786    4.666193458845   -0.000067057118
C      0.814222981509    5.296682277241   -0.367353414216
H      1.563325800804    5.628485964913   -1.088834403780
C      0.948415017684    5.900215108231    0.995830710960
O      0.049597058046    6.091622998770    1.778256891874
O      2.230355646560    6.249167220221    1.233762154035
Pd     1.109448686253    3.127982587094   -0.147030025738
C     -1.016442257844    2.492275308099    1.873051355633
O     -1.421150915139    1.511858270977    1.205509478208
O      0.112014061850    3.052411912110    1.766057230711
C     -1.962183793250    3.115374607498    2.921116796431
H     -1.859877849260    4.201801875589    2.783431908193
N     -3.346749894272    2.760458950041    2.667804315949
C     -3.970607102453    3.179130586213    1.529612315550
O     -3.482345865033    4.018601502641    0.782523591795
O      0.011347053657    0.093696299066   -0.243791066442
H     -0.530958716483    0.797666498692    0.326019838742
C     -0.087505527573    4.743349612275   -3.288969607951
C     -0.590398153914    4.571599554233   -4.578241142783
C     -1.944989142265    4.178826167401   -4.743777585025
C     -2.734545160080    3.981330312533   -3.603944040964
C     -2.223132527752    4.155141907445   -2.317601755234
H      0.958512998962    5.037917109087   -3.174209283013
H     -3.779886304149    3.684465848376   -3.727012707054
H     -2.858278479677    4.010756164927   -1.439632243868
C      0.294751536844    4.797550438114   -5.779429370707
H      0.383020277650    3.887103868317   -6.396429934596
H     -0.106643191896    5.585291906859   -6.439584220556
H      1.309130676910    5.096929538024   -5.478595887451
C     -2.523599976832    3.978674965326   -6.120803696940
H     -2.461357193586    4.899476846555   -6.725924571404
H     -1.977313751710    3.200586668712   -6.681190217867
H     -3.580143753817    3.678660940025   -6.071697497667
C      2.501354819004    6.859523247321    2.504918655240
H      1.867636081874    7.754929369288    2.614289971756
H      2.208463133291    6.160330590109    3.305116120686
C      3.976415483575    7.199588379772    2.559357236677
H      4.251367513477    7.894155350366    1.750442903436
H      4.216836248231    7.678015203460    3.521658491451
H      4.595204804518    6.294225891602    2.460750529524
C     -5.308009767025    2.524356692013    1.233260871015
H     -5.803146646537    2.127058634134    2.131958273098
H     -5.963358465634    3.257408142216    0.744093215742
H     -5.141640714280    1.693339136594    0.528116082961
C     -1.519758546684    2.770424271349    4.362910731077
H     -0.455311294667    3.055171293099    4.399273720645
C     -2.273476934881    3.614597059939    5.397734193310
H     -1.911943855714    3.402219376363    6.417004994692
H     -2.139636937270    4.690965847530    5.206977566605
H     -3.355540955385    3.405261290521    5.374853116431
C     -1.613903217892    1.269788391956    4.677472410574
H     -2.661588296572    0.925168640334    4.740649955796
H     -1.107350163008    0.656148787163    3.916799496735
H     -1.154169970931    1.050412481903    5.654248477047
N      2.015974306778    1.228627222920    0.039705358089
C      1.309070027977    0.084560594500   -0.107335573863
C      1.998171353063   -1.155961574603   -0.149558851970
C      3.369417294173   -1.191822537647   -0.004029044446
C      4.099081879945    0.002326757501    0.191647149691
C      3.361300557104    1.176726722048    0.197289861077
H      1.400736839874   -2.058252310021   -0.285481282302
H      3.893865905302   -2.151917405184   -0.031241887631
H      3.859423430217    2.141133512462    0.319920438581
C      5.595142068384    0.003651040675    0.372868602194
H      5.985998794597    1.025960245724    0.483685425958
H      5.892384261765   -0.566705920478    1.269072657315
H      6.105682171768   -0.458851488569   -0.488396498539
