65

C     -0.853072740247    4.532193732739   -2.139256629420
H     -3.700062126198    1.974480956582    3.147333435753
C     -0.378312165151    4.758961868406   -0.768553986187
H      1.869189226621    3.229982112468   -1.452340592100
H     -1.155153428314    4.680051944285    0.000473135967
C      0.837434629283    5.302825356774   -0.365250034805
H      1.590700207631    5.624927172499   -1.086808155863
C      0.967830928973    5.919593837368    0.992319124573
O      0.065905737554    6.124183508583    1.767746626554
O      2.250493170481    6.263602269410    1.233594994874
Pd     1.124368682807    3.135169040988   -0.123569752692
C     -1.007700729501    2.524249551120    1.895998259546
O     -1.415046016588    1.540584095465    1.236459000118
O      0.120809858833    3.082918087602    1.786849665793
C     -1.952345581685    3.152432297327    2.943482413556
H     -1.840355693905    4.239726222617    2.820004282720
N     -3.339471969167    2.804511263693    2.690319301064
C     -3.954499329958    3.201695698100    1.540043816531
O     -3.455851446554    4.022564724052    0.779410320609
O      0.018554359603    0.092957347615   -0.177556819964
H     -0.522793430399    0.812566774219    0.375711861206
C     -0.055300540200    4.728848525827   -3.285074162824
C     -0.552928153355    4.544694592650   -4.574711863655
C     -1.905566743431    4.146067884903   -4.741890213124
C     -2.698570223733    3.955461462096   -3.603279659779
C     -2.192459073862    4.141868374973   -2.316586976392
H      0.989266147930    5.028036497019   -3.169017917153
H     -3.742448637560    3.653970701212   -3.727637481058
H     -2.830043634191    4.002156671058   -1.439665194242
C      0.335840358454    4.763702047929   -5.774528130300
H      0.429143746582    3.848603379352   -6.383847843363
H     -0.065578238964    5.544833504446   -6.442472417770
H      1.348193374145    5.068645054865   -5.472507542792
C     -2.478539249541    3.932588603597   -6.119301271232
H     -2.417114307886    4.848509295499   -6.731881057669
H     -1.927765262728    3.151633426580   -6.671259114811
H     -3.534292338160    3.629562571713   -6.071475257060
C      2.518342551120    6.884364628196    2.500323534513
H      1.890668344597    7.785476028530    2.597098632081
H      2.215401079504    6.195268542955    3.305510690012
C      3.995557427399    7.213979801648    2.560415274816
H      4.280573798923    7.898427757175    1.746387774772
H      4.233788344284    7.700088310954    3.519403616728
H      4.608063260993    6.303090501784    2.474457368499
C     -5.295040433908    2.550638628523    1.250513908859
H     -5.797476415066    2.175311096998    2.154612025158
H     -5.942608683634    3.278173141353    0.743122410404
H     -5.130957173185    1.704235411340    0.563380007763
C     -1.542188548063    2.758313139954    4.363046804226
H     -2.186279377875    3.254168191251    5.105859301538
H     -1.613857566587    1.666823742204    4.508656406093
H     -0.500995204174    3.057983719355    4.545490235927
N      2.021199478314    1.234343032079    0.081327333296
C      1.316167615634    0.084663413604   -0.051165043453
C      1.996184471838   -1.160673969491   -0.088230587301
C      3.373454511499   -1.231878551093    0.044493930388
C      4.073840697342   -0.015570184355    0.221123194959
C      3.366724579096    1.169527060954    0.226404104606
H      1.381620366074   -2.054094298554   -0.210244575100
H      5.158865567620    0.001371194902    0.340589692134
H      3.879772692643    2.126682338944    0.338009295726
C      4.108275329117   -2.545575495092    0.013595240632
H      4.676897901543   -2.699165226979    0.945709387271
H      3.421129653270   -3.393828326164   -0.114063956777
H      4.837665845816   -2.565908486795   -0.813221175510
