65

C      2.030617020180    3.208233822760   -2.364958608082
H      2.860445478407    2.500644811926   -2.423703630783
H      2.257323034807    4.276502618171   -2.354210582287
C      0.745262281460    2.771365119714   -2.588535887283
H     -0.073832326813    3.482424011575   -2.720315983588
C      0.455467518726    1.340252976455   -2.941148881973
O      1.297628490578    0.484835735507   -3.078844931908
O     -0.856973622536    1.156551243275   -3.099046924641
Pd     1.009939473742    2.990113437118   -0.372392949186
C     -0.056513046285    5.492540317808    0.433925375768
O      0.148738984321    4.778245992561   -0.650623167666
O     -0.491037775420    6.624919755660    0.421395467600
C      0.330902585709    4.803495509349    1.762972674378
H     -0.443326051020    5.089598897233    2.486490287789
N      0.319389725308    3.345874902065    1.546489153361
C     -0.304078706753    2.542259348768    2.362654853103
O     -0.538229908284    1.291598464679    2.113961984021
O      0.036346311865    0.181501123555   -0.035934863238
H     -0.323971753066    0.934884687084    1.154369612228
C     -1.301538910703   -0.192839869794   -3.343005019391
H     -0.766574484864   -0.588029452546   -4.221339003892
H     -1.015094459141   -0.802883854826   -2.472428627405
C     -2.800524990750   -0.160915848793   -3.549937781823
H     -3.069088200084    0.468539128425   -4.412447895788
H     -3.172617633586   -1.180174338267   -3.737557019956
H     -3.312102004944    0.234667741085   -2.659340833079
C     -0.851920293577    2.988005876520    3.698728675123
H     -1.019525831240    2.096972785359    4.316117814118
H     -0.178992034384    3.680329874118    4.220461658754
H     -1.822182128029    3.491766211382    3.556927875040
C      1.704344891540    5.279888486255    2.283242122248
H      1.912706503413    4.727053706258    3.217989882418
H      2.476848001303    4.954307790808    1.565097865966
C      1.863422378386    6.790145035327    2.543687734595
H      1.734065150125    7.313074922170    1.581189783900
C      3.282031683377    7.075721600254    3.054215504818
H      4.048916495493    6.702608446712    2.355425758151
H      3.445942327134    8.157417181560    3.183605318443
H      3.460057883681    6.593091625356    4.031130588820
C      0.803300093755    7.343250759477    3.504871142984
H      1.009203596464    8.398981518793    3.744019316796
H     -0.199721118731    7.301997424761    3.055586258603
H      0.792562075115    6.786041869546    4.459013908248
N      2.044011253666    1.219871463460   -0.038214207275
C      1.300568637626    0.098684101164   -0.046959369610
C      1.967914857116   -1.209862672313   -0.056828165731
C      3.380335258909   -1.291627610315   -0.029866796000
C      4.144321073908   -0.050112089201    0.048546649268
C      3.431883059302    1.184145059675    0.050193801948
C      1.180987400875   -2.377598270958   -0.091610897595
C      1.782110521518   -3.626892520912   -0.119373438124
C      3.185574942431   -3.720316464835   -0.108311501289
C      3.969969391054   -2.576075789805   -0.061769681166
C      5.552718312519   -0.014758236386    0.135365595257
C      6.251691426221    1.180854697393    0.224037461890
C      5.544562076280    2.393411421801    0.233771080163
C      4.159527934233    2.391837348277    0.149730878492
H      0.096154139067   -2.263549333126   -0.094233786264
H      1.172081504758   -4.532883100347   -0.149141555913
H      3.666096310094   -4.701860270205   -0.133422898453
H      5.055512165526   -2.680203231393   -0.050441060865
H      6.110537962226   -0.952201406594    0.136691662079
H      7.341891736847    1.175540783864    0.290377417237
H      6.080026726353    3.342850998362    0.312389397733
H      3.610737400236    3.335313128435    0.167205490163
