56

C      2.106395273063    3.040472896521   -2.365421441006
H      2.885304043319    2.278436838578   -2.447480906302
H      2.400814208952    4.091922383347   -2.357014761214
C      0.795336591317    2.682561453860   -2.560951653627
H      0.016396811455    3.440233187625   -2.671046884896
C      0.418611728545    1.272831118996   -2.909568047062
O      1.208437233747    0.366539095701   -3.044565774186
O     -0.901730502154    1.166849187523   -3.069209930114
Pd     1.109767054329    2.922907028324   -0.321645926317
C      0.049881764389    5.465011676691    0.403185556090
O      0.297118413957    4.707273642483   -0.651108084954
O     -0.411102734897    6.581665464871    0.305543823729
C      0.435678812125    4.835955924959    1.759797027204
H     -0.382347824804    5.081959274655    2.450231247790
N      0.506629089096    3.379718849070    1.575468681993
C     -0.279912153172    2.542694058585    2.262354072831
O     -0.504181158956    1.357011533138    1.918627539097
O     -0.002898692518    0.075848158959   -0.118663345551
H     -0.274922095054    0.719209296402    0.674162592243
C     -1.429560210240   -0.151770165442   -3.316304620985
H     -0.890240691502   -0.594903455113   -4.168541939758
H     -1.220373694898   -0.767358120469   -2.427454499764
C     -2.913881508077   -0.019217270393   -3.581620730404
H     -3.104690421672    0.612322239094   -4.463057554856
H     -3.349121660057   -1.013293673255   -3.768289836355
H     -3.430108507227    0.426466415101   -2.717788618131
C     -0.984497802399    3.002770473725    3.532204322545
H     -1.293122136770    2.104436141114    4.080669807215
H     -0.363317665877    3.637523278645    4.175872085806
H     -1.893176020990    3.569309117404    3.268953439192
C      1.731914598190    5.525146226228    2.345916068324
C      1.322199610980    6.897980227808    2.915644615399
H      2.207784220246    7.437943825448    3.288816589199
H      0.829463921651    7.512803267097    2.149754024185
H      0.620961809445    6.783177060988    3.759064472867
C      2.320874362309    4.666999898803    3.478797849724
H      1.608448195242    4.544594256933    4.309912681642
H      2.603268958518    3.662753658986    3.129306735808
H      3.219678804497    5.153238215069    3.891326772433
C      2.804946705556    5.740762192548    1.260977709579
H      3.082596154541    4.799067567130    0.766308289672
H      2.459542771288    6.442388184899    0.486637449577
H      3.718506912145    6.163227681501    1.709687501310
N      2.064733306297    1.058227309249    0.036530329366
C      1.302316160238   -0.057003543449   -0.086398100405
C      1.892768628163   -1.334066753714   -0.181804835871
C      3.265946846152   -1.446892950775   -0.089481716310
C      4.037871326470   -0.294087992550    0.116253097740
C      3.415573735616    0.948943579368    0.178318586424
H      1.233767943224   -2.193127912010   -0.306191678889
H      3.746276538110   -2.426461885894   -0.154431953063
H      5.121257198184   -0.355978828388    0.225605953811
C      4.218089590490    2.195782653750    0.420357427568
H      4.105741618845    2.921810038361   -0.399241810367
H      3.885250344834    2.695784718155    1.342396498553
H      5.284957881447    1.955979785274    0.521667178937
