50

C      1.976899805752    3.267683899052   -2.373231662953
H      2.828617386451    2.587538626260   -2.453288957944
H      2.164889415245    4.342980359004   -2.350852041801
C      0.706385476837    2.786137878390   -2.592597377006
H     -0.139496879500    3.467462927207   -2.714076266209
C      0.471445805339    1.344443256927   -2.949923882212
O      1.353281157066    0.527875519526   -3.082574541198
O     -0.828646715692    1.104169171881   -3.105926928629
Pd     0.991271938930    2.995527562830   -0.373504830170
C      0.148475572228    5.542881619817    0.492859122294
O      0.189552779519    4.808657101618   -0.600924656668
O     -0.081501325290    6.730986825817    0.496125823574
C      0.449005621207    4.793272462288    1.814435795119
H     -0.337139138603    5.113941755396    2.512479129063
N      0.355322554230    3.343690928824    1.566820330055
C     -0.441775783504    2.578001048696    2.268687664285
O     -0.746163884985    1.360655113491    1.956527028141
O     -0.053371056594    0.166475439751   -0.086582052557
H     -0.447300725350    0.958348282775    1.026071651610
C     -1.217274715004   -0.269663331833   -3.329810902335
H     -0.683877010172   -0.644026824571   -4.218062882216
H     -0.885451118006   -0.857638798980   -2.460461357322
C     -2.719852927177   -0.305823976527   -3.503885377214
H     -3.037020174582    0.305740953541   -4.362813930907
H     -3.047865830899   -1.342346326708   -3.678118807012
H     -3.228265887378    0.068684971835   -2.602546368772
C     -1.135930342625    3.039781786303    3.530716486754
H     -1.509914134235    2.154150697758    4.058143336043
H     -0.477672238042    3.615266867438    4.190942110559
H     -1.999801686367    3.672650743006    3.268465670818
C      1.800410728129    5.285013953718    2.405585632449
H      1.671215370636    6.379879187204    2.451124072426
C      2.035947864470    4.771124136037    3.829985386614
H      2.980561038288    5.169417132809    4.232861880061
H      1.231954496763    5.082968438752    4.515765890560
H      2.106392968602    3.670856337981    3.856436535449
C      3.013145174185    4.998579273408    1.512428634814
H      3.219378927691    3.917732515586    1.447956974076
H      2.878281830990    5.389848156722    0.492054491483
H      3.913022828297    5.476667058642    1.930514344417
N      1.978860839235    1.192027294709   -0.090588393310
C      1.206511182306    0.061865820395   -0.097183666164
C      1.905977001423   -1.199094502975   -0.119132165882
C      3.281176160481   -1.258715025747   -0.078594328389
C      4.012404768394   -0.053896192526   -0.023475446533
C      3.329439411059    1.145567056725   -0.041441210070
H      3.795486335059   -2.220564944934   -0.085861627456
H      3.865926556950    2.096017963346   -0.023589100886
Cl     0.949106392643   -2.644531629513   -0.189792012476
Cl     5.755006980985   -0.075308364415    0.049483051333
