83

C     -0.590452914527    4.528988593229   -2.382584487078
H     -2.251178823222   -0.161641600135    0.588899129851
C      0.485691369675    4.981154003154   -1.494006698065
H      2.500437421829    3.723545157445   -0.641186935699
H      1.396211133803    5.296235374317   -2.009678947589
C      0.413015018164    5.288124592204   -0.133653835025
H     -0.512124176086    5.175260745696    0.442573076923
C      1.444427083103    6.122866499676    0.555561793239
O      1.414932342030    6.385198312518    1.734964437913
O      2.408018305186    6.574648732926   -0.275845896710
Pd     1.149232061402    3.233779188909   -0.161180014325
C     -1.795297536387    2.757917923871    1.101577964429
O     -0.726900001915    2.319523963973    0.498194999269
O     -1.984900556274    3.921942151549    1.426407028530
C     -2.858351381078    1.689020302350    1.444187481989
H     -3.825647844668    2.204616085154    1.388196648793
N     -2.907617552278    0.603028818931    0.480069812321
C     -3.621483152303    0.686013421968   -0.683700839798
O     -4.347849507939    1.632411547340   -0.946043381018
O      0.096766425344    0.278454911602   -0.611365413671
H     -0.362337762219    1.108588138601   -0.170059204422
C     -0.284944218598    4.323290261974   -3.743960517697
C     -1.241547586000    3.895913352969   -4.668199172544
C     -2.561793363041    3.650863205059   -4.217937545588
C     -2.869545359964    3.861005935999   -2.863659713862
C     -1.911692977083    4.302449491654   -1.955237405916
H      0.738611010938    4.503477738340   -4.086670871161
H     -3.876714889553    3.644315992990   -2.501736712402
H     -2.193098404509    4.459318447416   -0.913519835500
C     -0.869862032103    3.695319939256   -6.116892264620
H     -1.039955467679    2.654284622680   -6.440639116828
H     -1.475262322605    4.332355691711   -6.783971412229
H      0.188790407859    3.932825390586   -6.296292530558
C     -3.626065746328    3.172777560283   -5.171820660518
H     -3.810092188730    3.907272486272   -5.975151080370
H     -3.331971886672    2.233691059162   -5.671067723560
H     -4.576740228842    2.994852964480   -4.650020610682
C      3.452612061188    7.361871220663    0.315588452284
H      3.001665035298    8.221067314914    0.837757897513
H      3.966703210941    6.757386205906    1.081494148946
C      4.395176158149    7.797654288713   -0.787086075172
H      3.867782433830    8.404064377726   -1.539664943926
H      5.211480236285    8.405031214881   -0.365958181717
H      4.839382464566    6.927363371303   -1.294737725039
C     -3.422313480350   -0.476656444113   -1.643787604719
H     -4.312366668387   -0.567668925461   -2.279549327697
H     -2.554302913679   -0.262431113249   -2.288827137253
H     -3.236695378627   -1.429691205195   -1.125074254474
C     -2.638343927491    1.115201938881    2.858184213994
H     -3.435701027848    0.370010936764    3.031986960833
H     -1.683452959080    0.556526747193    2.859635293954
C     -2.622903627199    2.119365750336    4.025979603324
H     -1.781119548672    2.815373138930    3.866680653730
C     -2.371945626091    1.373680509551    5.343544693364
H     -1.438740954598    0.787243629991    5.308160344273
H     -2.293008345259    2.076706712836    6.188199046844
H     -3.196311345732    0.674557243600    5.568903299173
C     -3.903593738162    2.960720029913    4.096508572790
H     -3.894566148870    3.607428737417    4.988853536167
H     -3.997681451702    3.614676762947    3.217832825237
H     -4.801208129532    2.320145115335    4.159263742041
N      2.034732138944    1.275920521256    0.112470811148
C      1.374984834033    0.217911155105   -0.333305954743
C      2.029616518653   -1.063123584082   -0.563984871124
C      3.398615104945   -1.208293847098   -0.229378053370
C      4.077328483257   -0.077780304723    0.388937798156
C      3.355212689024    1.138439768392    0.551246512233
C      1.308751178536   -2.138022327858   -1.129211970277
C      1.939445715394   -3.345908692851   -1.377877498170
C      3.302311747189   -3.497813814443   -1.058877207464
C      4.017409851585   -2.452002832879   -0.494924137535
C      5.412307892710   -0.139958229097    0.849461539752
C      6.018047669077    0.944335786297    1.463963983024
C      5.291729858757    2.133840432161    1.645021749796
C      3.984024715830    2.226800604118    1.195757321819
H      0.255965402936   -1.992269518664   -1.371014759079
H      1.384060249115   -4.176019338137   -1.820384407423
H      3.803629766134   -4.448853128025   -1.255913148981
H      5.071421112758   -2.598397647120   -0.257520124250
H      5.978687911809   -1.064278702218    0.729197474889
H      7.049651095903    0.868706379217    1.815143970296
H      5.752031907675    2.988141199385    2.147161778829
H      3.410630573656    3.142150043194    1.347604170040
