73

C     -0.554255655871    4.633215382584   -2.401747685756
H     -2.497866113019   -0.316079940817    0.615138683103
C      0.451817165807    5.028819198630   -1.413463206934
H      2.389323502556    3.733186841655   -0.492589211056
H      1.395179319733    5.378360479524   -1.841018325076
C      0.286503951585    5.236736374909   -0.040331637008
H     -0.681020603614    5.098856796899    0.454361173184
C      1.256615891054    6.033814553031    0.775002422947
O      1.105408237215    6.259665778606    1.951984927507
O      2.305794506757    6.491500788218    0.061505306299
Pd     1.018544266629    3.189524984671   -0.151769310658
C     -1.986228954884    2.694356056335    1.014104645585
O     -0.890471887488    2.273090818539    0.426258370521
O     -2.218796783105    3.862415514079    1.273246450869
C     -2.997130760099    1.595623067670    1.410363846710
H     -3.974402029457    2.096277377587    1.414332500520
N     -3.061546512180    0.509869321820    0.447034438056
C     -3.619291407900    0.681223027497   -0.790600417258
O     -4.180146232165    1.717324123744   -1.112318159762
O     -0.060436404099    0.047315613443    0.021980674067
H     -0.521105875091    1.025255809969    0.192463517197
C     -0.158732701276    4.556419093778   -3.754248687262
C     -1.043543534441    4.191811500392   -4.771315348296
C     -2.381450050224    3.875637215153   -4.428410382414
C     -2.777409374770    3.953082039568   -3.082916646412
C     -1.891872211341    4.335183179722   -2.079863403362
H      0.878045048028    4.791474755400   -4.013802095333
H     -3.797079970216    3.680146891456   -2.803655404045
H     -2.243222891711    4.389918555674   -1.049315474752
C     -0.578626057445    4.131589971379   -6.205482904899
H     -0.702490482358    3.121507548611   -6.631709697206
H     -1.157650418800    4.815271676631   -6.849274401124
H      0.482614378593    4.405232642014   -6.295298435827
C     -3.369757437990    3.462023939913   -5.487728816774
H     -3.508737714130    4.254594029353   -6.243199949441
H     -3.026575054784    2.567672663493   -6.035585103733
H     -4.351935973128    3.235069824132   -5.050161259068
C      3.297860859793    7.242411177141    0.781773798185
H      2.807135270630    8.091398305357    1.284016195701
H      3.722148245960    6.603110905615    1.573625529229
C      4.352743968290    7.697453113698   -0.204877665977
H      3.913340947699    8.337532839440   -0.985610843588
H      5.129789947968    8.276550043073    0.317835007532
H      4.836042371051    6.837387103981   -0.693761796709
C     -3.465586375590   -0.500668580902   -1.734319003800
H     -4.186879750898   -0.397143509562   -2.554299902213
H     -2.446656310608   -0.500537042931   -2.155539709515
H     -3.619604924589   -1.463391800366   -1.222721168394
C     -2.680884986508    1.022921795795    2.805146401717
H     -3.455322086682    0.266761024028    3.028485777711
H     -1.720513337147    0.477852537325    2.744464557765
C     -2.606812221855    2.027939443543    3.969894032476
H     -1.784932156705    2.735081264665    3.759921137796
C     -2.262214372601    1.286174454074    5.268331932683
H     -1.325805281994    0.711767577631    5.172909337616
H     -2.138415704086    1.990671866600    6.106076464885
H     -3.061488515096    0.576832013559    5.545476421630
C     -3.892018106013    2.851622517407    4.122449923622
H     -3.833702528803    3.499469179099    5.011853095195
H     -4.055221096256    3.503276901784    3.252056299344
H     -4.773728881601    2.197866467924    4.244706454279
N      1.935956961824    1.223171796165    0.001536792336
C      1.232472574579    0.049955231935    0.016092970252
C      1.913968510420   -1.202771619514    0.019197077004
C      3.287484231712   -1.248409951140    0.032471469936
C      3.981752934021   -0.026314234838    0.040407598493
C      3.283615463908    1.168606448626    0.021760086022
H      1.302018341552   -2.105118278783    0.020672241627
H      3.843782406480   -2.186133295323    0.041274771137
H      3.831642397719    2.108228104798    0.018127747576
N      5.445372276483   -0.003301653380    0.057972067504
O      5.997390083464    1.086393411844    0.061870345043
O      6.018414689204   -1.081772814837    0.067213307519
