71

C     -0.584474388477    4.619425866240   -2.336749167209
H     -2.170927757889   -0.107929525643    0.305360087325
C      0.486293491621    5.033945021925   -1.424575204421
H      2.495476095646    3.739571375729   -0.649924135920
H      1.398368306201    5.373573338593   -1.921579905989
C      0.408891546567    5.273910346192   -0.051373696839
H     -0.518977608613    5.130888127307    0.514426637890
C      1.437394814598    6.072947653806    0.682656931875
O      1.407131978743    6.269551968291    1.874801520694
O      2.399209563873    6.574938738253   -0.122235502644
Pd     1.154499834401    3.224787279532   -0.163826502608
C     -1.799306456079    2.709161085426    1.059211646363
O     -0.699489274561    2.285323741907    0.501902920128
O     -2.017335440300    3.866324450774    1.388621772848
C     -2.865172958178    1.619674584249    1.327178742682
H     -3.833902418925    2.137997483216    1.294529039016
N     -2.889417906023    0.607828173397    0.283981685496
C     -3.627917683923    0.737412434524   -0.862365971263
O     -4.408516497241    1.658303477939   -1.046124210007
O      0.105244618653    0.309992701384   -0.773440930596
H     -0.340783341142    1.110195061957   -0.294645039750
C     -0.271948343586    4.470427317378   -3.703998154001
C     -1.224009936648    4.082669708919   -4.649945134428
C     -2.547055656465    3.821254461802   -4.217115669646
C     -2.861847202653    3.975656115125   -2.856960343793
C     -1.908332892109    4.377254592580   -1.925832237859
H      0.753555788202    4.663424731168   -4.033719290915
H     -3.871820382863    3.746964852237   -2.509995298734
H     -2.194839380821    4.491218422199   -0.879923066953
C     -0.844927639039    3.940353411081   -6.103558984474
H     -1.014610962687    2.913414706652   -6.469648761056
H     -1.446008625433    4.604609596285   -6.747572566946
H      0.214969263979    4.183373735089   -6.267698865675
C     -3.606385571312    3.383907133077   -5.195543006263
H     -3.780568525068    4.147977546318   -5.973010844584
H     -3.312623421756    2.462071049410   -5.726200602655
H     -4.561886081577    3.191949526288   -4.687757712430
C      3.436573210147    7.337312025662    0.512815527945
H      2.977419876944    8.155182793807    1.091003378777
H      3.963310247603    6.692521473528    1.236241595273
C      4.366567136853    7.856009455219   -0.564438175288
H      3.826397437250    8.502050865685   -1.273690663992
H      5.177208221164    8.446302142561   -0.109470793971
H      4.819633798261    7.026873303636   -1.130000791958
C     -3.403985248649   -0.370678650342   -1.881899740275
H     -3.707151006022   -1.347037397898   -1.469855454956
H     -4.002519968909   -0.156022485754   -2.775318347411
H     -2.338334337759   -0.436426971021   -2.154317175752
C     -2.675481221696    0.967487308285    2.723417193611
H     -1.712758164632    0.419812033373    2.691082104736
C     -2.585421975718    2.006797108204    3.848235090091
H     -2.462084176956    1.502421418316    4.820045296556
H     -1.745184435854    2.702104342032    3.714558285428
H     -3.504614479263    2.613447774423    3.895915791252
C     -3.793973369945   -0.042712126939    3.012141166387
H     -4.770810603776    0.466278432029    3.070258835804
H     -3.866919634693   -0.813406798917    2.230808859615
H     -3.621871866616   -0.548504222165    3.975749568284
N      2.052863867924    1.264360874347    0.046258921449
C      1.370060157277    0.191902443147   -0.427224588705
C      1.990681875733   -1.068996138338   -0.564461056560
C      3.296672605785   -1.221932515051   -0.140373610200
C      3.967440859484   -0.129735122329    0.426878184342
C      3.325271242139    1.103615804943    0.507356983371
H      1.402453904081   -1.888101549840   -0.978910965604
H      3.794078431591   -2.191538731408   -0.225103038757
H      4.985444279646   -0.230920054025    0.804583983301
C      4.028160847145    2.286787396581    1.112627358302
H      4.323622493457    3.007850296523    0.333398898510
H      3.368847227553    2.821080636364    1.813318543539
H      4.933228492614    1.967290850703    1.647686396036
