74

C     -1.453693966648    4.420199029463    1.633423471344
H     -0.269116360952    4.575071743232   -4.424825760578
C     -0.335240284472    4.826450682531    0.773303849658
H     -0.614035521198    5.088029574603   -0.249840422301
H      1.527333674442    2.863378966155    1.813986646815
C      0.964319649865    5.122427866939    1.172055354895
H      1.257293261556    5.093081775579    2.222476864385
C      1.963257140361    5.849488715595    0.333967743366
O      3.117588877819    6.002079058637    0.671530698667
O      1.451605385987    6.325585021879   -0.816486142179
Pd     1.066766255186    3.059415814384    0.378864061982
C     -0.584265640373    2.607159274581   -2.095212185659
O     -1.044061918896    1.579507464813   -1.541376502760
O      0.382214062362    3.310158054700   -1.689062974695
C     -1.297155849902    3.017044419070   -3.402093136783
H     -2.368184914580    2.947620753519   -3.160558312896
N     -1.036801206769    4.388725369950   -3.792023285757
C     -1.582811206382    5.431953151512   -3.107189056849
O     -2.380120657753    5.270142041698   -2.191740481188
O      0.060517585929    0.083385329932    0.072581222655
H     -0.384552454170    0.832944926550   -0.532514366718
C     -2.731114713465    4.327953794175    1.045837431759
C     -3.862435626233    3.969412365376    1.786607016292
C     -3.721148232596    3.689493174931    3.165927077648
C     -2.445839260609    3.782874236869    3.749754984141
C     -1.325626133581    4.139801095545    3.006695626504
H     -2.832380078250    4.549751178522   -0.020137074684
H     -2.333989886892    3.565543811729    4.815730007440
H     -0.351137404013    4.191815773589    3.496839015195
C     -5.209704541378    3.881653908444    1.113093533302
H     -5.635803551944    2.866784981082    1.191130973641
H     -5.941587505302    4.565947407785    1.575531908736
H     -5.136334914133    4.135246264593    0.046297474421
C     -4.913293899111    3.294197536495    3.998713625785
H     -5.692956771087    4.075066147525    3.987037511526
H     -5.388069183045    2.375460415670    3.613770835495
H     -4.631525403951    3.114322496892    5.046230897183
C      2.366911960164    6.924648975928   -1.751830775837
H      1.770244797610    7.675763829477   -2.289615873450
H      3.165432198706    7.434532846259   -1.194161874651
C      2.931558310529    5.884777428574   -2.705613924513
H      2.118455252514    5.321698996872   -3.187202314416
H      3.540383231949    6.375774337111   -3.481882103917
H      3.571054526989    5.166325753589   -2.171732428699
C     -1.154920536642    6.821392508517   -3.545871783941
H     -2.055957971041    7.426838294306   -3.722226274255
H     -0.604387616584    7.288574415265   -2.715390890944
H     -0.527710698491    6.830978225530   -4.449453816130
C     -0.996764280333    2.010912385240   -4.540006224540
H     -1.219171440731    1.026209488203   -4.097795849255
C     -1.932501769868    2.219866208151   -5.736668967505
H     -1.755299151815    1.456108577668   -6.510878387821
H     -2.989529713528    2.154967234663   -5.433652117802
H     -1.780663327655    3.208101144202   -6.201184144752
C      0.478336422306    2.007568595743   -4.966655028155
H      0.772493148133    2.952323706106   -5.457878209556
H      1.154684057783    1.851109923018   -4.112309523899
H      0.665578080114    1.204389087027   -5.696869968390
N      2.069999307247    1.209719998797    0.064880060078
C      1.362870228413    0.074043081439    0.075314142817
C      2.018886169285   -1.203651159728    0.110241238056
C      3.381233154045   -1.270096035050    0.079833801984
C      4.154078833210   -0.071951776621    0.024408392790
C      3.451762560085    1.172930758508    0.030448982070
C      5.570906717824   -0.077026140336   -0.015594919700
C      6.282845285005    1.106838658513   -0.039627661956
C      5.588323164373    2.336452360391   -0.016584707212
C      4.205338225888    2.373027589983    0.018669104357
H      1.381706752451   -2.088003395753    0.139098290826
H      3.893538703824   -2.236235081190    0.091443148483
H      6.089795031077   -1.039507930734   -0.021944833755
H      7.374794415627    1.095010612233   -0.068530916664
H      6.145590595719    3.276428985660   -0.020528004718
H      3.681559460196    3.330004417808    0.053300053241
