75

C     -0.903167576832    4.453868833437   -2.051678890038
H     -3.683795629457    1.825465816124    3.274644974566
C     -0.471522547227    4.607486873098   -0.657302425346
H      1.811352665651    3.200691110131   -1.417244821209
H     -1.266955459875    4.441023568348    0.077866355238
C      0.706743165664    5.177285967094   -0.183273186861
H      1.461961911621    5.580107212948   -0.861094483436
C      0.775341899280    5.713959996297    1.212245241621
O     -0.154988844183    5.826359362352    1.976328770229
O      2.030181155933    6.105402213303    1.505177033270
Pd     1.101134284658    3.013417998944   -0.080813582549
C     -1.001170150362    2.310276517602    1.928168859209
O     -1.413799461473    1.332998489158    1.264009320358
O      0.150528105278    2.829278011917    1.851353335175
C     -1.965533966070    3.015888423713    2.904101884931
H     -1.896002257654    4.078731768167    2.629037443438
N     -3.339031560911    2.598651604441    2.718162581925
C     -4.012106501183    2.919633420410    1.578258477262
O     -3.562695534427    3.704127122402    0.750472206831
O      0.054723387880   -0.042315554414   -0.177645469416
H     -0.501931275523    0.649426748188    0.404787146816
C     -0.092267806031    4.771619086978   -3.160613406866
C     -0.551733846365    4.653799910980   -4.471759286566
C     -1.877797623708    4.198881888066   -4.699801253995
C     -2.684012458241    3.888253032654   -3.597524954220
C     -2.216417482826    4.009381078367   -2.288611466839
H      0.932231869002    5.115320157495   -2.997980756435
H     -3.707679853605    3.543543624434   -3.768370559041
H     -2.865716899839    3.777507564477   -1.440196768808
C      0.349263733153    5.002449891629   -5.631047654611
H      0.504217045311    4.138462570065   -6.299523578411
H     -0.079290527225    5.806590889488   -6.253221944934
H      1.337217594810    5.337631110196   -5.283686890331
C     -2.409011646657    4.054405097486   -6.102554330458
H     -2.384341530424    5.013837987412   -6.647324972718
H     -1.804828967270    3.345235791968   -6.694057701721
H     -3.447487503578    3.693575236236   -6.102582959336
C      2.247457715281    6.660382525622    2.812401168076
H      1.564290466243    7.513330767895    2.956423778674
H      1.982821813350    5.902890022242    3.567995285448
C      3.700712388508    7.075546708651    2.911437348473
H      3.949191474268    7.827847454111    2.146868851392
H      3.899711132299    7.511844082366    3.902704700442
H      4.369138518748    6.211457257926    2.774924559983
C     -5.350812912119    2.231005691137    1.385560349160
H     -5.800294098106    1.887909371676    2.329390825608
H     -6.037377674834    2.923436626874    0.880227659967
H     -5.204531509423    1.358437769817    0.727917903220
C     -1.503835627623    2.862631819214    4.364116829813
H     -1.600490686439    1.807096960140    4.673321404543
H     -0.428684601771    3.097909116025    4.375330155922
C     -2.238223253463    3.760386985292    5.337209193282
C     -2.106926683015    5.157622806504    5.247221718427
C     -3.061211171498    3.230695260282    6.341171881764
C     -2.782317810196    5.995441574041    6.136793161847
H     -1.470415456040    5.589109922933    4.468600916359
C     -3.738772652766    4.068030246243    7.234482533249
H     -3.169439730433    2.145245323857    6.430623150781
C     -3.601784175138    5.454210587289    7.134236566083
H     -2.668386943609    7.079533441391    6.051764573127
H     -4.374496624602    3.633810278510    8.010917045533
H     -4.129723698469    6.111617044488    7.829998302968
N      2.047894172674    1.129638116617    0.011016727308
C      1.357973351068   -0.027943452250   -0.107479805160
C      2.044139283988   -1.280370291771   -0.199754194357
C      3.427264932638   -1.274310375556   -0.121311622054
C      4.128051578046   -0.066131942446    0.043203079474
C      3.400481314756    1.105652821029    0.097351159301
H      3.972697792187   -2.220671241994   -0.180425584409
H      5.216166952374   -0.040170858843    0.115249535258
H      3.891197605987    2.074963835107    0.200268812323
C      1.229896102913   -2.532699209957   -0.360790178088
H      0.513938023851   -2.644555501608    0.469395578887
H      0.624821517863   -2.494509461861   -1.281296467489
H      1.873814068826   -3.423373867434   -0.398088441253
