47

C      2.043092524797    3.109658823015   -2.380503728518
H      2.845082326178    2.368045210590   -2.409618099615
H      2.308819971433    4.168747299989   -2.386991911308
C      0.747323944818    2.716125496215   -2.611073285228
H     -0.042239528666    3.453600849269   -2.773595298342
C      0.405311661853    1.286603252807   -2.911951104624
O      1.212197450639    0.388873079746   -2.993396173527
O     -0.911473741448    1.147719576360   -3.083313333819
Pd     0.979562708144    2.981177758852   -0.379101857133
C      0.131398255775    5.562127040360    0.373302402093
O      0.239610246591    4.797893034712   -0.699653699737
O     -0.106308871613    6.747274115304    0.322344923348
C      0.365399223526    4.843939278562    1.722194044253
H     -0.477786904433    5.146182754357    2.361739602014
N      0.355470374870    3.394717653999    1.503948574983
C     -0.353805940471    2.553094991915    2.256952505050
O     -0.600286125857    1.363178959992    1.940949588991
O      0.005730790090   -0.011674524456   -0.001316828876
H     -0.322327646598    0.672583575120    0.742879739674
C     -1.411467640530   -0.189036037399   -3.287896032421
H     -0.848378644504   -0.655168302021   -4.111939024665
H     -1.209097256425   -0.765949127213   -2.371638692330
C     -2.892583454404   -0.094093731419   -3.585569581626
H     -3.077288455814    0.497956850959   -4.495206155280
H     -3.306911180198   -1.102553403092   -3.739810450108
H     -3.433057639097    0.376465373799   -2.750220351167
C     -0.929063598934    3.029688335423    3.583909324359
H     -1.181175357937    2.141867907159    4.176724670535
H     -0.238027885568    3.670587455839    4.148619174740
H     -1.857104095842    3.599123003617    3.410202076995
C      1.663949542835    5.352800561441    2.361599847503
H      1.814064351807    4.909815986743    3.358393440482
H      2.534344462324    5.091729536270    1.737751627935
H      1.622553653150    6.447621033771    2.459151701861
N      1.963805073300    1.176452235238    0.028393801448
C      1.317568016608   -0.008949574975    0.006810725391
C      2.036062381581   -1.238498606831   -0.004370165908
C      3.418905205129   -1.176698269223    0.081196377013
C      4.076673819681    0.062457813293    0.176837196030
C      3.312866200070    1.212023964751    0.139075346558
H      3.998287154922   -2.104175670948    0.089498265964
H      5.161791604837    0.128008068884    0.266085743471
H      3.768504708220    2.203794752909    0.183682866706
C      1.266388657827   -2.524495733884   -0.095027232057
H      0.495126746710   -2.576938219481    0.689166734735
H      0.738408541203   -2.591707258778   -1.060679810344
H      1.932490136991   -3.394215190126   -0.002828178777
