72

C     -0.564061931076    4.643841454260   -2.238369561395
H     -2.167427696525   -0.406384465813    0.687140667963
C      0.496131551224    5.034678292005   -1.306651765946
H      2.517638986636    3.747268920929   -0.506933939545
H      1.406682218993    5.407239118438   -1.783084639873
C      0.413663929074    5.204807232405    0.079412141853
H     -0.515911014839    5.032383666035    0.633206418663
C      1.418299867616    6.001074174435    0.851620610035
O      1.341052800994    6.195628648069    2.041139255487
O      2.409535886636    6.501296090916    0.083610276055
Pd     1.163468645151    3.172171241946   -0.142769733200
C     -1.784349752130    2.584701899436    1.067907382072
O     -0.719602125145    2.203458200178    0.415179194649
O     -1.972587699748    3.712075903581    1.496868782852
C     -2.864650848255    1.503667231789    1.316711901074
H     -3.818009555291    2.006628375570    1.100811013205
N     -2.781980214021    0.359799334276    0.436860558049
C     -3.358013060867    0.353569501488   -0.806456514655
O     -4.023660017631    1.288995266521   -1.222962522239
O      0.114541914028    0.051927068716   -0.360526340481
H     -0.344924839463    0.959477438780   -0.049318189192
C     -0.243300441863    4.547768533632   -3.609017127127
C     -1.182108989512    4.165538275525   -4.569826013844
C     -2.498443562340    3.853063672459   -4.149333902507
C     -2.822390206256    3.959945419701   -2.786794141930
C     -1.883945535039    4.359472821234   -1.841048857872
H      0.778323634384    4.776008837108   -3.928046812732
H     -3.826782462461    3.692127204764   -2.453308202168
H     -2.175502159362    4.436786492497   -0.793438228889
C     -0.795780506834    4.078150517119   -6.025719467171
H     -0.934349340620    3.058043507572   -6.422497505253
H     -1.415060603168    4.743295917860   -6.651165823140
H      0.256742383262    4.357243344995   -6.179329846012
C     -3.539994250709    3.409096807453   -5.142913658691
H     -3.737965686258    4.188921468412   -5.898725695832
H     -3.212767848933    2.513330291639   -5.697735691568
H     -4.488792723059    3.168218815517   -4.643887494215
C      3.426190696404    7.259762430857    0.758092442221
H      2.948670418705    8.081770717240    1.315054606717
H      3.918630085374    6.612838416557    1.503170936798
C      4.401721888403    7.769765094477   -0.282155635984
H      3.895111604588    8.417738341690   -1.014106833322
H      5.196805301004    8.356072820711    0.204229623028
H      4.872691998309    6.936517956324   -0.826560977743
C     -3.118992027422   -0.916003489283   -1.607952713096
H     -3.675775033276   -1.756452514349   -1.161761412052
H     -3.474835457690   -0.758692165958   -2.633413726853
H     -2.050475377890   -1.182515061905   -1.618307124203
C     -2.833893409955    1.090868969555    2.805781550848
H     -1.863714573113    0.612153782761    3.025649129377
H     -2.866371190421    2.021980076286    3.391826037543
C     -3.964263137900    0.171484250943    3.212148999797
C     -5.275628303138    0.661887903267    3.329090495213
C     -3.739294635366   -1.189701885326    3.465945690227
C     -6.328733210857   -0.183211353626    3.684851846244
H     -5.472858626434    1.721531627846    3.141330951601
C     -4.790651534388   -2.040297525211    3.823441239309
H     -2.723260074587   -1.589493403747    3.391679921394
C     -6.090070100897   -1.539444276680    3.932535364374
H     -7.341357089795    0.219255652335    3.772727447576
H     -4.591745594841   -3.097273376003    4.019820745035
H     -6.913784877084   -2.200945921605    4.212933108132
N      2.105981098265    1.211838455214   -0.100191427255
C      1.410492666200    0.061573449017   -0.272034880632
C      2.118783152178   -1.176717313187   -0.368592520367
C      3.494574360906   -1.212131057008   -0.254639355181
C      4.177110991770   -0.003048686786   -0.044480958750
C      3.455547804156    1.175713571576    0.022766997877
H      4.032845426060   -2.158339653086   -0.320012961688
H      3.964152303495    2.126137744327    0.172980093773
Cl     1.210126546852   -2.635176004164   -0.612400992808
Cl     5.910387637839    0.020153927605    0.118717265709
