75

C     -0.852592288376    4.501625442809   -2.123960608619
H     -3.759723164207    1.956434136778    3.119256699401
C     -0.392017490906    4.728886956041   -0.748527923616
H      1.858843891778    3.194171336296   -1.405329728143
H     -1.177831016408    4.653549485618    0.011716054288
C      0.820391729290    5.270983747382   -0.332706542906
H      1.581881158241    5.591054116424   -1.046484640547
C      0.937381477083    5.889018145952    1.025504167674
O      0.028206949074    6.092498683048    1.792886599784
O      2.217142923342    6.235383851400    1.277975725584
Pd     1.101162487052    3.103649985113   -0.084270436251
C     -1.054303128844    2.500804875297    1.918385123798
O     -1.454967616016    1.511915700073    1.258851990698
O      0.076993722087    3.054374890802    1.817052846526
C     -2.011328338538    3.142434051659    2.944808013214
H     -1.901201279409    4.225867067715    2.790884471388
N     -3.394575134719    2.791377191624    2.676729776027
C     -3.999100974495    3.196007740697    1.523211184631
O     -3.494236159040    4.020291768055    0.770241718078
O     -0.012560451780    0.087561752548   -0.159895856219
H     -0.565375547052    0.795589695669    0.405316953233
C     -0.040707446226    4.690049175680   -3.261210936313
C     -0.525093377648    4.505929981945   -4.555862943538
C     -1.878446890109    4.116014324088   -4.737223220779
C     -2.685466199620    3.933693452581   -3.607159747742
C     -2.192503151213    4.119858452770   -2.315342192897
H      1.004587025059    4.982151769565   -3.134162160394
H     -3.729871906829    3.638836853752   -3.742441965144
H     -2.840970243421    3.986866014649   -1.445351555872
C      0.378629270491    4.715544899500   -5.746151966871
H      0.472780041688    3.798004228832   -6.351682011715
H     -0.010041963510    5.497312952257   -6.420883040841
H      1.389508018713    5.014679289326   -5.433524476588
C     -2.437235709423    3.902586622555   -6.120451006514
H     -2.362546577629    4.816316599433   -6.734828084209
H     -1.885623184514    3.116275657966   -6.663907111925
H     -3.495518236009    3.606915766029   -6.083764289637
C      2.473087721532    6.856919933086    2.546768863874
H      1.842260576585    7.756369406204    2.638395650412
H      2.165538888953    6.166982637800    3.349489597022
C      3.948909195716    7.190374180729    2.618756252603
H      4.238641049275    7.875717643189    1.807135497914
H      4.178139491103    7.676939751976    3.579716367744
H      4.564423194729    6.281087168647    2.537535073077
C     -5.336198730801    2.545039272257    1.217337102344
H     -5.847884263309    2.166577339734    2.114907396173
H     -5.978852729592    3.273779987431    0.705431268429
H     -5.164438097078    1.700803325283    0.529397752076
C     -1.591980033351    2.819578263957    4.399105224868
H     -0.521550335451    3.083716934277    4.441666520022
C     -2.343513265822    3.711864046453    5.395820738451
H     -2.008959339749    3.535466232545    6.429687708077
H     -2.180632855602    4.777204503245    5.169682441608
H     -3.429506212126    3.526731709643    5.356054407416
C     -1.712915044605    1.316869457705    4.732832042207
H     -2.779819198713    1.048662743110    4.857799483348
H     -1.352662926193    0.725973121099    3.874136539636
C     -0.949669361778    0.886540829827    5.988223811069
H     -1.316167308234    1.396024510509    6.893681217457
H     -1.048302588346   -0.197264985260    6.159744080891
H      0.125732538779    1.111508605610    5.893334742551
N      1.997424332648    1.202788415528    0.136330417530
C      1.278240771221    0.074885247034   -0.004339162435
C      1.952641262462   -1.198896527578   -0.020472560103
C      3.326889092413   -1.241787042668    0.152330433075
C      4.037126418268   -0.037455538374    0.334807907213
C      3.345136127877    1.152538570822    0.316244047449
H      3.860113925183   -2.192922257581    0.157726223518
H      5.118483631870   -0.041352891264    0.478988199094
H      3.850636623924    2.111919955196    0.432272772650
O      1.144693712428   -2.263997595269   -0.194590923680
C      1.715857118981   -3.551346044051   -0.225447680343
H      2.223720794553   -3.798500212618    0.725074555557
H      0.888846703048   -4.256501995062   -0.381347811189
H      2.440723445190   -3.659451698754   -1.053158584962
