56

C      2.024316623183    3.149401796994   -2.359032684060
H      2.838961108178    2.422973103638   -2.413980409340
H      2.273057877977    4.212448600630   -2.350927538795
C      0.732630088050    2.735654592994   -2.576410019044
H     -0.073756243554    3.459328450384   -2.717581076305
C      0.418082827813    1.301998042605   -2.889297043552
O      1.244718650239    0.421976310845   -2.968055187882
O     -0.893243298196    1.137275588175   -3.068541773498
Pd     0.995308504845    2.974323413803   -0.342929469661
C      0.099291006102    5.533371253832    0.465124639672
O      0.233009946912    4.786603433366   -0.619476916665
O     -0.263773698536    6.687643671682    0.418018258769
C      0.470107233476    4.827072704831    1.791358179922
H     -0.290134598234    5.134436427314    2.522471630181
N      0.390814609892    3.380150153051    1.556534767228
C     -0.465054233757    2.588287958548    2.200269719466
O     -0.751312422021    1.416998584837    1.831847393286
O     -0.014966892739   -0.016035530093    0.027236102642
H     -0.367725670306    0.727381198731    0.751246623530
C     -1.363987832459   -0.209939990661   -3.284979382087
H     -0.791275446848   -0.654352925057   -4.114250613223
H     -1.146348044293   -0.790828973183   -2.374935710783
C     -2.847097235930   -0.145353604952   -3.579319418806
H     -3.046974570786    0.451769075505   -4.482364574402
H     -3.237896278514   -1.161485642080   -3.743838715070
H     -3.396929047678    0.303072625556   -2.737959572955
C     -1.184167406492    3.070973501066    3.450596000335
H     -1.628345671606    2.194979716941    3.938077829505
H     -0.520971996353    3.590769516644    4.153720918179
H     -1.997103027436    3.762626024337    3.174979001382
C      1.855402321044    5.330752592453    2.353488984172
C      1.673038455314    6.771799795828    2.869694015673
H      2.630300347122    7.162861716338    3.250867520278
H      1.307357139605    7.439594173598    2.077956552947
H      0.945244535249    6.805493398563    3.697339554701
C      2.295601579042    4.431077881008    3.521893662539
H      1.560829377442    4.444850845663    4.342918463045
H      2.433785533284    3.386572446449    3.204737570798
H      3.251328713694    4.790943963667    3.935613859051
C      2.952293919917    5.322382564342    1.272107160488
H      3.106925189395    4.314522388246    0.852925055763
H      2.712931650286    6.004075171675    0.441370609451
H      3.912216804771    5.647594100676    1.703931476276
N      1.960917475450    1.144220495219    0.022440947934
C      1.281161352582   -0.032366109573    0.010781589339
C      1.996557432956   -1.258435230637   -0.023398943391
C      3.372285680708   -1.253596784852    0.019124293836
C      4.055750856053   -0.021217428749    0.101475105570
C      3.308306642128    1.142576907934    0.093900959141
H      1.416759778250   -2.180525863157   -0.065565550593
H      3.931964553272   -2.191602581227   -0.000964559231
H      3.798277149006    2.117021482096    0.128849727014
C      5.554887495563    0.017891067231    0.208584705370
F      5.977922264950   -0.406599636345    1.414016445942
F      6.131495115317   -0.780671600702   -0.706840645975
F      6.038590921776    1.259822347328    0.030536168695
