62

C     -0.836212988865    4.505375278599   -2.204772724495
H     -3.796873029463    2.165383159504    3.381957763589
C     -0.381701162071    4.697068727535   -0.821517793062
H      1.916748375047    3.262417004037   -1.523790593748
H     -1.161924305791    4.566611608149   -0.063022207830
C      0.814399722536    5.260448191160   -0.388563378304
H      1.563290592684    5.631121855437   -1.090720530528
C      0.928585895898    5.819161349895    0.993945829099
O      0.037643263960    5.894986443821    1.807337538273
O      2.178488964758    6.271664551379    1.216103625602
Pd     1.139878883135    3.079146847853   -0.239122644276
C     -1.031223540538    2.388881725022    1.964021414249
O     -1.496298391202    1.291501834487    1.470423690539
O      0.061273222757    2.895416274448    1.684559591869
C     -1.915400446068    3.087462132114    3.004207264340
H     -1.716092176464    4.160434700621    2.861012042729
N     -3.326219585577    2.830075338208    2.779338456217
C     -3.918425518187    3.182050241570    1.602865396829
O     -3.319389163593    3.822528658851    0.747763309007
O      0.048771945636    0.258906990759   -0.162062713415
H     -0.830020563856    0.862998663899    0.770090959269
C     -0.036307390867    4.775196883050   -3.334045230411
C     -0.511708491736    4.612241029436   -4.635041142211
C     -1.843497836343    4.160431114154   -4.831485800491
C     -2.639451448063    3.897884291372   -3.709250896071
C     -2.155160022854    4.063619221779   -2.411684405976
H      0.992405313093    5.117557296122   -3.196720585564
H     -3.667100723808    3.553932032148   -3.856055892686
H     -2.794166585049    3.864896117345   -1.547840720853
C      0.379377543403    4.908555051019   -5.816177387210
H      0.520489303063    4.017694769831   -6.451496016478
H     -0.050064321959    5.690998105537   -6.464765496600
H      1.373540944956    5.249158308876   -5.492748110332
C     -2.391231253845    3.966263074869   -6.221767192875
H     -2.363353074043    4.903082735384   -6.804356273608
H     -1.800039636883    3.228239204310   -6.790546273402
H     -3.432876997222    3.615581755183   -6.196881885341
C      2.434190101053    6.855612250371    2.503424488186
H      1.724366811028    7.682886658064    2.667539567484
H      2.233545560294    6.101590490168    3.282178264912
C      3.872888152212    7.328211746559    2.528572253815
H      4.055528924445    8.077703719579    1.743040011284
H      4.100463037449    7.787291206997    3.503267854748
H      4.567845114981    6.488823354234    2.372166651595
C     -5.347996466259    2.715776701302    1.407835190499
H     -5.849928109863    2.442383821117    2.347572409956
H     -5.914513599570    3.512246564024    0.906287829689
H     -5.343219414967    1.838298660374    0.740983466235
C     -1.507405090279    2.675132197485    4.420774280520
H     -2.102714722332    3.226285274016    5.164897667819
H     -1.654727154624    1.593741395679    4.577494344433
H     -0.446085083301    2.905472828074    4.588038078635
N      2.121327270884    1.233435163513   -0.072697855741
C      1.299482572051    0.132971533449   -0.064583561553
C      1.955175930261   -1.151561758213    0.045510515990
C      3.326020479796   -1.262351983705    0.133350301241
C      4.102580894861   -0.086894304384    0.118818435685
C      3.465858914189    1.134886374775    0.010599714302
H      3.799186226340   -2.241908221305    0.214446059557
H      4.037138200710    2.063901861719   -0.013141982557
Cl     0.948869648952   -2.569282958439    0.064374677397
Cl     5.844497734820   -0.170492496601    0.227351453002
