74

C     -0.842947441329    4.552278930965   -2.221082244180
H     -3.846507497516    2.200594324496    3.337047662779
C     -0.360633083266    4.775392567222   -0.851500623910
H      1.929125132608    3.288265878014   -1.530107578400
H     -1.125453600832    4.678887887898   -0.072740433657
C      0.856797903429    5.325409674952   -0.464853459802
H      1.593873262219    5.658160466475   -1.197544171320
C      1.031393840837    5.915760175836    0.897106824000
O      0.175707378672    6.015166476909    1.746181973626
O      2.291719664024    6.365864663195    1.052461937528
Pd     1.135099304452    3.139786744029   -0.251228612813
C     -1.045529941364    2.448540518668    1.960868582810
O     -1.473092706955    1.330369987966    1.477840953710
O      0.015188222743    3.003528787504    1.653107366175
C     -1.938405354672    3.094428091666    3.026555649865
H     -1.736687061244    4.172859164388    2.955192040037
N     -3.346282470638    2.859182862477    2.752014146402
C     -3.909760505146    3.255679313530    1.577717247021
O     -3.282487964038    3.906322578054    0.750263899086
O      0.073459769440    0.278517809961   -0.139592743012
H     -0.802259632435    0.917799405461    0.772251428409
C     -0.056122660616    4.773401996428   -3.370158546748
C     -0.554786717113    4.581914370048   -4.658575394960
C     -1.897696878592    4.150640028944   -4.821557049181
C     -2.680356097355    3.935862130913   -3.679948014754
C     -2.172859907389    4.129567007730   -2.395149503481
H      0.980811076886    5.099962896194   -3.259269190121
H     -3.716532836201    3.607704623769   -3.801086878712
H     -2.801080003492    3.966467703639   -1.516179686552
C      0.323197941640    4.826926905366   -5.861081642106
H      0.437178925486    3.915863325870   -6.472763624760
H     -0.101213086622    5.599029319664   -6.525188032763
H      1.328707416275    5.156873154218   -5.562687525720
C     -2.471138756896    3.927458727980   -6.197064852627
H     -2.434589741295    4.846442104298   -6.806931214678
H     -1.903383671346    3.162007919525   -6.753353430057
H     -3.518843524200    3.598235950784   -6.146051450916
C      2.611813581994    6.986471812549    2.308285017074
H      1.879182856638    7.784734680915    2.509354758406
H      2.503220691737    6.239214315989    3.111591344247
C      4.026632375682    7.520288203067    2.221820015532
H      4.118556624133    8.264148934922    1.415382076803
H      4.303854673580    8.004303860892    3.171250315235
H      4.744781815135    6.709223428723    2.025897199022
C     -5.345909172689    2.827526051094    1.345147741781
H     -5.861967499937    2.509262742222    2.262762664483
H     -5.893519623470    3.662614536804    0.886913637719
H     -5.351615960432    1.991558636086    0.627169930066
C     -1.601234798404    2.576266013957    4.437386334422
H     -2.334794807509    3.024701109198    5.132216342415
H     -1.776760272108    1.485168466336    4.450082144724
C     -0.182130831064    2.865517914293    4.960277696325
H      0.540503669711    2.433876639009    4.245536483218
C      0.021490262397    2.163037513804    6.309593638731
H     -0.147276215586    1.076365592968    6.233101385857
H      1.045468638356    2.317076052013    6.685308612977
H     -0.673971968556    2.556649994000    7.071253932449
C      0.109617058179    4.368157980846    5.069806317594
H      1.113597084231    4.534460951716    5.493601200151
H      0.075877988600    4.874120224150    4.093630950582
H     -0.615207147705    4.862622446307    5.740578341909
N      2.121739107457    1.304476504519   -0.043543115010
C      1.328203688053    0.175085290894   -0.050145211370
C      1.990579841835   -1.099869134218    0.032677483110
C      3.357221007836   -1.182338378715    0.129099447194
C      4.129835913007    0.004756370176    0.145349779883
C      3.462450701612    1.213397736481    0.049038489192
H      1.355239942666   -1.986395299695    0.015471842852
H      3.850259292121   -2.156092669832    0.192490708822
H      4.016419618758    2.153175812873    0.040336241618
C      5.621033879943   -0.060447059891    0.261587535715
F      6.011378597115   -0.622034444761    1.425943365004
F      6.168192154181   -0.811526710885   -0.717038257175
F      6.192421337087    1.156289398719    0.197944172168
