71

C     -0.593604111059    4.609405202295   -2.296417040088
H     -2.170693817510   -0.062220927702    0.610281189191
C      0.530680985952    5.043308381257   -1.460409052666
H      2.578079427277    3.765354818162   -0.608835434156
H      1.426901829278    5.333624491681   -2.014538250717
C      0.522272619107    5.348477396913   -0.097823217762
H     -0.377283076034    5.246351316761    0.519329353811
C      1.597351463165    6.162762312208    0.548363517052
O      1.630250316981    6.412185831678    1.730353069195
O      2.523209998544    6.611158830242   -0.326127572118
Pd     1.212287366185    3.277484906112   -0.166296400041
C     -1.730066177508    2.817636748291    1.045818307116
O     -0.697306278055    2.371570768671    0.391318959342
O     -1.827813852548    3.932693019178    1.533488257591
C     -2.906082702705    1.834827754411    1.210696737247
H     -3.823575246334    2.384155867522    0.962269661562
N     -2.866444115803    0.642251947266    0.397250381868
C     -3.527581305627    0.553723894458   -0.799805091417
O     -4.296314794548    1.414981087808   -1.197100332386
O      0.150013394260    0.351719490756   -0.748477868864
H     -0.321372312632    1.173672417299   -0.311983700083
C     -0.342233121589    4.302499644319   -3.649410643810
C     -1.345283426637    3.851529863442   -4.511674660352
C     -2.657934251872    3.690827232931   -4.005241062476
C     -2.914545023342    4.021336432334   -2.664518439013
C     -1.910817818357    4.482979031128   -1.819112142728
H      0.676705664675    4.411732457589   -4.033406229571
H     -3.921143259537    3.879447382381   -2.266625851725
H     -2.149152842475    4.729074044968   -0.783888023729
C     -1.029073994534    3.532626744284   -5.952306294398
H     -1.235939831134    2.475100196783   -6.189792699478
H     -1.641465212417    4.133769198729   -6.645603417922
H      0.028398020659    3.726672201606   -6.183530252397
C     -3.769083307706    3.172065308887   -4.880575434532
H     -4.001253496459    3.873226047282   -5.701530064091
H     -3.496061333737    2.214893332276   -5.355678681108
H     -4.686304215116    3.007618339386   -4.298505838148
C      3.610738205455    7.372683108860    0.220035444882
H      3.202391979219    8.228575210579    0.781166523820
H      4.157022933669    6.746690165685    0.945359134809
C      4.497610922282    7.814644910742   -0.925559436405
H      3.938818185947    8.442009233631   -1.637217039780
H      5.345136353541    8.402509398099   -0.539915724949
H      4.899812926044    6.947339665925   -1.471877061575
C     -3.214504720554   -0.692743883393   -1.612228397309
H     -4.061754985758   -0.905139715709   -2.276695242151
H     -2.323700823908   -0.499462685406   -2.232207743121
H     -3.007688177438   -1.570194192139   -0.980439333600
H     -2.962623674971    1.572571692983    2.280630406067
N      2.065126858722    1.306184371837    0.088188712226
C      1.413508560930    0.267914645998   -0.411135213336
C      2.061276649895   -1.017031201321   -0.638253373862
C      3.411891955837   -1.187331723242   -0.245045988645
C      4.076527121334   -0.078811467702    0.426036429130
C      3.362805524690    1.143001411237    0.582121975520
C      1.353088570306   -2.071289031550   -1.256212242567
C      1.979080222684   -3.282588855743   -1.500043147550
C      3.324196377157   -3.458979416318   -1.123404935187
C      4.026178940610   -2.434016509116   -0.507202488365
C      5.388937558022   -0.167413272314    0.943676528338
C      5.979162795007    0.896442119211    1.607049664896
C      5.259698437983    2.091284505805    1.780943340889
C      3.974485730997    2.210253431843    1.276426844462
H      0.313872156954   -1.907672205635   -1.541318695671
H      1.433665426810   -4.096549102247   -1.983096058092
H      3.821828651044   -4.412750200138   -1.316507935295
H      5.066376411961   -2.599224803268   -0.225382471192
H      5.949363148104   -1.096081131263    0.829151620659
H      6.993158702696    0.800598850701    2.001868921059
H      5.707193108716    2.929137253119    2.320901127041
H      3.405834589072    3.129725616467    1.422122081470
