77

C     -0.880731627993    4.512543865198   -2.190803970205
H     -3.799218049280    2.027528762148    3.290942634464
C     -0.445064148662    4.681901946654   -0.798417611343
H      1.864288584142    3.285823130558   -1.522562567118
H     -1.235055079916    4.526183946291   -0.054946335837
C      0.734496318365    5.256658893917   -0.338170867296
H      1.487373606307    5.652550570977   -1.022122660344
C      0.820036212816    5.788993310167    1.056558399371
O     -0.083244978653    5.830203064550    1.859819182322
O      2.056597243999    6.260691344286    1.304085431826
Pd     1.107858930993    3.077841424307   -0.229318057135
C     -1.059411547965    2.358490052207    1.928671625568
O     -1.521588305834    1.286981522097    1.376123977406
O      0.055796590629    2.846203534554    1.706955229128
C     -1.977079204877    3.067855206057    2.930112412482
H     -1.828751116614    4.135400405804    2.707652262259
N     -3.374612158799    2.745125649572    2.716381704479
C     -3.995075539124    3.092913018188    1.552096717822
O     -3.444297413301    3.788293712962    0.707756763697
O      0.070667854252    0.192382527274   -0.164474137259
H     -0.823703541287    0.857635399853    0.704121823533
C     -0.068774238090    4.808743522606   -3.304697126596
C     -0.527718086672    4.669442938094   -4.614319932412
C     -1.854760035902    4.215268725707   -4.835859081344
C     -2.662723287821    3.926542681937   -3.728801455619
C     -2.194829881361    4.068597514675   -2.422304480061
H      0.956588027043    5.152723073732   -3.148018302261
H     -3.687098514727    3.581415426972   -3.894671742079
H     -2.844525944960    3.851474088743   -1.570807564804
C      0.376122624880    4.993616946764   -5.778350168798
H      0.529391409980    4.116382084886   -6.429638148580
H     -0.049342856724    5.786903402201   -6.416330687983
H      1.364585876759    5.332243304913   -5.436020540178
C     -2.384912075921    4.046815488188   -6.236322320837
H     -2.355107740621    4.995525116312   -6.799254151352
H     -1.783154250850    3.323694111400   -6.813138188482
H     -3.424977813000    3.690560700859   -6.231072499865
C      2.289003852485    6.817282104301    2.607928913062
H      1.562931383410    7.627772381717    2.784473973897
H      2.094107626981    6.040431244215    3.365352432993
C      3.719020245481    7.313435100644    2.659260842370
H      3.896030995717    8.085752687005    1.894846534169
H      3.929210328398    7.751278929652    3.647564271418
H      4.429450931421    6.490134633177    2.488163509065
C     -5.397034257461    2.548141932930    1.356446112543
H     -5.878609490195    2.237184571512    2.295232730096
H     -6.009833113246    3.315989458113    0.864940415472
H     -5.344945219368    1.678708644187    0.681044985525
C     -1.522748185500    2.823425583265    4.391446474186
H     -0.444003596168    3.055444528121    4.387276784546
C     -2.214271954141    3.811577084356    5.340000319863
H     -1.846434231707    3.702331596173    6.371229312108
H     -2.028114775544    4.850523780214    5.027049018393
H     -3.305772032159    3.657811015282    5.354166270243
C     -1.681657464413    1.352423522084    4.831641475058
H     -2.754316404596    1.120120204235    4.976603310629
H     -1.338792140564    0.690311330178    4.019038974412
C     -0.924760424690    0.993742736334    6.113142869775
H     -1.282395059242    1.567046908423    6.982876820073
H     -1.042621623238   -0.074465901816    6.353961417923
H      0.154283033099    1.192442234610    6.004077233777
N      2.110158328283    1.247124672751   -0.107621966152
C      1.327796909797    0.104041694183   -0.111129181770
C      2.006736459378   -1.162943921827   -0.069291290301
C      3.376857432726   -1.233346129434   -0.012076450193
C      4.141771580603   -0.038962076463    0.003545250256
C      3.448802900740    1.166195142914   -0.053889251740
H      1.378762161934   -2.054976947880   -0.082921151920
H      3.887563323841   -2.197447914545    0.022683405511
H      4.009391149044    2.103135817880   -0.059906838350
C      5.618275711725    0.003964388851    0.065166228513
O      6.287707098150    1.014541396163    0.078022113204
O      6.164467694202   -1.233066213815    0.107606720852
C      7.586320727965   -1.288222448106    0.167601204795
H      7.963373796434   -0.777711388631    1.067265930417
H      7.851744140500   -2.352655213467    0.196223447388
H      8.037336554883   -0.807337526801   -0.714157892075
