54

C      1.988249457854    3.235965033311   -2.341553275297
H      2.822715746044    2.533345428694   -2.406871313795
H      2.205481926135    4.305119281556   -2.297358005798
C      0.711747283331    2.793785798734   -2.588166964948
H     -0.112990075656    3.499112544486   -2.715492977874
C      0.440795594974    1.362756094658   -2.949927810063
O      1.294234926473    0.513749333805   -3.068474339196
O     -0.866739806290    1.162456586337   -3.124665572826
Pd     0.940271266583    2.968989367724   -0.343490526770
C      0.039181259041    5.491539845316    0.530322210418
O      0.143878377651    4.776598245128   -0.576160151520
O     -0.239529688799    6.668864522510    0.538237715490
C      0.348502590985    4.722769257812    1.837226275484
H     -0.436944434840    5.007723424850    2.551628748885
N      0.319108002764    3.287233488537    1.563285035191
C     -0.466206834551    2.429629011824    2.220904506257
O     -0.710773899685    1.264025870259    1.822739799124
O      0.032025198740   -0.064538715548   -0.095875618804
H     -0.339542714189    0.604466389950    0.647484413094
C     -1.295989859210   -0.191870499239   -3.376656359197
H     -0.720144393391   -0.592287883141   -4.226047898934
H     -1.048271743062   -0.792039981004   -2.487162805019
C     -2.784132859078   -0.166774008821   -3.651594030517
H     -3.014894821765    0.450972651976   -4.533236339846
H     -3.144375496369   -1.189569414468   -3.842713524584
H     -3.337093184018    0.237723356053   -2.790230978773
C     -1.130898856852    2.849998245882    3.522866516822
H     -1.496191216678    1.941978407607    4.017621803815
H     -0.450092022800    3.392609750268    4.191912330473
H     -1.996944799915    3.499129366197    3.312010445325
C      1.705629439715    5.225259034073    2.396691336039
H      2.497013524411    4.951266214503    1.678240899532
H      1.647787656645    6.324162678025    2.412086890204
C      2.049748435472    4.702085664668    3.771356652963
C      1.677747542210    5.418504290198    4.921614975356
C      2.718388177629    3.478235175391    3.938799215110
C      1.958836594742    4.926085098405    6.199119310512
H      1.164760834082    6.378789494870    4.812370131184
C      3.000998896886    2.981792730742    5.214795853630
H      3.019592522302    2.907033641258    3.057018393429
C      2.620625852451    3.703417478830    6.350110375766
H      1.664461150831    5.502361987654    7.080266772975
H      3.522840441153    2.027170981218    5.322553043253
H      2.843352824185    3.317512159606    7.348172824368
N      1.964050860710    1.170812587984   -0.018626838758
C      1.338173040467   -0.030084859404   -0.070378024111
C      2.098897569513   -1.223065964493   -0.099003842013
C      3.476885088397   -1.160458014189   -0.018360603544
C      4.107143586466    0.091851528616    0.099069579046
C      3.312172071541    1.223104654672    0.089434579956
H      1.556941138278   -2.166836366465   -0.164698631691
H      4.070168459992   -2.078298944018   -0.031026481458
H      5.190377404365    0.185494470737    0.184166727246
H      3.750314835484    2.222009825276    0.154659370903
