62

C     -0.845234023894    4.504558964364   -2.201351682420
H     -3.759603221389    2.183398319328    3.400636643340
C     -0.391524709103    4.696460015895   -0.818068351718
H      1.902015994609    3.269223218748   -1.539072104202
H     -1.172168645827    4.560541843461   -0.060939243210
C      0.798821383304    5.267419895952   -0.381184358918
H      1.547774731777    5.644733740210   -1.079817614304
C      0.901524963607    5.823048781592    1.003604569621
O      0.003301026785    5.891592673838    1.810045432940
O      2.146622923767    6.280108604902    1.236553510237
Pd     1.150491904858    3.086958536586   -0.238861857244
C     -1.002233417014    2.411582195180    1.950123788226
O     -1.476957152879    1.331676004210    1.430869521047
O      0.106629957570    2.898933290396    1.703286657004
C     -1.902595718294    3.124838655883    2.957105697095
H     -1.688903867744    4.198708937847    2.850453582163
N     -3.310217347423    2.848664534021    2.784463479446
C     -3.933290598608    3.192520030417    1.620041970753
O     -3.358750372617    3.837515669338    0.752665412101
O      0.076626907042    0.216342573336   -0.129646489701
H     -0.794836305123    0.888353060068    0.749090250008
C     -0.046588521953    4.778711825475   -3.330455096990
C     -0.522299254941    4.617230974444   -4.631487728685
C     -1.853141346825    4.162462260065   -4.828116893933
C     -2.647892971376    3.895694766298   -3.706037152643
C     -2.163248702290    4.060072016671   -2.408382335363
H      0.981329658618    5.123243408263   -3.192770241722
H     -3.674991682889    3.550150521618   -3.852958877029
H     -2.802275748433    3.859535980295   -1.544927518698
C      0.367294520154    4.918464479724   -5.812472649625
H      0.510054394495    4.029499622897   -6.450055855211
H     -0.064510219151    5.701455416761   -6.458804466483
H      1.360854955764    5.260617969222   -5.488924650848
C     -2.401258082498    3.970269401473   -6.218506131783
H     -2.376535977670    4.908747408173   -6.798540156283
H     -1.808193483467    3.235662210515   -6.789741419650
H     -3.441868945954    3.616502520124   -6.193886589125
C      2.391726230335    6.857306985368    2.529560011938
H      1.680498552562    7.683773526226    2.691599744469
H      2.184236930712    6.098757156932    3.301955855439
C      3.830174489691    7.329407942237    2.569055638208
H      4.019596703435    8.083066449855    1.789138453247
H      4.049480570047    7.783207533212    3.548097250504
H      4.526193713092    6.490658964824    2.414190605189
C     -5.362130147243    2.712491224759    1.459348742726
H     -5.838640123163    2.433829623814    2.410686662098
H     -5.948113337648    3.503834057622    0.972278489821
H     -5.365370620184    1.835633878358    0.791706257452
H     -1.595042846254    2.822770681336    3.970383724984
N      2.129606137426    1.244087732527   -0.097990170550
C      1.333867283985    0.116023350646   -0.083179659521
C      1.996807175942   -1.160487738698   -0.031883276895
C      3.365597862574   -1.246524260600    0.015317698208
C      4.140780704319   -0.061000719639    0.011266801182
C      3.472780119681    1.149142617311   -0.053271473352
H      1.359101787287   -2.045466225390   -0.031644727731
H      3.858318874988   -2.221669297049    0.055225693819
H      4.028275216203    2.087748698512   -0.075072256887
C      5.635062156853   -0.129602184103    0.073224525749
F      6.066008409703   -0.700968013000    1.218209894749
F      6.144972275384   -0.874044207124   -0.930396216147
F      6.206226163940    1.086526312096   -0.001809412753
