75

C     -1.449085604818    4.431158801993    1.631556882959
H     -0.286933436526    4.534313773730   -4.281351045413
C     -0.348349476924    4.833562276797    0.747561938644
H     -0.644581059289    5.074945543853   -0.275200973684
H      1.538922869310    2.903335892981    1.789455182203
C      0.954482396362    5.149498445744    1.120168946219
H      1.262731200769    5.138997961864    2.166503259041
C      1.933453906560    5.878196555439    0.260462914370
O      3.085483069071    6.061546708350    0.589754909765
O      1.409203909346    6.319285173819   -0.898594534572
Pd     1.064721446716    3.076192108557    0.356226029178
C     -0.631752179118    2.583827663344   -2.054276265541
O     -1.119333887477    1.625331414391   -1.410219540919
O      0.362652688923    3.282554353793   -1.715053270393
C     -1.347967045732    2.941290587098   -3.380925477944
H     -2.419395271391    2.842263949217   -3.143481610642
N     -1.130439663075    4.323653889435   -3.760575686383
C     -1.734527324322    5.339812900043   -3.078064967084
O     -2.582680294371    5.139346914492   -2.218848445669
O      0.073710765947    0.068386706412    0.110025884471
H     -0.392896652850    0.838587737655   -0.424324165052
C     -2.732985801033    4.304920878102    1.064836271440
C     -3.847936418581    3.946477238285    1.829926026732
C     -3.682776154581    3.702271852672    3.213389171853
C     -2.401030674655    3.829875056908    3.776588902841
C     -1.297217521148    4.186221521610    3.009305110079
H     -2.855596604634    4.497586905391   -0.004523393192
H     -2.270941905871    3.640679334204    4.845829116610
H     -0.317213021033    4.266231810570    3.484444629083
C     -5.202337602286    3.820901067101    1.177244823046
H     -5.610019320136    2.801229374862    1.284952890559
H     -5.939169263745    4.503747243396    1.633877881130
H     -5.147350814255    4.050118153032    0.103895888898
C     -4.856566059005    3.308522672088    4.072357819822
H     -5.648942294884    4.076262123263    4.052348621883
H     -5.321381017863    2.373206919713    3.716361238571
H     -4.557636499371    3.159002975083    5.119870902186
C      2.311865244381    6.929884923199   -1.840497696468
H      1.685328607373    7.623861338141   -2.419218281898
H      3.067417468945    7.506402713447   -1.287679900412
C      2.958746834104    5.890372482531   -2.740721305083
H      2.193972528992    5.265509629402   -3.225650498706
H      3.560163070158    6.388428508809   -3.518168818454
H      3.623264165931    5.229177735041   -2.165496261925
C     -1.294535554821    6.744693522932   -3.447864109826
H     -2.189239625543    7.371004193582   -3.572578644369
H     -0.717262634641    7.156581940016   -2.605734973257
H     -0.684280292850    6.790486741871   -4.361746549169
C     -1.009481367848    1.982856571013   -4.526460293197
C     -1.045075982409    2.426156823037   -5.858913812285
C     -0.770388600891    1.553090829249   -6.916073487930
C     -0.459199059660    0.215877930458   -6.661755086131
C     -0.433791261548   -0.239273738585   -5.340351911376
C     -0.708435186478    0.631522847564   -4.283187459539
H     -1.306184091699    3.463436816034   -6.077334323527
H     -0.805466546825    1.923452141680   -7.944174697113
H     -0.243089462891   -0.467951267698   -7.486587080866
H     -0.199795902840   -1.285478849820   -5.126104024282
H     -0.702572691614    0.261038915183   -3.257664005552
N      2.070538457534    1.223853963379    0.058160515366
C      1.378676868166    0.080922063139    0.089039239080
C      2.046447710719   -1.189824681496    0.120653410905
C      3.408672077942   -1.242442968449    0.068534130659
C      4.167596173654   -0.036836287550   -0.007091645641
C      3.452634980378    1.200592274663    0.001264938277
C      5.583600162783   -0.027919386469   -0.069710399872
C      6.282681668956    1.162877642893   -0.113901065954
C      5.575920330022    2.385377248925   -0.089284306780
C      4.193393441012    2.407902290439   -0.032353554852
H      1.418781872101   -2.080213737254    0.165950970950
H      3.930907122992   -2.203181080018    0.078026515712
H      6.112098859809   -0.985085303529   -0.077630546696
H      7.374052901244    1.162071008970   -0.160459318341
H      6.123252421348    3.330924959722   -0.109934645338
H      3.660191538398    3.359596221029    0.001821441892
