68

C     -0.579308773157    4.673647072685   -2.333749400109
H     -2.306766281829   -0.310690493091    0.586419674897
C      0.468349920560    5.050777006392   -1.380540703134
H      2.449868057743    3.742194181543   -0.541067585544
H      1.394158392577    5.406053106293   -1.840408668958
C      0.357204761169    5.236878277200    0.000415599928
H     -0.586976072731    5.083864045583    0.534749235669
C      1.360216917856    6.018880825285    0.788898276715
O      1.258074237314    6.227788260161    1.974286612399
O      2.381309773739    6.487947397630    0.041012148308
Pd     1.084658283163    3.189998532810   -0.188394124721
C     -1.881680808537    2.660224855195    1.005726106307
O     -0.819006763056    2.252762883741    0.362918196580
O     -2.072391753639    3.804810195875    1.383101266289
C     -2.945405401999    1.580066809299    1.320471272365
H     -3.909292152068    2.094491112399    1.204168101453
N     -2.940419903917    0.459003494424    0.400123837596
C     -3.504513596448    0.545462432157   -0.845341790408
O     -4.148757692594    1.518160449636   -1.205355157397
O      0.024166684345    0.050631449016   -0.253279616207
H     -0.429207329200    0.981693443868   -0.010128971078
C     -0.235320628822    4.588003498734   -3.699207862061
C     -1.162000255560    4.231043689562   -4.681517446319
C     -2.490100427027    3.933471836625   -4.288835958274
C     -2.835803531171    4.024741827900   -2.930615788590
C     -1.908721521762    4.398986880818   -1.962945482991
H      0.794630453857    4.806857668000   -3.997380524088
H     -3.848927769002    3.766610150457   -2.616037297137
H     -2.218385930605    4.464619472944   -0.919718055083
C     -0.750640677818    4.157486172487   -6.131435884128
H     -0.900203184035    3.146061850240   -6.546227647517
H     -1.345921268635    4.843035823875   -6.758287151103
H      0.309420170000    4.419473223566   -6.261690562281
C     -3.521191548730    3.523114973984   -5.308003597948
H     -3.686372951830    4.314780258334   -6.059335488316
H     -3.204044537614    2.625714649039   -5.866359729570
H     -4.485801048535    3.300406197172   -4.831026762204
C      3.403957543162    7.220869902005    0.734358943798
H      2.938877044626    8.064622328486    1.269064533983
H      3.855078121293    6.566794307058    1.498906004477
C      4.423108506530    7.686141724676   -0.284813416161
H      3.957756632304    8.340886026666   -1.037931462780
H      5.223461521923    8.252490805259    0.216401549391
H      4.881294771558    6.831015726979   -0.805517573524
C     -3.260584056479   -0.661130082439   -1.738423789827
H     -3.539382989852   -1.598785062711   -1.231507194214
H     -3.851203880923   -0.549631476722   -2.655662292788
H     -2.190743929566   -0.724308238702   -1.995832448179
C     -2.786114105735    1.103812614762    2.767565826938
H     -1.821538919054    0.587705558335    2.911395177319
H     -2.814389158313    1.965154965647    3.449632671430
H     -3.596478058818    0.409409031577    3.037521295081
N      2.012120440382    1.233479286398   -0.080976789225
C      1.324245820319    0.061253964109   -0.182896283071
C      2.013050075056   -1.180371117826   -0.221653371320
C      3.386186451008   -1.212502736368   -0.125099740990
C      4.092063296403    0.002412387097    0.009824746805
C      3.358168861346    1.182308529964    0.021643856486
H      1.412310528774   -2.085513905847   -0.316441019741
H      3.930345531380   -2.157901026996   -0.145939975635
H      3.885877989652    2.130624883802    0.113110826906
C      5.571391116463    0.096195752330    0.129626886674
O      6.187949292390    1.131415660346    0.235829900303
O      6.157571989988   -1.116121091112    0.106396872750
C      7.581154377476   -1.130954349850    0.217276944940
H      7.903625989701   -0.674107116181    1.165042672764
H      7.879561153972   -2.185793226618    0.181284166455
H      8.043225519062   -0.573977393489   -0.611748150237
