44

C      1.974656622177    3.139985725981   -2.481000966584
H      2.779733798513    2.403413813267   -2.541563226226
H      2.229924962151    4.201444754947   -2.499081223972
C      0.676872439228    2.732031300143   -2.668563239473
H     -0.127284113431    3.459114860059   -2.803400308365
C      0.351873838293    1.298468635560   -2.971357985369
O      1.176332930926    0.421094218781   -3.088533280588
O     -0.965026000522    1.133644576463   -3.106859933333
Pd     0.973279125100    3.017963470989   -0.441894621427
C      0.023008791011    5.577723425227    0.293552575603
O      0.179507748297    4.814515135349   -0.775299742617
O     -0.291188531973    6.743332571349    0.240319885153
C      0.304874318358    4.870164044627    1.632727292170
H     -0.475663852704    5.183331601148    2.340367624781
N      0.361079331055    3.426227045062    1.445114923607
C     -0.300862608162    2.561744414705    2.216957087713
O     -0.512661200979    1.365640832973    1.904811640575
O      0.034566462173    0.082926843327   -0.134455610532
H     -0.279791000588    0.718500063012    0.648144757815
C     -1.440310636767   -0.213504856788   -3.305038340878
H     -0.905376869793   -0.654621486757   -4.161117339548
H     -1.179154569691   -0.795638541229   -2.407545649159
C     -2.935673145623   -0.152908027417   -3.531336878111
H     -3.178620352850    0.446440516547   -4.422358191071
H     -3.331117128281   -1.169637297121   -3.680708192281
H     -3.447415978829    0.291914022630   -2.664392493756
C     -0.845385396464    3.025514540521    3.560820659512
H     -1.082393538965    2.133200898065    4.152968369184
H     -0.136397467597    3.661739832775    4.109790044576
H     -1.775902544684    3.599579868024    3.418224767422
H      1.262033074640    5.272273637815    2.016844482537
N      2.011197812646    1.234957606682   -0.013365314802
C      1.346865323209    0.057444818688   -0.102322513043
C      2.050697354382   -1.163405673818   -0.149707124830
C      3.426869476333   -1.147793192986   -0.024654335075
C      4.090636384980    0.073404217590    0.169997344225
C      3.359618632299    1.257004707297    0.175514203039
H      1.475742979115   -2.083099854739   -0.256803585366
H      3.993226447134   -2.082254689415   -0.048599357622
H      5.170930778043    0.108784822238    0.316246290735
C      4.024509570234    2.585854195425    0.410624678762
H      3.928453048172    3.253220323987   -0.460397854057
H      3.557965872087    3.101191627121    1.265011245260
H      5.094078031624    2.453023492179    0.622488771678
