65

C      1.999198358716    3.263140539016   -2.290291666516
H      2.844413999399    2.573720858222   -2.347060317912
H      2.203279025436    4.335686505310   -2.263191004053
C      0.726476811655    2.801683266507   -2.534134435666
H     -0.106800402831    3.496023877084   -2.666310411842
C      0.473289901407    1.368727883886   -2.907191650207
O      1.335948751829    0.532978372633   -3.038912027096
O     -0.831722332697    1.159466543823   -3.091656124950
Pd     0.961806882656    3.002354606248   -0.310904520816
C     -0.192257253926    5.460247015142    0.518860849223
O      0.050290567974    4.768191542333   -0.575025713873
O     -0.727058742749    6.547549559040    0.519308692557
C      0.299384042573    4.789978681725    1.828269238450
H     -0.398421903478    5.096010146679    2.620002551034
N      0.243413079969    3.335686974937    1.604068389160
C     -0.512566939554    2.552559414964    2.324068680665
O     -0.775083950296    1.319322116786    2.021571831338
O      0.019160622634    0.183578878571   -0.039057428527
H     -0.448045867777    0.953253836731    1.097327646812
C     -1.242862920073   -0.195865300156   -3.359937834886
H     -0.684550348715   -0.568205980969   -4.233731903537
H     -0.958103242229   -0.810653182079   -2.492184977107
C     -2.738437660273   -0.193383332065   -3.592479935115
H     -3.005787974454    0.441464583200   -4.451406177719
H     -3.085043529537   -1.217837774636   -3.799583281732
H     -3.273681840355    0.179364537840   -2.705949845989
C     -1.190438730204    2.998683170254    3.599620389633
H     -1.558918812413    2.108289781982    4.122876564884
H     -0.512526465719    3.560128487252    4.254993865246
H     -2.052017283466    3.644351078960    3.364600037539
C      1.721514843518    5.293514956785    2.218797360901
H      2.375266279799    5.115028080138    1.343358157977
C      1.702737967925    6.802515138587    2.500174776935
H      2.722451265148    7.186150584589    2.651705318910
H      1.241324106212    7.366414477660    1.678986968765
H      1.124153584260    7.020364877357    3.414449283504
C      2.298832082794    4.491156369069    3.400966737264
H      1.674626195582    4.678013842821    4.295047638961
H      2.211250066289    3.415802155649    3.178274370453
C      3.760640755684    4.800585434838    3.733069062195
H      3.905903185314    5.842058527604    4.059245164590
H      4.121991943398    4.149215039698    4.544516920873
H      4.412011249590    4.627778091253    2.860246354971
N      2.015750289344    1.243612956392    0.020796859271
C      1.283569529738    0.115270477224   -0.007176383877
C      1.963114525395   -1.187194891669    0.007106571352
C      3.375044599084   -1.255840243972    0.070306777760
C      4.125583265354   -0.006743417514    0.156394519689
C      3.401617651218    1.220695612614    0.135944391250
C      1.187953717625   -2.362400129321   -0.039967828475
C      1.800852355272   -3.606260433578   -0.043106252978
C      3.204342349687   -3.686741037135    0.004989877543
C      3.976894551350   -2.535032088913    0.063126141821
C      5.531789231750    0.042340167343    0.268889010887
C      6.218354319328    1.244839081372    0.360862533813
C      5.500059966570    2.450789727891    0.347208757020
C      4.116606899276    2.435636039674    0.238905976478
H      0.102582417757   -2.258454431588   -0.071559164437
H      1.199960159257   -4.517990670788   -0.082031385740
H      3.694164206091   -4.663980855857   -0.000323685445
H      5.062661987017   -2.629122358018    0.103254263190
H      6.097999321971   -0.889878374851    0.286818964223
H      7.307203577301    1.250133192550    0.446322820107
H      6.025370234937    3.405993483991    0.425293923979
H      3.559149608720    3.373862857013    0.238635512176
