71

C     -1.423644374255    4.447989009148    1.640886463029
H     -0.352091722060    4.594597293088   -4.401858724704
C     -0.337831802445    4.847817280974    0.737901508471
H     -0.650574196591    5.084312308567   -0.281649996294
H      1.543191179429    2.921551444375    1.768803477833
C      0.972280875384    5.158627421661    1.093219736501
H      1.288623366081    5.154986296343    2.137023268395
C      1.941566089774    5.894790533439    0.228078471216
O      3.074822204285    6.138194267587    0.576970015543
O      1.424976244167    6.270858505220   -0.957855716312
Pd     1.049818118903    3.081866395917    0.338520478738
C     -0.648548134216    2.589480632402   -2.096030133979
O     -1.179919453444    1.647097295453   -1.457356857274
O      0.359850965656    3.257156796818   -1.732181644090
C     -1.307282688346    2.947674604602   -3.447905425567
H     -2.384019046940    2.795913498502   -3.280838312150
N     -1.113769490118    4.347616465175   -3.783185984539
C     -1.699528732571    5.336765034639   -3.054822544442
O     -2.480311700763    5.101027118597   -2.140729470178
O     -0.103592396152    0.121470225413    0.130982790355
H     -0.542887811686    0.888448789182   -0.477516641015
C     -2.711791546862    4.293185834814    1.090527447115
C     -3.812245103876    3.931208599290    1.874637530008
C     -3.627951631724    3.714211515601    3.260232473426
C     -2.342218291602    3.871663558023    3.807107847119
C     -1.252714747987    4.230454418907    3.021324740465
H     -2.846227031049    4.465000042521    0.019379849650
H     -2.197920908875    3.704416114202    4.878130396815
H     -0.269382822277    4.335275293312    3.484506790312
C     -5.171870777244    3.772942524152    1.240276119351
H     -5.561897899248    2.748994318495    1.370270562942
H     -5.914241593677    4.451978904475    1.693556183810
H     -5.132734067934    3.984100244604    0.162565127370
C     -4.785739750064    3.317813474787    4.139200297429
H     -5.590455151657    4.072409635403    4.113750051852
H     -5.239047049880    2.368889049850    3.805121015993
H     -4.473267315647    3.192199826827    5.185848544872
C      2.326582643899    6.868574467537   -1.907750567474
H      1.688138810203    7.501988224925   -2.540275345394
H      3.042269625217    7.506518258414   -1.369303672687
C      3.039969310859    5.808426198208   -2.730479225435
H      2.312326119009    5.124355504230   -3.192571992236
H      3.639363123626    6.285125798459   -3.522725225079
H      3.718509811907    5.215932313424   -2.098961255056
C     -1.331260346505    6.759774904282   -3.435626789853
H     -2.254695605999    7.350636478467   -3.518584116400
H     -0.736178007989    7.192107450779   -2.616584620834
H     -0.764083491668    6.836046173495   -4.375058983647
C     -0.869063886346    2.012019327892   -4.625947428056
C     -1.207594723851    0.547221845929   -4.287948764816
H     -0.966572753566   -0.096934351328   -5.148974044591
H     -0.649216166857    0.180871834530   -3.416356981838
H     -2.278438327405    0.427333285687   -4.061599647203
C     -1.657913052922    2.408639082351   -5.890861380664
H     -2.743310827171    2.326476041456   -5.720202166440
H     -1.448976604789    3.441045304667   -6.209179098166
H     -1.396752087542    1.740483654625   -6.727174778117
C      0.644079920894    2.127457038010   -4.898728953331
H      0.946036770936    3.145602784385   -5.198043265058
H      1.239082667162    1.853369753849   -4.014634544186
H      0.932128232056    1.456993780090   -5.724130426457
N      1.945063738738    1.181466494235    0.035010055562
C      1.189888006983    0.059931497463    0.093598045996
C      1.853922581776   -1.206139230697    0.137484094966
C      3.233304009287   -1.280942523351    0.078155799658
C      3.968821649012   -0.088766247591   -0.026626692636
C      3.292874814743    1.119421366693   -0.039585766254
H      3.735560601261   -2.248675221125    0.101387242312
H      3.833458102141    2.065096937303   -0.092185417208
Cl     0.893227235533   -2.644954977212    0.244507647026
Cl     5.707562445289   -0.123997961444   -0.122158619746
