77

C     -1.444913161731    4.476290356840    1.702001217543
H     -0.491118599993    4.632319541249   -4.499384737642
C     -0.371673302519    4.844523260165    0.769378836887
H     -0.704715571736    5.072858616928   -0.245682739191
H      1.448303286213    2.870387997550    1.803760552425
C      0.949751404460    5.140598859638    1.089726583450
H      1.297862145329    5.137879410561    2.123654926337
C      1.911172909619    5.831707536868    0.180529594681
O      3.085666895789    5.968625326890    0.448720546858
O      1.343448400706    6.296300729455   -0.947581340880
Pd     0.991289073631    3.053362048145    0.364907313766
C     -0.685871259560    2.631683781696   -2.075477509594
O     -1.227109345751    1.691211135719   -1.444708199395
O      0.333536103815    3.282398805384   -1.712879655823
C     -1.325395712001    2.983806970110   -3.435184892906
H     -2.400039170874    2.787672175955   -3.310905116087
N     -1.164268392320    4.385644006536   -3.784337223330
C     -1.729285851349    5.372934981436   -3.039250750281
O     -2.444051297752    5.131599893602   -2.074094487628
O     -0.137967501641    0.105004684462    0.113496038136
H     -0.561287071459    0.887947216765   -0.449429559031
C     -2.745317813017    4.329291483964    1.179635494866
C     -3.835797672972    3.998581067155    1.991209635550
C     -3.628791840882    3.806487910280    3.377207445405
C     -2.330952514415    3.955932326787    3.896149773232
C     -1.251447184690    4.283259222421    3.082617268218
H     -2.896056043955    4.482030889828    0.107803047664
H     -2.168399962362    3.807906444258    4.967481710666
H     -0.257864574608    4.382585427952    3.524765859410
C     -5.209661069048    3.847652299734    1.386081840747
H     -5.612676571942    2.832780593923    1.544913222103
H     -5.933334021425    4.547290110266    1.838453416858
H     -5.188261901341    4.035434443196    0.303515361367
C     -4.775578819687    3.445016831787    4.285674713697
H     -5.569445947273    4.211149889117    4.261240038205
H     -5.249747334581    2.496680349941    3.979860379594
H     -4.444628785710    3.335231941103    5.328501059813
C      2.216750612190    6.857927559307   -1.944702555170
H      1.596197431976    7.590491740283   -2.481031145147
H      3.039729721176    7.386381018573   -1.442346237437
C      2.737920591935    5.783908051557   -2.885360961406
H      1.903610181132    5.201663547275   -3.303207095171
H      3.307283477720    6.246906999505   -3.707509049795
H      3.404481604823    5.087411792662   -2.355738433918
C     -1.427340159612    6.798728314038   -3.465717723087
H     -2.375605747737    7.350003716075   -3.544438789991
H     -0.835989838112    7.276246756658   -2.669685561566
H     -0.882109753389    6.874299700154   -4.418104567630
C     -0.758253304573    2.114429784989   -4.573150049933
H     -1.251675622071    2.436069278958   -5.509294529078
H      0.315426475970    2.353784233818   -4.684182787730
C     -0.912892574594    0.588471688010   -4.432964670452
H     -0.381949651457    0.275495220021   -3.517569851205
C     -0.244987824969   -0.108226727379   -5.626087567555
H      0.815957199367    0.176136544916   -5.722032734172
H     -0.289725354589   -1.204093321808   -5.521261159754
H     -0.747526188754    0.155029003749   -6.573268154244
C     -2.376180617070    0.153488392531   -4.282964446253
H     -2.454743929531   -0.945671544943   -4.265304885092
H     -2.809322415157    0.529030548801   -3.344902941401
H     -2.990073559580    0.516067700705   -5.126527416661
N      1.913137634221    1.158402033318    0.075671030248
C      1.164864915188    0.051170033367    0.110065811050
C      1.771353981574   -1.249773467652    0.164901754365
C      3.130114973108   -1.367982091842    0.129323591134
C      3.947211566990   -0.201334794047    0.044677690898
C      3.292177285485    1.068768785068    0.029055749636
C      5.362471938292   -0.260325067587   -0.006154756232
C      6.117334487909    0.895430977720   -0.064147869353
C      5.469210950166    2.150413056209   -0.066808775652
C      4.088982833554    2.239614696474   -0.020354641963
H      1.101595715451   -2.108774782797    0.214148758664
H      3.605535302437   -2.352425579900    0.157685153180
H      5.845319782573   -1.241326321061    0.005473183209
H      7.207790626400    0.842270131204   -0.101785959606
H      6.061095839123    3.068334981721   -0.101394537592
H      3.600719355725    3.216061375901   -0.009856459900
