71

C     -1.420357004417    4.420132607130    1.557846222851
H     -0.280120542957    4.274822475600   -4.331791298134
C     -0.255249395687    4.884299930675    0.794991677903
H     -0.473219069619    5.222262722550   -0.220448611818
H      1.750643528454    2.950938714074    1.746957954762
C      1.017296160023    5.147908659361    1.292654514704
H      1.235749495961    5.052419379965    2.356804923526
C      2.048353231362    5.970863428969    0.595175971857
O      3.124439837730    6.229490368977    1.087065985286
O      1.654374990491    6.420276774479   -0.613563128363
Pd     1.149771724940    3.141259648653    0.360946629164
C     -0.679194573039    2.573396236105   -1.947574977270
O     -1.077289656133    1.567637330658   -1.318068002910
O      0.292036893539    3.322710911574   -1.636100790366
C     -1.476153369063    2.924954267410   -3.223882639882
H     -2.520543864485    3.001696074085   -2.887083846897
N     -1.121146331380    4.220051859204   -3.769991021827
C     -1.567207821461    5.375425742771   -3.197866211612
O     -2.415751075291    5.394307309529   -2.315432917703
O      0.141641832861    0.191631076150    0.371065938213
H     -0.350612412246    0.869026261351   -0.253807536993
C     -2.667720033923    4.398821122136    0.903058319751
C     -3.838199742780    3.994320699006    1.553581650953
C     -3.768351987030    3.590759043461    2.907421239316
C     -2.522385057004    3.611632465689    3.557983443469
C     -1.363059917691    4.016667941666    2.905210881252
H     -2.717557370743    4.711542683537   -0.143851510179
H     -2.465485123575    3.297324540879    4.603891357081
H     -0.413316643998    4.008659630950    3.444098062370
C     -5.150344569450    3.987443810849    0.808846324279
H     -5.591742625313    2.976618837788    0.776701880492
H     -5.896594585381    4.640764677238    1.292678218422
H     -5.018864631784    4.331871296702   -0.226486138892
C     -5.004320932834    3.140697339738    3.642626829211
H     -5.775328887947    3.929953110959    3.660644103550
H     -5.467049713705    2.265315529385    3.155541617592
H     -4.777290142077    2.866445912030    4.682941161699
C      2.586086814146    7.234609544265   -1.347426971715
H      1.958112264049    7.850058136576   -2.008037234173
H      3.115199532375    7.892643004198   -0.642527597896
C      3.568795298176    6.396266552462   -2.147799672629
H      3.039553678273    5.705046443283   -2.821861404026
H      4.210294788907    7.053126055751   -2.757249221677
H      4.216996359009    5.812642919933   -1.478159448705
C     -0.933560546821    6.654875258723   -3.716109799797
H     -1.707699255650    7.431403242484   -3.783931826287
H     -0.187917319042    6.990865510086   -2.977809541074
H     -0.441209384886    6.536824168922   -4.692826430103
C     -1.391939744343    1.789939169734   -4.272776396829
H     -1.678375636591    0.882599343302   -3.717126800060
C     -2.398687386322    2.000579132860   -5.409139411208
H     -2.373890912795    1.156920101258   -6.117578346423
H     -3.426490591795    2.086099184495   -5.021951885680
H     -2.179616538365    2.921531795735   -5.973779034201
C      0.030940839206    1.576354207878   -4.808619052134
H      0.387140481617    2.440244499909   -5.397699636590
H      0.753870667760    1.399384662451   -3.996757670606
H      0.063591971931    0.703653142889   -5.480008390033
N      2.123506215271    1.298099066550   -0.048991855995
C      1.433825358934    0.150813008354    0.164469836163
C      2.105583780255   -1.093354663095    0.188826215044
C      3.465245594514   -1.129722138588   -0.056915042376
C      4.151662305432    0.062286501171   -0.334654750179
C      3.456008824433    1.267811527343   -0.319275893018
H      1.514038094044   -1.988295390022    0.383183703703
H      4.000159865918   -2.083112196676   -0.050578641896
H      5.220649074630    0.059543051913   -0.550950409427
C      4.144346305213    2.576367472053   -0.587230279028
H      3.645490426240    3.112068683549   -1.410195297104
H      4.099506470649    3.232959700748    0.297116311946
H      5.198683553507    2.420069276308   -0.854067614750
