69

C     -0.865270176975    4.480499660970   -2.247944123784
H     -3.850321875811    2.330942887948    3.502999988732
C     -0.447553452881    4.678623273505   -0.853739740671
H      1.899033204394    3.324537326865   -1.533969837943
H     -1.235448870391    4.502356716970   -0.112906267290
C      0.714753627951    5.288283874397   -0.392080011094
H      1.463530125524    5.691905847766   -1.076146265032
C      0.781778331532    5.843165433933    0.995332950324
O     -0.131986577407    5.901923248123    1.785595054871
O      2.016917627354    6.315715003454    1.252134511330
Pd     1.121486803175    3.119039012591   -0.253199670344
C     -1.019022804329    2.380008778706    1.985011995093
O     -1.432470457268    1.233830298178    1.561932239525
O      0.037733083370    2.928855274269    1.660418899696
C     -1.920714406529    3.091171815966    3.008537445667
H     -1.724297621663    4.161171749063    2.846244483509
N     -3.327960896390    2.805577254533    2.777404855164
C     -3.910250779821    3.075464035978    1.578344052393
O     -3.285723023950    3.606548906509    0.667121376157
O      0.127794190026    0.261715207766   -0.091199639725
H     -0.760039701457    0.818052381691    0.858707268113
C     -0.065409289905    4.820250721542   -3.358070020717
C     -0.505985348648    4.646564899590   -4.669958795072
C     -1.800907215390    4.110269181369   -4.897572306696
C     -2.597117551835    3.777822999372   -3.794149268796
C     -2.148130469657    3.955718980660   -2.485531741020
H      0.935257756172    5.228990691924   -3.196753768660
H     -3.596483071368    3.367911383420   -3.964966866879
H     -2.786277276649    3.699938722773   -1.636268878175
C      0.383649936610    5.020881189596   -5.829876879705
H      0.595501287342    4.151952891662   -6.475862170108
H     -0.085984209777    5.783236700275   -6.474532602423
H      1.346870561445    5.422015057618   -5.483019547731
C     -2.310135714434    3.902095785678   -6.300453492233
H     -2.334753297603    4.847756289023   -6.868749026247
H     -1.661273431862    3.214024374462   -6.868998948791
H     -3.326326064823    3.482582766402   -6.299870571781
C      2.233334620364    6.893085551451    2.549489493023
H      1.494399437867    7.694794108081    2.711491913090
H      2.047220211615    6.122888643344    3.315999168037
C      3.655313816488    7.411874260713    2.602252704297
H      3.824888463990    8.176741554224    1.828725551977
H      3.853318477117    7.865738609441    3.585815574278
H      4.379408147166    6.597459517101    2.446416338910
C     -5.359951782399    2.658595411776    1.425339195370
H     -5.850865607036    2.414186480401    2.378552544398
H     -5.909891173443    3.468700389820    0.926223957038
H     -5.401854611532    1.775529044048    0.767932819521
C     -1.513949981170    2.713548351087    4.424032701074
C     -1.001269826650    3.686964012896    5.292480729699
C     -0.628448620522    3.346087205666    6.595982961007
C     -0.764090736217    2.028830820765    7.043522895372
C     -1.267266340013    1.050458735202    6.179902460860
C     -1.636315910867    1.388743588829    4.875557353339
H     -0.891096968931    4.715082286491    4.938248283171
H     -0.231137371857    4.113835485768    7.264876690721
H     -0.473078720702    1.762944283909    8.062951249767
H     -1.364521204488    0.016319615060    6.520034005014
H     -2.004131341691    0.616839325570    4.194116017975
N      2.165942505132    1.309747776690   -0.069385576352
C      1.383652984803    0.182105285360   -0.012048407377
C      2.085854203909   -1.074785430366    0.125956184393
C      3.461111848138   -1.135915487194    0.189518735377
C      4.195509571704    0.064416520614    0.122190145983
C      3.514571651404    1.259606365443   -0.010507756596
H      3.969649875808   -2.095556974260    0.291781830157
H      4.052677535441    2.206321677442   -0.073615085571
Cl     1.129990256646   -2.524824513120    0.209647939855
Cl     5.941127107859    0.044252558516    0.197155345684
