78

C     -0.872299846474    4.445032575750   -2.129983365046
H     -3.825821024020    2.046005042282    3.444911840240
C     -0.460703309000    4.582096845080   -0.726540433586
H      1.856539819858    3.221502570140   -1.480592491363
H     -1.260005636301    4.386392996464   -0.003126358669
C      0.699909512583    5.166890379334   -0.231862107649
H      1.456742972388    5.590482545922   -0.894580459634
C      0.759354512180    5.671993189437    1.173110644428
O     -0.157898186373    5.698276180597    1.963304767995
O      1.989201015447    6.144228786481    1.450447965283
Pd     1.110021463115    2.987997236536   -0.185022537420
C     -1.044826945778    2.233358398804    1.970367056824
O     -1.489866931646    1.143307734898    1.450474627744
O      0.068827083175    2.727652241121    1.749960281976
C     -1.973867080082    2.974444995963    2.937379636982
H     -1.833817778095    4.033516296371    2.672321083221
N     -3.365963765256    2.625578029804    2.753843918421
C     -4.006389978877    2.920441118483    1.588995672401
O     -3.452756529378    3.542296810314    0.689810848871
O      0.097588690707    0.078675645642   -0.105623896861
H     -0.784525778065    0.717316113691    0.775488317346
C     -0.057829428116    4.809481804332   -3.221463790008
C     -0.493524618304    4.696868738405   -4.541527553846
C     -1.798629165539    4.199346334950   -4.797371183353
C     -2.609299477333    3.842779435237   -3.712315477299
C     -2.165157104456    3.959293802127   -2.394997040152
H      0.951019946600    5.187669414451   -3.038492061330
H     -3.616931727617    3.463608116531   -3.904296919323
H     -2.817133098458    3.687861652453   -1.561021600789
C      0.412193834325    5.095077329178   -5.680897132553
H      0.609581968658    4.246726508823   -6.358097880671
H     -0.035992167070    5.891542950776   -6.299078294343
H      1.381531349965    5.461202503387   -5.312992131994
C     -2.303115047347    4.057391262131   -6.210233078509
H     -2.302997582563    5.024722378652   -6.741392234162
H     -1.666145698205    3.377479677407   -6.801606439817
H     -3.328451756586    3.661292512062   -6.231727999973
C      2.200298344847    6.683200392954    2.764886968257
H      1.464212012210    7.483657371889    2.945434261331
H      2.007575341886    5.892741337642    3.508656514799
C      3.623935236192    7.194849027609    2.839896880503
H      3.800588439991    7.980419834439    2.089032239212
H      3.818081700062    7.620009554488    3.836938224228
H      4.345585989853    6.382141772152    2.664953584330
C     -5.429172992235    2.412195397882    1.459877946088
H     -5.887876907937    2.148452425236    2.424171576717
H     -6.035412844501    3.181684511716    0.962469740815
H     -5.426522814576    1.519932041907    0.813119509055
C     -1.515315990381    2.770745596348    4.394292066914
H     -1.639027739129    1.710529839351    4.673816260816
H     -0.434843931167    2.981474326749    4.416399047205
C     -2.235574085135    3.662420666705    5.383938763078
C     -2.092469093482    5.059454709735    5.313144322083
C     -3.056036313491    3.122850353081    6.384874837855
C     -2.755800950429    5.888857643738    6.219284268729
H     -1.455882610155    5.497906382212    4.538484902909
C     -3.721534327113    3.952608335288    7.294471023500
H     -3.169124482283    2.036898397085    6.461664136957
C     -3.573854519843    5.338771060024    7.213174347938
H     -2.633069394204    6.973003465799    6.150659545278
H     -4.354736110044    3.512097851483    8.069185928448
H     -4.091827908745    5.989921429919    7.921993684640
N      2.113222471450    1.163775522536   -0.106560178084
C      1.361922988494    0.030356944155   -0.093538183207
C      2.055931628082   -1.260757915169   -0.083494406290
C      3.478137885820   -1.307258984518   -0.074981299782
C      4.189953887967   -0.066469688979   -0.080376393373
C      3.482668635371    1.102750653178   -0.102336856719
C      1.310896043071   -2.460233004613   -0.081414120827
C      1.955938718761   -3.686137160233   -0.070043372300
C      3.367255872424   -3.739100158739   -0.060383890218
C      4.115433070191   -2.574244060366   -0.063004619825
H      0.222345571892   -2.385416263307   -0.092097284019
H      1.376484315482   -4.612755041520   -0.069397151240
H      3.872401877977   -4.708909541251   -0.051607637415
H      5.207945491227   -2.618004618412   -0.056862144266
H      5.281154636357   -0.049187917720   -0.074521193736
H      3.993872886045    2.067169370110   -0.118011753632
