50

C      2.032870135104    3.217532739237   -2.393230786020
H      2.859488506894    2.504943295966   -2.446906385427
H      2.260929121044    4.285380938419   -2.372302812409
C      0.750721391834    2.784387648749   -2.642879243813
H     -0.063943836820    3.498554440732   -2.786405157659
C      0.461419493830    1.352358964700   -2.994051287337
O      1.305526380183    0.499432980349   -3.133180087593
O     -0.851845396404    1.165288549584   -3.138440077313
Pd     0.979840821940    2.979288802411   -0.425026888705
C      0.074357420436    5.517614829136    0.416659982168
O      0.178720609344    4.795431646293   -0.678260642944
O     -0.197034943719    6.697099382718    0.428894582669
C      0.364797841965    4.765147642169    1.739504760106
H     -0.425330130388    5.081722365092    2.435271351138
N      0.293995018209    3.315835248306    1.493875190913
C     -0.377208901778    2.521069777936    2.283163855116
O     -0.650686149603    1.285045199088    2.016072259824
O     -0.007098373051    0.105048766781   -0.057420721162
H     -0.400359703284    0.893869770785    1.067675528040
C     -1.298444074312   -0.189189455425   -3.354814992951
H     -0.752942993755   -0.608072332328   -4.215244528461
H     -1.026611463071   -0.775247073652   -2.463171623337
C     -2.794332954433   -0.157090781906   -3.582800141163
H     -3.049178205581    0.449582354716   -4.465627152614
H     -3.167644713578   -1.179824121349   -3.747612580419
H     -3.316444875238    0.263765474679   -2.710050056816
C     -0.938050927730    2.973974071370    3.612598670498
H     -1.173803886482    2.083475217850    4.207814212660
H     -0.240855183313    3.616299081044    4.166076541857
H     -1.872357897535    3.537380309647    3.454766931071
C      1.720776046916    5.203499190140    2.305023787597
H      1.917009208362    4.731606354435    3.280463812408
H      2.539661065212    4.927673986311    1.621126692469
H      1.725780732555    6.296045935041    2.429663167745
N      1.976339271742    1.204918124681   -0.097334697831
C      1.260839562197    0.053165930082   -0.061082568458
C      1.984451132157   -1.213335991212   -0.003106906915
C      3.406650075914   -1.214504768775    0.040434042512
C      4.083132263358    0.047585102927    0.036955936563
C      3.346320250612    1.194879823398   -0.032995565444
C      1.274623500226   -2.433154815968    0.024004153181
C      1.957578262326   -3.636963836504    0.078755811580
C      3.369263100894   -3.645882459676    0.113159282891
C      4.082307937406   -2.459037431666    0.097044771782
H      0.184327959898   -2.394537956818    0.003899928157
H      1.407333720115   -4.580820783453    0.097889694756
H      3.903028903043   -4.599066623528    0.155925512447
H      5.175008726573   -2.469337407890    0.127968445411
H      5.172002207121    0.096242637219    0.088592611018
H      3.828257445463    2.175724619067   -0.039543765470
