63

C      2.116585672008    3.108982721100   -2.386144435534
H      2.935276637131    2.386775364772   -2.413910125033
H      2.361047703761    4.173392660615   -2.394402108469
C      0.827935301372    2.688450147122   -2.623017411169
H      0.023966769901    3.410004381358   -2.786985470043
C      0.519291347650    1.255205055286   -2.950047109359
O      1.347440792146    0.380725200026   -3.046779537099
O     -0.792255121902    1.092971836382   -3.136637232679
Pd     1.057086415215    2.958244211029   -0.408578615679
C      0.041443447864    5.507665652943    0.305319028861
O      0.241903733191    4.754592269288   -0.748859861305
O     -0.354163032244    6.651804683757    0.256929381198
C      0.357176921561    4.834458789059    1.673178292159
H     -0.467337097059    5.151303426288    2.329505972565
N      0.334144029804    3.378275235931    1.488684511821
C     -0.317928507029    2.607033426328    2.317107796711
O     -0.576547440209    1.359038419371    2.092622405456
O      0.004593299198    0.185957832366   -0.011183065647
H     -0.354659292596    0.970657052946    1.141198628008
C     -1.256994437430   -0.252318973555   -3.365303129713
H     -0.708003854658   -0.675209795878   -4.221806282597
H     -1.004503038071   -0.850742562863   -2.476303206607
C     -2.749423631523   -0.195893424989   -3.610802104868
H     -2.983803001868    0.421019333316   -4.492120634095
H     -3.136663028219   -1.211400295305   -3.787693528268
H     -3.275252251060    0.227366590518   -2.741482214682
C     -0.856836315000    3.099789347405    3.639452319797
H     -1.047778608035    2.229627779776    4.279493199288
H     -0.162899237412    3.787628704910    4.139955147863
H     -1.814261133006    3.623800698113    3.484003476869
C      1.662297942029    5.364247996669    2.275348371366
C      2.653244995614    4.500466507685    2.762079239930
C      3.822370144310    5.010595028644    3.339868574506
C      4.013163858528    6.389429428852    3.441321415684
C      3.026133599671    7.257478310448    2.960345705324
C      1.860121175781    6.752521086358    2.383225058480
H      2.518283932564    3.420270546190    2.688865084652
H      4.584551919455    4.319989886638    3.709979429502
H      4.924958233824    6.788153005334    3.893393408183
H      3.164817811893    8.339254288095    3.034744522962
H      1.095107457627    7.428988104175    1.997456747542
N      2.038919078046    1.172265740066   -0.016267937535
C      1.267355095612    0.070831505385   -0.009236296927
C      1.899862938438   -1.254206967497    0.010970277530
C      3.309713820868   -1.371788471202    0.044126281362
C      4.105560632218   -0.149305339117    0.100549593725
C      3.426041557630    1.102939049990    0.078192000510
C      1.082823110522   -2.401648911417   -0.002714310866
C      1.651403710328   -3.666342009691   -0.003035847736
C      3.051983069245   -3.795737120582    0.014299941990
C      3.865733542606   -2.671533251913    0.040013842769
C      5.514381579035   -0.148791294663    0.189197779746
C      6.243127588683    1.030210369517    0.258594281407
C      5.567263704720    2.260575636448    0.247601024307
C      4.182622899246    2.293940310909    0.160540366411
H      0.001309099805   -2.259728820121   -0.011466804678
H      1.018183177000   -4.556670578852   -0.016157630511
H      3.506917168582   -4.789705532507    0.010708083850
H      4.948152980129   -2.803505147991    0.056955558533
H      6.048079005661   -1.099995757519    0.207580351209
H      7.332813558767    0.998116157832    0.326602254473
H      6.125190076706    3.197846491519    0.313903871626
H      3.660579358100    3.252555234750    0.169110237455
