74

C     -1.416737150444    4.473929885646    1.690638302373
H     -0.487527705116    4.605681951088   -4.497832011742
C     -0.344391067839    4.857522745934    0.764249980008
H     -0.675318533424    5.091600501850   -0.250385059502
H      1.516888080807    2.904820531832    1.777686492094
C      0.975285585043    5.155838737791    1.091764023382
H      1.314943330200    5.152134906813    2.128305067693
C      1.934212453715    5.873751289155    0.199435570010
O      3.084063688681    6.086495025539    0.511996593491
O      1.386303028192    6.270611583778   -0.965033913812
Pd     1.019679308712    3.072967003236    0.349220682368
C     -0.693287595679    2.615548798844   -2.076232792974
O     -1.227583991926    1.666633929577   -1.448300873213
O      0.322071261939    3.270702073445   -1.714163427842
C     -1.341335183263    2.970453876297   -3.430401214098
H     -2.417074039123    2.787743714418   -3.295059235343
N     -1.165800636528    4.368799599721   -3.784232892058
C     -1.714544145344    5.364192032899   -3.037730612612
O     -2.427607438704    5.132065139602   -2.068854375524
O     -0.155095257194    0.091926270981    0.104189158037
H     -0.582948510756    0.880076144897   -0.474448548986
C     -2.715815791197    4.325287223804    1.164864149602
C     -3.805324655892    3.980549826560    1.971794346574
C     -3.598408579887    3.775277893464    3.356000111979
C     -2.301826024696    3.926320852148    3.878299823326
C     -1.223364788445    4.267931879564    3.069749722187
H     -2.866265035938    4.488530205121    0.094600964705
H     -2.139974234328    3.768575050572    4.948283082540
H     -0.231102516062    4.369076257177    3.514343867658
C     -5.177808554135    3.829111535705    1.363890054322
H     -5.575923565619    2.810732137993    1.511993962216
H     -5.905078293647    4.520500070496    1.822960428913
H     -5.156499817589    4.028331018796    0.283384928917
C     -4.744063328052    3.398840635411    4.259469677454
H     -5.541388647615    4.161478103700    4.241727542067
H     -5.213288004768    2.451630819216    3.942882229636
H     -4.413824921339    3.279804753042    5.301435695760
C      2.268159462929    6.842622734960   -1.948389190839
H      1.633691290408    7.523307144792   -2.534387468660
H      3.043913856329    7.429291566738   -1.435658683112
C      2.877470577743    5.762852865805   -2.827325298043
H      2.088597395678    5.127044757461   -3.256222696845
H      3.457398710959    6.222196580614   -3.643982350535
H      3.556081424636    5.122138147330   -2.244675519789
C     -1.397090361257    6.785194180173   -3.467497500679
H     -2.338338701285    7.349479497909   -3.536860826403
H     -0.790855361392    7.254969192525   -2.678059066991
H     -0.860818099246    6.852541164182   -4.425491036879
C     -0.796929164667    2.091392274189   -4.572633549288
H     -1.291358132425    2.423839398467   -5.504236689518
H      0.279828445344    2.312706922080   -4.691712940952
C     -0.977321722260    0.568015810406   -4.435331505759
H     -0.446734536059    0.242980758101   -3.523928085816
C     -0.328628665287   -0.136661204513   -5.634408178981
H      0.736593253222    0.129115389191   -5.735873378909
H     -0.392165281741   -1.231814642137   -5.532607715029
H     -0.831875867050    0.138362686494   -6.577765929685
C     -2.447165561916    0.158353392124   -4.278626604561
H     -2.544724332300   -0.939228876732   -4.261849376946
H     -2.870320239702    0.540045403090   -3.338443783295
H     -3.058540586864    0.532430008550   -5.118892645212
N      1.889542700618    1.163910477201    0.043901548228
C      1.140716491974    0.033059231576    0.099237792107
C      1.782055353120   -1.234552418273    0.173699667712
C      3.155937748234   -1.314193742893    0.138188215815
C      3.912906108275   -0.128271734490    0.026387697281
C      3.235900392550    1.078748728918   -0.008246176186
H      1.146482491662   -2.117880423803    0.241091524983
H      3.656403273401   -2.284272691359    0.187461301377
H      3.780601418521    2.022124812749   -0.061589873047
C      5.412322739823   -0.188436738938   -0.051500111053
F      5.929296689964   -0.891158406798    0.974217342302
F      5.823729582749   -0.799778468182   -1.179908815980
F      5.970100780193    1.032335268574   -0.030662239115
