41

C      2.032174057785    3.168583625114   -2.384998026787
H      2.845853950578    2.439882752811   -2.417452977453
H      2.280156947356    4.231879244233   -2.381195057933
C      0.744398960668    2.755393163863   -2.627704984703
H     -0.056480941359    3.480519135717   -2.790744300463
C      0.431762619895    1.320926825387   -2.938105619337
O      1.258802487954    0.441788347657   -3.017942294654
O     -0.880379578907    1.154290736581   -3.114941046705
Pd     0.957626385027    3.006194313687   -0.394433589523
C      0.085300062792    5.582642801473    0.366383612410
O      0.236319576787    4.830802931726   -0.711742979290
O     -0.182046943492    6.760118558037    0.324041073718
C      0.305387045741    4.843882088769    1.698748999560
H     -0.484949256474    5.172993055759    2.388061428874
N      0.316164008220    3.401310492803    1.488993815557
C     -0.355974312554    2.550643516028    2.264979588139
O     -0.591888066865    1.356272054215    1.959480891530
O     -0.031868414518    0.009707796482   -0.014119683425
H     -0.350155199238    0.682043582895    0.746143846681
C     -1.349916757443   -0.195059802193   -3.315757591038
H     -0.779695082255   -0.648269064806   -4.142087959601
H     -1.129353915245   -0.765728833968   -2.399979203492
C     -2.834084908559   -0.134899927459   -3.606401604386
H     -3.037417494479    0.452102354095   -4.515376715426
H     -3.225051672227   -1.152993835625   -3.758103798589
H     -3.381331107312    0.322860487616   -2.768365590016
C     -0.888953646675    3.025984137820    3.609314285715
H     -1.152643587073    2.139223866663    4.198311691923
H     -0.161461592925    3.638768725743    4.160806305110
H     -1.801251626078    3.628810236776    3.468098527506
H      1.263924720008    5.206010216175    2.117408232053
N      1.932763041116    1.192024182866    0.002211985669
C      1.277038330681    0.006568749513   -0.006536305150
C      2.005331959013   -1.205491633058   -0.003715147151
C      3.385487235735   -1.175710677710    0.066721347696
C      4.047518720048    0.062760446320    0.144010137300
C      3.281902170158    1.213714667237    0.103293776802
H      1.439092531623   -2.136662670892   -0.035872570465
H      3.955275665518   -2.108329608489    0.078756195790
H      5.133191019598    0.130969532650    0.222371075468
H      3.745505788705    2.202625039674    0.137440255597
