74

C     -0.540337673086    4.631057242517   -2.357441846032
H     -2.370958661336   -0.251016592465    0.529018648525
C      0.490647200851    5.016442159596   -1.388813884717
H      2.448799904432    3.696634599242   -0.516154220499
H      1.427000240947    5.358707200796   -1.836745040284
C      0.352756216912    5.229626130255   -0.014634209907
H     -0.603149840588    5.090869266772    0.503028395950
C      1.345842038226    6.016867727571    0.779034463234
O      1.234563131359    6.232842332316    1.962555276144
O      2.373331702603    6.486571736145    0.037935645062
Pd     1.072635172600    3.174684217835   -0.150833068544
C     -1.916583666189    2.702532359305    1.015443654444
O     -0.836795173940    2.278152926367    0.420603898724
O     -2.133668844525    3.865509332182    1.326481847595
C     -2.960334133300    1.614546251690    1.361948510741
H     -3.933115780243    2.121784942344    1.323815005792
N     -3.000928364929    0.532382981666    0.393236111592
C     -3.595467445493    0.677273847050   -0.830901031585
O     -4.234047637230    1.672950966306   -1.135489038063
O     -0.018426690311    0.054130727442   -0.250674967378
H     -0.453106876241    0.968711823480    0.002332118372
C     -0.170116751827    4.529812341593   -3.714941853629
C     -1.079498386743    4.170139551862   -4.712275269958
C     -2.417303921062    3.885959216967   -4.343524200301
C     -2.788720197393    3.990416768781   -2.993108770805
C     -1.878158589573    4.366701919287   -2.010169713218
H      0.866937696026    4.739268155606   -3.994792323687
H     -3.808980718966    3.741291721484   -2.694315451303
H     -2.208930229950    4.442058064106   -0.974028299482
C     -0.639834542608    4.080472462751   -6.153017112288
H     -0.789234611488    3.066669545095   -6.562095038430
H     -1.216634288349    4.765243112970   -6.797806510258
H      0.424785635529    4.332765696504   -6.264136163247
C     -3.431452874109    3.476111271501   -5.380003349486
H     -3.572141234754    4.261528028204   -6.142792753029
H     -3.113213196901    2.569385685654   -5.922612854262
H     -4.408545273400    3.269892983853   -4.921236210314
C      3.380891083861    7.233043889268    0.736477620156
H      2.902263614014    8.070957939650    1.268396038714
H      3.836812083648    6.586505962260    1.504968906432
C      4.399743258540    7.712153580532   -0.276876978634
H      3.929509857251    8.360370365574   -1.032528799498
H      5.189931217495    8.289355910376    0.228167280910
H      4.871529730790    6.863535059971   -0.796337024073
C     -3.392032743217   -0.495842894598   -1.777964576134
H     -3.673347515872   -1.448936915299   -1.302252191315
H     -4.002757421807   -0.338882062481   -2.675183402988
H     -2.329829386718   -0.565074546907   -2.064249877481
C     -2.712864973716    1.032486003761    2.767187804210
H     -3.499414389146    0.277534581894    2.948518713540
H     -1.752521640417    0.483791941537    2.747613939593
C     -2.688447524392    2.028034119244    3.942016431765
H     -1.855342108174    2.732947167222    3.775340027770
C     -2.409686020295    1.275087128222    5.249821035866
H     -1.472425242644    0.696650531493    5.194551410107
H     -2.322679432172    1.972492510264    6.098324436061
H     -3.224384117168    0.567345786928    5.483274271907
C     -3.975240894804    2.857375759644    4.039436707212
H     -3.957667929946    3.497326050963    4.936519157088
H     -4.089330895375    3.516859442466    3.167284178803
H     -4.865837516316    2.208035024424    4.111623799959
N      1.971316435048    1.218284570567    0.022320923125
C      1.285232306748    0.056238399061   -0.110780283774
C      1.957655068554   -1.190568293458   -0.111079730922
C      3.331144965905   -1.260813776530    0.054925056221
C      4.023572055201   -0.039796072464    0.224475332604
C      3.317540579015    1.144748822861    0.197701032392
H      1.345011765541   -2.085274127444   -0.233430750271
H      5.105468578707   -0.018197827888    0.368592169345
H      3.831947408746    2.097931988653    0.315474288992
C      4.066518400236   -2.573443793555    0.064575693484
H      4.608367690040   -2.710638065881    1.014903489425
H      3.384787770506   -3.424927082076   -0.069561088982
H      4.819637419951   -2.604007420881   -0.740169688185
