74

C     -0.530830110222    4.627506958484   -2.284049298635
H     -2.179306760165   -0.194329023940    0.429455737781
C      0.533192524928    5.011497170395   -1.351039339260
H      2.526722934755    3.696098023719   -0.538659524244
H      1.453471213598    5.355925706585   -1.829643643897
C      0.441943815529    5.217588820319    0.028035369551
H     -0.494785604490    5.071642288991    0.577645575928
C      1.459359387746    6.002868520029    0.792251037411
O      1.388758981229    6.209395486348    1.980563318624
O      2.458328936313    6.482070675941    0.019100848868
Pd     1.162148759673    3.164806130593   -0.144186249673
C     -1.807056532190    2.666092419280    1.062407366342
O     -0.732022573835    2.245795647142    0.454065408191
O     -1.996078643458    3.821192275482    1.417354453347
C     -2.896954997810    1.597296310502    1.330968817783
H     -3.850086741057    2.126513888129    1.195396656828
N     -2.878876649872    0.533875630169    0.342384822922
C     -3.558175620456    0.625047652333   -0.843224094834
O     -4.307863782342    1.552225830135   -1.108458034380
O      0.084581181145    0.055346003886   -0.317084693070
H     -0.349163068799    0.960432295695   -0.026155175072
C     -0.204987708518    4.505826406161   -3.651044089505
C     -1.148460211124    4.139583446193   -4.613965575759
C     -2.475946862577    3.870695713486   -4.199383701764
C     -2.804262245882    3.999597494641   -2.839809939404
C     -1.859868648444    4.382217441549   -1.891972331396
H      0.824352065048    4.702422701790   -3.966438319739
H     -3.817809706720    3.764619655854   -2.507864198796
H     -2.156122088218    4.477646740381   -0.847112039851
C     -0.755449438428    4.026305388041   -6.066462560244
H     -0.922686035456    3.007278004107   -6.455118901709
H     -1.349483796836    4.704313140199   -6.702640416702
H      0.306252264610    4.271326700538   -6.215317516998
C     -3.525367764525    3.452004023160   -5.196358525236
H     -3.693546147914    4.231531351021   -5.959716503159
H     -3.225078209473    2.541579788915   -5.742778466048
H     -4.485110730169    3.247869076023   -4.701549906254
C      3.487276666315    7.227055581998    0.687612360438
H      3.024646717498    8.059216827067    1.242212475642
H      3.971915432740    6.576465689637    1.434809214850
C      4.468464923263    7.717382692168   -0.357031963338
H      3.969902865021    8.369318118831   -1.091005321534
H      5.273685983083    8.293885274655    0.124514123332
H      4.924920245674    6.874389844539   -0.898863085958
C     -3.325788758653   -0.541326622372   -1.793337112637
H     -3.831088228526   -1.445839973292   -1.416368393742
H     -3.744360343277   -0.286469212326   -2.774598565355
H     -2.252379178836   -0.767583430471   -1.891577768242
C     -2.852954967299    1.045246285891    2.798552060481
C     -3.090777601634    2.196741996529    3.794184915790
H     -3.096096908779    1.804741571828    4.824451676823
H     -2.317921261807    2.973580682858    3.721166454093
H     -4.062175628558    2.683047938537    3.611449344629
C     -3.981175833989    0.009523460326    2.970868917921
H     -4.962972885640    0.451995744716    2.737384321092
H     -3.844571225421   -0.863721696073    2.315833844918
H     -4.011687948013   -0.349216780945    4.012477728660
C     -1.493625852376    0.384791029115    3.103786915461
H     -1.267697114230   -0.449492823424    2.418730256056
H     -0.666401667414    1.107801579160    3.034021582898
H     -1.492321436421   -0.028298275987    4.125374601850
N      2.072250579080    1.212535541581   -0.014881563453
C      1.388872115931    0.053094151247   -0.176880580787
C      2.063286066885   -1.191708556726   -0.208836247236
C      3.437274095260   -1.262501261225   -0.045077768512
C      4.127064222410   -0.044617206793    0.154815882754
C      3.418504343931    1.138831287392    0.157894100429
H      1.453166477300   -2.084803025807   -0.353295095584
H      5.208979391108   -0.024432542120    0.298946132945
H      3.930398357280    2.090324831419    0.298967539744
C      4.175721079152   -2.573236982242   -0.068146799582
H      4.715900950948   -2.733804004458    0.879470834942
H      3.496286976550   -3.422531037574   -0.225696680179
H      4.930528338513   -2.581113246135   -0.871828907255
