71

C     -0.846462713785    4.488071528366   -2.191647866263
H     -3.826543233067    2.069105291146    3.300715172661
C     -0.411566855507    4.656025203994   -0.799363256845
H      1.892622088123    3.238395719643   -1.504332918392
H     -1.204295966593    4.511436151782   -0.056474493463
C      0.775525447805    5.216084580092   -0.337992090665
H      1.532918368037    5.602993501073   -1.022071465961
C      0.864722456124    5.751728134349    1.055294326093
O     -0.039300057581    5.806593563368    1.856482224384
O      2.106773260575    6.209937305477    1.304337420007
Pd     1.115575436755    3.035003778514   -0.222706081589
C     -1.076371310516    2.338971938898    1.936866074058
O     -1.553207853376    1.265909098056    1.400071090180
O      0.041531586304    2.814773377392    1.701879233667
C     -1.979250428705    3.064980196511    2.939884954953
H     -1.807791218704    4.129746653918    2.720979006718
N     -3.382793995817    2.771927892965    2.722344830881
C     -3.988710573683    3.124585997268    1.552008228252
O     -3.416075936431    3.799730928028    0.705476249076
O      0.019429219249    0.211192416151   -0.191516611601
H     -0.871437695229    0.832011865486    0.717356287595
C     -0.029543339545    4.772827375960   -3.305023811094
C     -0.487527515147    4.633817546578   -4.614908140244
C     -1.818675091977    4.191821969151   -4.837182340959
C     -2.631496001438    3.914692648080   -3.730682225080
C     -2.164579735661    4.056297760779   -2.423901115792
H      0.998813858358    5.107546711005   -3.147683226161
H     -3.658734811770    3.578724405784   -3.897312609940
H     -2.817556988798    3.847858586951   -1.572751419846
C      0.421248480099    4.945164217465   -5.778554544924
H      0.567100346596    4.064156895549   -6.426407774859
H      0.004427836820    5.740162665088   -6.420058639386
H      1.412357327593    5.275641701755   -5.435838206836
C     -2.347811115000    4.023460257132   -6.237941629773
H     -2.306894794465    4.969603753960   -6.804448958779
H     -1.752381012158    3.291789892218   -6.810492016108
H     -3.391466119022    3.677987480339   -6.233422604064
C      2.339289077439    6.773303490984    2.605362134983
H      1.618596579571    7.590042375350    2.774547687833
H      2.136558904852    6.003030295785    3.367461386325
C      3.772446926640    7.260164043399    2.658084817397
H      3.957373134961    8.025775604403    1.888812680675
H      3.982323266364    7.703649702601    3.643898941991
H      4.478205239202    6.430989397884    2.495744214740
C     -5.401776491443    2.611638765169    1.352163724753
H     -5.895975798544    2.319684777245    2.290469120725
H     -5.993408421009    3.389691948194    0.850845462223
H     -5.366188491071    1.735718710124    0.684084754815
C     -1.533351447298    2.806190289243    4.401511639231
H     -0.449569334375    3.014040490254    4.400423773923
C     -2.204337938805    3.807655243958    5.351035539454
H     -1.841140400130    3.687572039320    6.382681575450
H     -1.994501976448    4.842989372658    5.041043741720
H     -3.299022321871    3.678357433080    5.362898725927
C     -1.726032409216    1.338240417650    4.838493943619
H     -2.803829988468    1.130013514440    4.981550328769
H     -1.397260722711    0.669938852190    4.025315110090
C     -0.979458682864    0.960381101803    6.120556848228
H     -1.325601560567    1.539630951609    6.991029284563
H     -1.121471664665   -0.105440226125    6.358681674241
H      0.103996650945    1.135024346581    6.013702030838
N      2.092192322658    1.185739354058   -0.083251687395
C      1.269679789655    0.085547666900   -0.092171583595
C      1.925083858264   -1.200724693695    0.001677750180
C      3.295522957055   -1.313233724486    0.091705609610
C      4.072601707823   -0.137942024351    0.095601930271
C      3.436579874912    1.085305290839    0.002522558313
H      3.768102044204   -2.294013363922    0.160473950562
H      4.008321143201    2.014285248795   -0.006872653455
Cl     0.918365667114   -2.618252802746   -0.001801465212
Cl     5.814184100034   -0.223706809465    0.207774380529
