71

C     -1.418321603334    4.462361137841    1.687804793985
H     -0.460522151392    4.585482084342   -4.480115100974
C     -0.333829658788    4.837775850940    0.771674139256
H     -0.654022882565    5.083252941634   -0.243528208115
H      1.498118424935    2.850698077579    1.782543743779
C      0.986662749329    5.118554418226    1.110566388582
H      1.320262834853    5.103328171020    2.148932642430
C      1.959600833282    5.826366284864    0.226453533428
O      3.114019999864    6.014927512872    0.539434800242
O      1.419122216277    6.245321240349   -0.934154835090
Pd     1.007813693717    3.040970044340    0.353518132822
C     -0.703481594961    2.611852584478   -2.062806791497
O     -1.240105639569    1.673477823580   -1.427742873765
O      0.318788426459    3.265866509310   -1.709300038857
C     -1.351548868697    2.967577426375   -3.418233722661
H     -2.429305892209    2.801929040257   -3.278102383951
N     -1.159532275571    4.361545400034   -3.782464675650
C     -1.700357072281    5.369059253996   -3.046451206418
O     -2.431494889945    5.155614710726   -2.086973528703
O     -0.164675994524    0.059376474027    0.138985779889
H     -0.583560680320    0.837067666314   -0.418811146138
C     -2.715405887793    4.336252934189    1.151753571573
C     -3.815395282320    4.000131905087    1.948046406823
C     -3.621588653691    3.780526282209    3.331870675785
C     -2.326906395440    3.908848410104    3.864418468845
C     -1.237893102573    4.241948478928    3.066244541968
H     -2.856040869139    4.509321543745    0.081628599781
H     -2.174791917933    3.739317593312    4.934080175404
H     -0.247239762093    4.324338179025    3.518249178914
C     -5.185175225322    3.872159459377    1.328615477987
H     -5.597735437344    2.857846178321    1.464862983202
H     -5.906897127859    4.569192998417    1.788036893463
H     -5.152727266250    4.080137483602    0.250030533944
C     -4.778949734685    3.412058947262    4.223849238658
H     -5.566266220252    4.185088628987    4.206629061818
H     -5.258095108112    2.473493294777    3.896453887743
H     -4.457932646485    3.280395637058    5.267238748777
C      2.310987660504    6.803402063355   -1.915155975738
H      1.690633316532    7.500877448422   -2.496630327329
H      3.100380570269    7.370467761794   -1.400976688183
C      2.894811815756    5.715306483875   -2.801406525185
H      2.091236587845    5.096460918973   -3.227673628555
H      3.480041142519    6.165996106148   -3.619194557488
H      3.562424027495    5.058621430939   -2.223838361773
C     -1.349588071495    6.782524386059   -3.476885157638
H     -2.277644587279    7.367594569327   -3.551026460793
H     -0.736266104332    7.239648793500   -2.685361578662
H     -0.807514118338    6.836518513584   -4.432542675613
C     -0.824704918057    2.074398714533   -4.557315967416
H     -1.320763858876    2.405079140004   -5.488782341569
H      0.253942727129    2.282257001832   -4.684694018375
C     -1.020610600925    0.554271656407   -4.406123100817
H     -0.485211022592    0.231156940662   -3.497010798411
C     -0.391727125016   -0.167492953725   -5.605554495216
H      0.675197037626    0.086258643563   -5.720051961121
H     -0.465568385020   -1.261090175186   -5.493679312103
H     -0.901495436752    0.104746206491   -6.546310378033
C     -2.493249529963    0.162589348289   -4.231168927681
H     -2.603350138179   -0.933727631385   -4.206457428210
H     -2.899880700682    0.555091212389   -3.288230147127
H     -3.109824098441    0.538918160754   -5.066717110177
N      1.877534932007    1.139111012762    0.028983565341
C      1.139671066027    0.004653160767    0.090229397827
C      1.784099632429   -1.257996821209    0.124511636091
C      3.162758955130   -1.328131996974    0.056038656830
C      3.910896494392   -0.142243813477   -0.052871044081
C      3.226121783338    1.060048349717   -0.056362882512
H      1.152899214632   -2.144964991002    0.189348410866
H      3.664067130773   -2.299394085824    0.076111755986
H      4.999485536322   -0.151651793531   -0.119115530887
H      3.757041533496    2.012534802957   -0.111904195770
