73

C     -0.838212600844    4.537089590071   -2.224240510172
H     -3.871980194823    2.259538605104    3.365774829880
C     -0.363106368130    4.762096668012   -0.852768092614
H      1.928428941438    3.280932538671   -1.518426461472
H     -1.131395856217    4.664816157149   -0.077431996909
C      0.852685428346    5.312309601652   -0.460536530878
H      1.592507082849    5.645882172836   -1.190123896819
C      1.021781584012    5.903018740256    0.902699382471
O      0.163277668238    5.996100583158    1.749900737200
O      2.278605320110    6.358640775218    1.059540286145
Pd     1.133679947407    3.128306675122   -0.241894871397
C     -1.058076346834    2.449890414483    1.975092826577
O     -1.496387842105    1.328937694948    1.498944115241
O      0.007687257303    2.988370685129    1.662304016130
C     -1.945597788452    3.108433465087    3.035921398244
H     -1.730576768879    4.184156241247    2.960049133451
N     -3.355213967100    2.886141858400    2.760479471239
C     -3.911717163787    3.274154543313    1.580324355000
O     -3.269496151794    3.894517973357    0.740957075812
O      0.088949470326    0.250405585724   -0.102559234259
H     -0.832499735547    0.916731046694    0.810102665646
C     -0.046632289093    4.760891504797   -3.369684348645
C     -0.538569846856    4.567499461983   -4.660321311508
C     -1.879358215897    4.131362539779   -4.829341887251
C     -2.666727180529    3.914038399163   -3.691409820736
C     -2.165968270394    4.109826093200   -2.404328470247
H      0.988440269031    5.091783581643   -3.254220944553
H     -3.701218725043    3.582526476785   -3.817455109601
H     -2.797714776629    3.945259575363   -1.528215279734
C      0.343819543298    4.815954616836   -5.858797149506
H      0.463561799296    3.905501997450   -6.470224816272
H     -0.080625831558    5.586695326964   -6.524389720446
H      1.346818944651    5.149454476514   -5.556060181209
C     -2.445616994003    3.906339441634   -6.207397927354
H     -2.409924979807    4.825818904181   -6.816478284900
H     -1.871924860370    3.143714024454   -6.761371481766
H     -3.492125742317    3.572755605090   -6.161438065273
C      2.597204522526    6.979557056815    2.316364699949
H      1.861691191632    7.775101741572    2.517577915801
H      2.490963938226    6.230745142860    3.118480983582
C      4.010351571556    7.517457281411    2.229972392519
H      4.099816203388    8.262796338429    1.424655077487
H      4.286147659847    8.000960733554    3.180045042012
H      4.730751165881    6.708743609206    2.032927923285
C     -5.357610007533    2.876354326987    1.356438538648
H     -5.875755468223    2.570197307489    2.276903931043
H     -5.889729365877    3.722645950714    0.900313127060
H     -5.385390800071    2.040645360651    0.638808373499
C     -1.614975058273    2.591920232613    4.449305585825
H     -2.345321014102    3.050348468818    5.140958750160
H     -1.801328535649    1.502772503947    4.465899018568
C     -0.194322726221    2.870465685705    4.973832312957
H      0.526137216819    2.431679265207    4.261127793254
C      0.001294485605    2.168341469663    6.324530587339
H     -0.175670546726    1.082897586055    6.249403003089
H      1.025693169576    2.315152335839    6.701780359272
H     -0.692439444798    2.568542474477    7.084264453240
C      0.109216465724    4.370890172727    5.081689418412
H      1.114610867275    4.529660954353    5.504796209989
H      0.078780445638    4.876586429435    4.105250782174
H     -0.611378170681    4.871422994043    5.752447471431
N      2.129095369547    1.293192479283   -0.032607484231
C      1.338346292568    0.150428898314   -0.027940004473
C      2.008543771461   -1.124131505758    0.052533592959
C      3.374367769884   -1.206426734581    0.141299480848
C      4.120629469842   -0.007576963478    0.148070270374
C      3.463230887404    1.210139221135    0.051049426763
H      1.374810808852   -2.011813655931    0.042975741093
H      3.899446117856   -2.159992151865    0.207795754700
H      4.039854346172    2.135418670712    0.037723196379
N      5.570627685772   -0.033402007604    0.243241717008
O      6.166793337756    1.037157083683    0.246671192440
O      6.111957248372   -1.129173324991    0.316106880440
