77

C     -0.613423823002    4.654812348526   -2.295410029309
H     -2.033794713507   -0.085403380863    0.248392738142
C      0.503743360197    5.062502001125   -1.437117039706
H      2.565316158326    3.776420502201   -0.728471014088
H      1.389960379501    5.404690734639   -1.977407550203
C      0.495042087009    5.293840551119   -0.060023708346
H     -0.401866157251    5.143689421239    0.551376505354
C      1.554567687466    6.095720606313    0.625489094183
O      1.579744358342    6.291887521710    1.817748254975
O      2.475690981462    6.600009799612   -0.223817651975
Pd     1.234980479833    3.246829841563   -0.231013083462
C     -1.679182654411    2.685144557644    1.061923942678
O     -0.615221101391    2.281785726100    0.425242218199
O     -1.843524814129    3.821346894986    1.484232288081
C     -2.782560797406    1.620047841730    1.279506069043
H     -3.732661863731    2.159801540711    1.166895388860
N     -2.775508288456    0.604800341550    0.241240894848
C     -3.572384249177    0.671938761483   -0.870633749936
O     -4.412065073629    1.543297501582   -1.037095521732
O      0.182267288648    0.307297983293   -0.823342384682
H     -0.263260867624    1.117325758222   -0.340198088497
C     -0.367892219684    4.488008320278   -3.674092803345
C     -1.367173604674    4.097097892627   -4.568957246707
C     -2.669892342144    3.851153273441   -4.070653077396
C     -2.919142927459    4.028741518063   -2.699739861349
C     -1.919309042103    4.433712106142   -1.820433939954
H      0.642488518597    4.667350931092   -4.054346110966
H     -3.914518190786    3.813908899990   -2.305155590115
H     -2.154557385433    4.566277656043   -0.764045243794
C     -1.058598094121    3.934372989732   -6.037047572219
H     -1.249366128464    2.903518372606   -6.381163185362
H     -1.687438282718    4.592813198958   -6.660121956012
H     -0.006872536868    4.170662971009   -6.254751104562
C     -3.777642058060    3.405940604790   -4.990001680765
H     -3.997971047237    4.167562266461   -5.758279363709
H     -3.507270259185    2.484910138960   -5.534031248816
H     -4.702585771903    3.208464263355   -4.430502859210
C      3.541694826787    7.363374450202    0.360710705305
H      3.110042088354    8.187543383368    0.951143502454
H      4.096261957009    6.722389888449    1.066416300627
C      4.427220078428    7.869456731411   -0.759106629846
H      3.859907522189    8.511526962321   -1.450566786237
H      5.258163656339    8.460652723159   -0.343635486033
H      4.853134627095    7.033489972980   -1.335496011828
C     -3.347746908300   -0.451885734321   -1.872742360077
H     -3.789278724176   -1.388914744210   -1.494793519435
H     -3.842027123080   -0.187909209440   -2.815723370701
H     -2.274657681386   -0.626035209216   -2.048500924567
C     -2.746387658444    0.999365698619    2.721028430205
C     -2.953164873099    2.106256349053    3.772365306703
H     -2.973162398721    1.663441396815    4.781693728563
H     -2.157911502678    2.862894372818    3.739604865459
H     -3.909325968774    2.629473397974    3.612710761477
C     -3.897412355694   -0.017279228847    2.847698346901
H     -4.870394212547    0.459488477390    2.647343319000
H     -3.784987544847   -0.855817267767    2.144373554206
H     -3.928204302025   -0.431985866169    3.868295470203
C     -1.402192842599    0.292622706739    2.985054573132
H     -1.211330936276   -0.523210680501    2.267082178733
H     -0.555344607028    0.993884258612    2.930915586230
H     -1.400118174664   -0.159752448268    3.989862742972
N      2.144166524020    1.285052026296   -0.095180074152
C      1.466138503231    0.232217260983   -0.564941216864
C      2.106105518312   -1.024978742777   -0.819533000560
C      3.426134301519   -1.182989033788   -0.513070014213
C      4.153273354385   -0.109310268658    0.080172931493
C      3.465960163312    1.127141811826    0.288356413804
C      5.510007100900   -0.235515973815    0.471056366687
C      6.174586736146    0.817120097358    1.069246784814
C      5.489015790458    2.030368296287    1.297607523335
C      4.167949234807    2.185362628946    0.916353063613
H      1.495847464361   -1.823216546340   -1.243012929850
H      3.931902498890   -2.134750076498   -0.697332606466
H      6.017984392148   -1.187497795741    0.294903582529
H      7.218587790614    0.712058506845    1.372641778924
H      6.004734781284    2.859705607907    1.788010722065
H      3.640961162139    3.120741072137    1.107995137753
