74

C     -1.466179579948    4.454822481603    1.532149918733
H     -0.249559970629    4.161050542339   -4.275002876884
C     -0.271693066068    4.904780945129    0.806418271116
H     -0.451026588022    5.241337819618   -0.217092381586
H      1.743221052167    2.991284913471    1.799768895389
C      0.983807411672    5.159246919209    1.349860681680
H      1.155799754583    5.075386979789    2.423370462387
C      2.043970160750    5.981157704997    0.693020826994
O      3.041922578485    6.341066723674    1.274216148484
O      1.767899345795    6.296908889369   -0.588040988478
Pd     1.128002593726    3.149633301708    0.417219429792
C     -0.710106126302    2.520615623169   -1.900285551264
O     -1.093576936232    1.495129617526   -1.285070299155
O      0.245584827097    3.277943817801   -1.575689782744
C     -1.516319263825    2.881747897757   -3.167396601368
H     -2.548763585921    3.017316067736   -2.811542968090
N     -1.110933732061    4.148959588394   -3.741837367808
C     -1.531599653701    5.335708395101   -3.214440638710
O     -2.406690226522    5.409897622929   -2.361409556913
O      0.178501039415    0.101202346112    0.285205328101
H     -0.350315003792    0.815995824051   -0.311736503430
C     -2.695411290978    4.460962767352    0.843754164137
C     -3.890336342916    4.072833434407    1.459127000155
C     -3.864529598067    3.656899682588    2.810757073774
C     -2.636375076607    3.649761808097    3.494759464884
C     -1.452747571488    4.039644482473    2.877287231443
H     -2.712588843605    4.783338363551   -0.201250769019
H     -2.613469164970    3.326276221893    4.539151711720
H     -0.518575330064    4.011157762647    3.442101043858
C     -5.181660727429    4.097313200549    0.679142208370
H     -5.642509503003    3.095984833237    0.628266190497
H     -5.927292112664    4.762472262682    1.147519711840
H     -5.015224984155    4.446108980755   -0.349692841188
C     -5.127956288287    3.224175723975    3.508616004206
H     -5.883982509631    4.027945596316    3.513006486405
H     -5.593936507825    2.362080235947    3.001375877641
H     -4.934251381561    2.936897558813    4.552119385110
C      2.757912141459    7.060805148454   -1.302201148109
H      2.193854387571    7.577584890608   -2.092310317945
H      3.187927027464    7.809884246907   -0.621258350691
C      3.842224707504    6.172456968600   -1.888889216020
H      3.409519114620    5.401367482429   -2.544891171669
H      4.541701177838    6.781201319114   -2.484252391794
H      4.416829243398    5.678400847291   -1.091665908404
C     -0.829688601965    6.574145823769   -3.743246294106
H     -1.557015303358    7.394596022152   -3.807447333616
H     -0.055908046771    6.867109270659   -3.015099551907
H     -0.354465435395    6.421213497847   -4.723633038892
C     -1.510055109404    1.726138640137   -4.197228477839
H     -1.825557830688    0.842020471430   -3.620662097396
C     -2.530865459695    1.967331898996   -5.314565474243
H     -2.561283463517    1.112852722438   -6.009613090221
H     -3.544813941254    2.107033971691   -4.907030098337
H     -2.280906687212    2.868366377881   -5.898029697773
C     -0.111189725580    1.438629114742   -4.760575614908
H      0.271328466504    2.276861602448   -5.369513692533
H      0.620896140764    1.237691147740   -3.962326880190
H     -0.134023499051    0.556104958922   -5.419333362707
N      2.116716861552    1.323799086447    0.014766615651
C      1.468443730291    0.134372863712    0.155130919217
C      2.212859893386   -1.075492726624    0.176198880860
C      3.579289355539   -1.049154481064   -0.002733211447
C      4.227607001492    0.189023170264   -0.208016733900
C      3.447893415549    1.340625177975   -0.179463636884
H      1.658348749433   -2.004207146870    0.314363807614
H      4.163309718687   -1.970790916733   -0.001428001171
H      3.923977127856    2.315105182032   -0.301656146468
C      5.688760284707    0.335919494169   -0.435459576568
O      6.252068473075    1.388632749064   -0.631120654579
O      6.328536034521   -0.849621045721   -0.401093338990
C      7.740068962169   -0.810141521917   -0.608839857293
H      8.231524329484   -0.196568926303    0.161303706867
H      8.087456245989   -1.848793029489   -0.547644410159
H      7.978571775639   -0.384592003290   -1.595379429099
