74

C     -0.856227451943    4.529139220205   -2.187931730855
H     -3.804398928136    2.039787808192    3.301117191752
C     -0.400561545957    4.697133118567   -0.801361062036
H      1.882491271951    3.245107712412   -1.529983412915
H     -1.180412068728    4.558411429697   -0.044147524002
C      0.801389439711    5.244876589827   -0.366229785568
H      1.549615397558    5.615958533309   -1.068806304784
C      0.938364554531    5.784597775168    1.021649149679
O      0.062357629961    5.851864867032    1.852710905362
O      2.192913599881    6.232665105695    1.224869386666
Pd     1.109667558461    3.055815856490   -0.243860819725
C     -1.041290553018    2.341202638520    1.997132049469
O     -1.471350258803    1.211239556384    1.540036135008
O      0.024037612691    2.876237661996    1.672707995707
C     -1.952911296421    3.049474250571    3.009729216231
H     -1.785453742943    4.119526342236    2.815804868380
N     -3.348856491431    2.750443208118    2.742207859741
C     -3.922657670113    3.102181009136    1.557072664125
O     -3.329873948320    3.780727307138    0.726796889224
O      0.058773867136    0.180331733656   -0.107756967505
H     -0.805485290077    0.798520348129    0.830409858614
C     -0.053846250733    4.811728803172   -3.312427022832
C     -0.528785361794    4.671832866481   -4.616321091792
C     -1.862966734849    4.231094360454   -4.821110688658
C     -2.661315769480    3.955683052601   -3.703693818388
C     -2.177443530221    4.098212154802   -2.403111963737
H      0.976603952467    5.146326075028   -3.169382321689
H     -3.690992487737    3.620501516239   -3.856751463981
H     -2.818296588318    3.889494718383   -1.543054942370
C      0.365246454412    4.981669940075   -5.791764071557
H      0.501895096258    4.100245374106   -6.441070095250
H     -0.059017343570    5.776773810675   -6.428244646936
H      1.361029173768    5.311331653364   -5.462090385878
C     -2.410685655336    4.062585629114   -6.214758979924
H     -2.377242857569    5.008631618860   -6.781936892881
H     -1.823144085142    3.330812146393   -6.795290726742
H     -3.454317184776    3.717394312970   -6.196329117507
C      2.479626803758    6.806084416767    2.510334836736
H      1.733372329571    7.587141158857    2.728063356487
H      2.364394959676    6.025660663232    3.280766238363
C      3.889464531192    7.358721726443    2.475114794503
H      3.988728345563    8.135818978256    1.701551973702
H      4.141648039195    7.806654168991    3.448930706279
H      4.620991700442    6.564304659312    2.261351856581
C     -5.328869101677    2.586822184319    1.317886386158
H     -5.837398901395    2.261491401448    2.237259579930
H     -5.917338612094    3.377652266326    0.832739638443
H     -5.276901242655    1.734592645529    0.621060710061
C     -1.572650770611    2.773727250655    4.503349713281
C     -0.100671986025    3.165352190233    4.737900791591
H      0.133085329194    3.100099951080    5.812549535762
H      0.594244830199    2.503806599562    4.200967232122
H      0.094825785987    4.194366327008    4.399665269029
C     -2.462675451908    3.658506478861    5.399203291671
H     -2.312864535336    4.725720780362    5.171395959083
H     -3.533150042613    3.437113239848    5.271770483940
H     -2.210573745354    3.499716381730    6.459857189932
C     -1.768569723371    1.289621388281    4.871699388074
H     -2.822599076110    0.970238478310    4.805415671915
H     -1.179039802200    0.624623527231    4.222681060879
H     -1.452707032623    1.115477003213    5.912514961541
N      2.104047053355    1.219360459926   -0.096824135894
C      1.316349100533    0.085623455089   -0.068529000994
C      1.988639453919   -1.185847211853   -0.010435628089
C      3.358347424588   -1.261890959512    0.028335867137
C      4.125041563531   -0.071003914061    0.009076052021
C      3.448188152760    1.134014603228   -0.060974989302
H      1.357389222027   -2.075395685011    0.000789294604
H      3.858294605283   -2.233169015450    0.072795666908
H      3.996997509521    2.076181694927   -0.094155355075
C      5.620096352170   -0.128541197329    0.062567780423
F      6.062097658432   -0.681827808827    1.212364894419
F      6.129068696052   -0.882536888460   -0.934280885370
F      6.182361790454    1.090441917733   -0.031642108550
