59

C      2.035825861210    3.095273565968   -2.369077829524
H      2.836823207513    2.354680471136   -2.432477605064
H      2.300824969862    4.154377829417   -2.358897528056
C      0.735126835120    2.704597337187   -2.577533808262
H     -0.059618707208    3.442703039851   -2.709461223223
C      0.394688695321    1.280482166496   -2.904567798716
O      1.204917889770    0.390481287956   -3.021465076636
O     -0.924356830790    1.136114505086   -3.055745560032
Pd     1.016457923491    2.929885235837   -0.350522281334
C      0.260146282115    5.520730246629    0.463888612389
O      0.299707460204    4.768443643883   -0.621245388666
O      0.076318050252    6.717084717813    0.435441519469
C      0.494795242732    4.774190497712    1.798629244746
H     -0.322970320040    5.102122651730    2.457005554032
N      0.409800866747    3.328707077384    1.557391196457
C     -0.472750286592    2.545551703941    2.177346351949
O     -0.767098848079    1.380022113475    1.800050357361
O      0.008268535093   -0.072619082423    0.024205651576
H     -0.353820473724    0.674541861461    0.730843354814
C     -1.413275317580   -0.199246409514   -3.294953367247
H     -0.883140170244   -0.618632541235   -4.164874503637
H     -1.157164969443   -0.814422192698   -2.418246762733
C     -2.908087044883   -0.116947954097   -3.517876448947
H     -3.145242795501    0.514476584587   -4.388034816095
H     -3.313221209133   -1.124199024379   -3.701626031807
H     -3.415507561554    0.303177767046   -2.636168963417
C     -1.220610334332    3.036437600087    3.408426525019
H     -1.683580107262    2.164332337071    3.885489793402
H     -0.574481905089    3.554415666868    4.127516579114
H     -2.022473519733    3.731351484284    3.108875813458
C      1.815211658293    5.269370991361    2.455654135316
H      1.701558259329    6.367814846315    2.468374585602
C      1.942806438854    4.780187666270    3.902650403459
H      2.854446781746    5.170007269502    4.379796212341
H      1.091298625513    5.114180792675    4.516774450591
H      1.988449605989    3.679322040979    3.947744890850
C      3.070162388709    4.945848080001    1.622211611412
H      3.269240244345    3.860833664255    1.679707370037
H      2.865085265440    5.167860972495    0.560897422947
C      4.324830980509    5.719283694526    2.038736926252
H      4.640624956186    5.482260273484    3.066963041994
H      5.172768291173    5.482583894838    1.376036351708
H      4.156057949228    6.807489962199    1.984411823859
N      1.967783189130    1.099063907831   -0.004500209354
C      1.308210610771   -0.066019993379    0.000432598719
C      2.029323762712   -1.318780992255   -0.021097511216
C      3.453063936072   -1.296114842118   -0.014395912593
C      4.100212609997   -0.023548027963    0.034118832473
C      3.340817471876    1.111607754990    0.038953357331
C      1.339905144182   -2.554078849825   -0.032270130818
C      2.048043550120   -3.741889990230   -0.056592521203
C      3.461940902510   -3.725930054471   -0.062191817375
C      4.153669279895   -2.528432861191   -0.037879038813
H      0.249428085092   -2.542123073206   -0.019172711529
H      1.516715877252   -4.696468436913   -0.067760916351
H      4.011925373150   -4.670406884971   -0.081281142112
H      5.246554157016   -2.518430004911   -0.035775872128
H      5.188846373128    0.045765117999    0.065643669145
H      3.801472278363    2.100723721837    0.070223422678
