39

Pd    -0.047078802669    1.920481304521    0.024087811938
C     -0.757197394916    4.660322891503    0.100680412236
O      0.287113535373    3.872907710149    0.113016857783
O     -0.709335520671    5.869268042787    0.081401429805
C     -2.146791228686    3.945092926903    0.133527771560
H     -2.727741212633    4.403114977362   -0.683582806749
N     -1.960995386276    2.513375827974   -0.126684443615
C     -2.919411616298    1.738981334127   -0.527980890605
O     -2.728092785881    0.459515462038   -0.776900843070
O     -0.166721571909   -0.153583601782   -0.105542369971
H     -1.798877972423    0.159421429806   -0.607741175975
C     -4.326735933326    2.203361069668   -0.766528803173
H     -4.716893912446    2.729193077532    0.116463395700
H     -4.354010622338    2.908887618793   -1.612587445079
H     -4.961484683298    1.340572007643   -1.000300526231
C     -2.844317191405    4.252520265343    1.454473698568
C     -3.438844560836    5.512918015503    1.627556152662
C     -4.044803068169    5.849997443062    2.839079462130
C     -4.065232671363    4.934266768502    3.896448341163
C     -3.469309946526    3.681502885975    3.733835975247
C     -2.859186441935    3.342444576906    2.521402423112
H     -3.403077685354    6.238426694848    0.812109968338
H     -4.503205824916    6.835098734559    2.958226534184
H     -4.542090872567    5.198198679035    4.843801101383
H     -3.473165008359    2.960889233524    4.555751401629
H     -2.388793330453    2.363164096631    2.410096073551
N      1.760237759240    0.916676742301    0.063847893546
C      1.138615091885   -0.279144373203   -0.072949761902
C      1.893908716920   -1.464445268721   -0.153252982047
C      3.276483407228   -1.351339477196   -0.085237193252
C      3.918565518582   -0.099765120135    0.057488182984
C      3.093818511571    1.022761504329    0.126073615623
H      1.388217986301   -2.424486619952   -0.264618041232
H      3.887437432362   -2.257542827599   -0.144357443870
H      3.499121554071    2.032836709106    0.234069030015
C      5.420037708845    0.016046956461    0.132232348135
H      5.736601853400    1.064835523091    0.230485663284
H      5.824985986173   -0.537056450628    0.996261286985
H      5.901789660994   -0.395014377365   -0.770646056995
