41

Pd    -0.066581729219    1.993750257995   -0.068565257127
C     -0.955973208901    4.668448267329   -0.086751676031
O      0.136804675234    3.952899050990   -0.185276514688
O     -0.974669788011    5.879994315197   -0.063975640679
C     -2.282250675386    3.880577369202    0.046424200774
H     -2.937887595806    4.256237173071   -0.756753629296
N     -2.026376068242    2.444834022999   -0.147149219088
C     -2.937783222953    1.572802863103   -0.436072759806
O     -2.660890831437    0.290114123525   -0.582962858490
O      0.000486998053   -0.104210723724    0.006242358599
H     -1.714803114455    0.069529232618   -0.412095092922
C     -4.395139247064    1.866849120854   -0.639593765986
H     -4.592406265170    2.926120188863   -0.836833466672
H     -4.760436596511    1.256841197472   -1.477684219802
H     -4.957551960160    1.561450007647    0.257527711545
C     -2.952103815829    4.220286119044    1.403118581226
H     -3.066697097067    5.315211930129    1.400873368959
H     -3.965008594881    3.788287291997    1.421352166231
C     -2.185555951197    3.775239889892    2.630827499463
C     -2.524563591501    2.588334460766    3.299730375984
C     -1.110552774796    4.536300284777    3.122412850496
C     -1.807367440334    2.163342481110    4.422119596627
H     -3.370072317302    1.990814418704    2.945148803446
C     -0.391895051019    4.113179937077    4.243354118003
H     -0.837551899581    5.467532289642    2.620018592922
C     -0.735685453093    2.925022400647    4.895958425966
H     -2.090709176989    1.237833986397    4.930210799903
H      0.439769183802    4.719360238779    4.611601428688
H     -0.174504075089    2.597651138890    5.774937227679
N      1.824026767271    1.141874950579   -0.038888964193
C      1.296161860176   -0.118981911888   -0.009276393981
C      2.141426901977   -1.252769277000    0.008775002446
C      3.508799267941   -1.041760138162   -0.002142810194
C      4.008569198615    0.273293415994   -0.030953583135
C      3.135897920288    1.359336746776   -0.049987673513
H      1.703688453811   -2.251109771740    0.031715727107
H      4.218752765730   -1.869686355327    0.011357082365
H      3.500877620345    2.387528005456   -0.073846194320
N      5.452099792794    0.510301232004   -0.041678528188
O      5.833040143127    1.670579692629   -0.064827323376
O      6.181641100339   -0.469580722108   -0.026626188565
