40

Pd    -0.155152124891    1.992640287039   -0.084704863066
C     -1.012352778455    4.665590946298   -0.348383756592
O      0.081230772713    3.940188449798   -0.277557050064
O     -1.014215290684    5.856352735704   -0.572761482438
C     -2.334475619879    3.916755486572   -0.067558600807
H     -3.061901582900    4.270437478894   -0.812996336300
N     -2.104142314375    2.469668286241   -0.232708750013
C     -3.029258257523    1.603776780535   -0.492657900117
O     -2.771697575507    0.311728461435   -0.596906411718
O     -0.123598361237   -0.101314162059    0.069580984354
H     -1.831064688982    0.082563665492   -0.411907818394
C     -4.481541842684    1.909235668121   -0.710846051353
H     -4.688865431758    2.980060316112   -0.801178384536
H     -4.814107408509    1.387733137473   -1.620532898173
H     -5.063880698279    1.498588580879    0.129243838608
C     -2.853245888527    4.216808501264    1.358538977775
H     -3.779019879278    3.631035328545    1.507160915606
H     -2.117598489703    3.812144549186    2.075121529791
C     -3.141941352594    5.690974567032    1.701697742293
H     -2.192841606232    6.246248896960    1.628065196446
C     -3.640955198916    5.787015127372    3.149660627445
H     -2.923400716636    5.340567390942    3.857416126015
H     -3.792154180436    6.837265056292    3.445376376914
H     -4.605064842859    5.263976339979    3.277416871790
C     -4.128668005175    6.345092332216    0.726346003286
H     -4.384041785711    7.364075452903    1.058404873482
H     -3.694510797344    6.432862139080   -0.280488403531
H     -5.073328948263    5.775071453854    0.661752239846
N      1.721477810647    1.113143851930    0.023681766242
C      1.171900897636   -0.137510834121    0.080509982569
C      1.997222207828   -1.283979766485    0.149008311418
C      3.367954717599   -1.095964662974    0.158480691291
C      3.890471773223    0.209188122342    0.099133711003
C      3.037159017642    1.308299108077    0.029907239549
H      1.542162361736   -2.273839212082    0.192826524708
H      4.063308497137   -1.934676268947    0.210750867561
H      3.420366584613    2.328934211086   -0.019618385583
N      5.338033439590    0.421986519443    0.109083995855
O      5.738808829610    1.574600626619    0.058783137967
O      6.050084917879   -0.568953228644    0.167329123986
