38

Pd    -0.098985075560    1.988662326889   -0.010310408474
C     -0.935250391665    4.688276280938   -0.115390059060
O      0.148026828654    3.950126754923   -0.106912304946
O     -0.925783151561    5.896275196876   -0.228487787616
C     -2.274167193349    3.934271729240    0.080779339945
H     -2.958846947131    4.313284315950   -0.694787056207
N     -2.046264529156    2.492451883095   -0.115664797047
C     -2.970701471631    1.640917812615   -0.423055924644
O     -2.715873720091    0.354050499320   -0.577966058089
O     -0.109109599351   -0.098709711253    0.052423046396
H     -1.770632698897    0.115204018085   -0.406971264127
C     -4.420292883087    1.960572524971   -0.647321630755
H     -4.614055835786    3.033906701178   -0.742655286558
H     -4.754608905343    1.439402566684   -1.556271052969
H     -5.012697164289    1.562498176749    0.191943890166
C     -2.900144297472    4.244277755119    1.475188330599
H     -3.744439706765    3.538858276369    1.582540361118
C     -1.930353106611    3.984301213457    2.635069117762
H     -2.447280207830    4.113490156788    3.599140077255
H     -1.519574801209    2.962970927585    2.608080490340
H     -1.084873695022    4.690368046946    2.612708826802
C     -3.474139047419    5.665514208523    1.524324543883
H     -2.683934479394    6.413002698203    1.367850217890
H     -4.235762750794    5.820148471082    0.742076981233
H     -3.951630977395    5.849641374016    2.499986387488
N      1.758279387315    1.084581407488    0.020442412178
C      1.202080158848   -0.149468851286    0.026124981068
C      1.993671525369   -1.323424750532    0.014569341988
C      3.372683620804   -1.123364947763   -0.001617523974
C      3.936202876244    0.167286258284   -0.008348357727
C      3.085827904441    1.264577415570    0.001301312115
H      4.032104475684   -1.996536538633   -0.009911806884
H      5.017561714866    0.309618234858   -0.021367361726
H      3.446205794673    2.296150650292   -0.005188342590
C      1.329877692515   -2.671033184447    0.020151299587
H      0.684266612227   -2.790435067741    0.905961120424
H      0.677625539100   -2.795385989661   -0.860289421823
H      2.072240187285   -3.482089045385    0.018721706005
