44

Pd    -0.120407840234    1.915776606313   -0.063358048933
C     -0.914329118261    4.614338859765   -0.322180671587
O      0.161654002904    3.869696568042   -0.240697454336
O     -0.896329509179    5.808159318752   -0.539736424662
C     -2.258032185889    3.890606646636   -0.064010955772
H     -2.966828462438    4.265504899107   -0.817414371131
N     -2.059728719746    2.440593443145   -0.230817235389
C     -2.995869190913    1.594253289686   -0.510596891882
O     -2.757632824270    0.298319890913   -0.618842694865
O     -0.138767941092   -0.172337053045    0.083312196156
H     -1.820195522376    0.054861181087   -0.423453075658
C     -4.439504072556    1.926264492638   -0.749863380176
H     -4.625972533945    3.001700546350   -0.833102987715
H     -4.766593847989    1.419944278218   -1.670091357961
H     -5.043350433353    1.518527307760    0.076323785948
C     -2.790574702534    4.195600597895    1.356107836485
H     -3.733262089703    3.632783256523    1.486952061291
H     -2.076616950430    3.766346896925    2.080253623682
C     -3.046530004976    5.673746372638    1.707225105459
H     -2.082473122982    6.204855841366    1.651973201236
C     -3.565262343085    5.771836513282    3.148130633331
H     -2.870862841694    5.300680727896    3.863004564586
H     -3.693778838776    6.823331652551    3.450595079187
H     -4.544545174526    5.273089783871    3.256817900741
C     -4.000504852844    6.361390711188    0.722424213957
H     -4.235615716999    7.383812885027    1.059377951229
H     -3.546545963567    6.445548271221   -0.275811518353
H     -4.957963799533    5.815879524883    0.637228329473
N      1.719609199250    1.006639878461    0.046099175442
C      1.167739309112   -0.212479843915    0.096243244699
C      1.975838162852   -1.386129534270    0.164942832156
C      3.339571034267   -1.221931508616    0.177034104587
C      3.936054932980    0.076166719453    0.119873546100
C      3.065844811986    1.210759869885    0.049561537847
C      5.337774499666    0.293089028844    0.126889715005
C      5.851539434664    1.574692082949    0.064939073659
C      4.978616577346    2.687173832914   -0.007798247945
C      3.606080909084    2.517985634317   -0.015874398639
H      1.495733651307   -2.364593223685    0.205927752838
H      3.994564685238   -2.096484523383    0.230215000097
H      6.004952741074   -0.571613094059    0.181336633984
H      6.932347648501    1.733267696456    0.070385957942
H      5.396090042642    3.695929863168   -0.059313040493
H      2.918167862550    3.364475930842   -0.075728060176
