32

Pd    -0.035715957951    1.925242424052   -0.151168424572
C     -0.812153244622    4.643243507790   -0.137522328417
O      0.254620592619    3.878675529668   -0.109964120945
O     -0.789077199327    5.851623695606   -0.117625125820
C     -2.163898770518    3.902581756342   -0.199290569217
H     -2.688804820545    4.253469201495   -1.102958747505
N     -1.980534545829    2.449726163825   -0.216504363109
C     -2.954962704680    1.601583903687   -0.267922337202
O     -2.756002899980    0.297232237278   -0.282367268760
O     -0.069119812813   -0.165786756771   -0.185007899461
H     -1.802278724422    0.043186742797   -0.250107404322
C     -4.410160404070    1.960685632825   -0.316873571458
H     -4.588561374346    3.040515845146   -0.308178241031
H     -4.852769041953    1.522396965000   -1.224887244875
H     -4.918264847166    1.497596196971    0.543321523434
H     -2.753956596776    4.224071891310    0.674659581779
N      1.809664671121    0.991360355972   -0.096085504333
C      1.229290227949   -0.242426142869   -0.137196600492
C      2.022722736641   -1.408451689704   -0.125210705074
C      3.398842403165   -1.251893096866   -0.070647097452
C      3.980857797045    0.035691563617   -0.028700152602
C      3.130833258543    1.146155464945   -0.043675214209
H      1.543470023118   -2.387482069437   -0.158463596160
H      4.052531856892   -2.125665489750   -0.059372422580
H      3.531404334219    2.162230162472   -0.012770631654
C      5.446178687710    0.275084950858    0.030406431117
O      5.960805101844    1.368995383857    0.066499364454
O      6.150189593707   -0.874479443449    0.039612392960
C      7.570463952498   -0.741902570134    0.095313183883
H      7.877934263918   -0.209058664786    1.007806464118
H      7.973114211428   -1.762253416932    0.095616038131
H      7.945409776868   -0.182987807044   -0.775399082780
