44

C      0.848360610566    2.805677601393   -2.848050432493
H     -0.068854457198    3.394872920974   -2.788020366117
Pd     1.033249712282    3.033199778153   -0.431229489519
C      0.156778560510    5.605258323528    0.327891105691
O      0.296429164038    4.857334959637   -0.750602927776
O     -0.108997631323    6.784727271655    0.301374962809
C      0.393536779154    4.851542683204    1.651682576381
H     -0.356320544789    5.200005434668    2.375206783324
N      0.345972805237    3.412043140575    1.426473300084
C     -0.447512177903    2.587286716624    2.105742537312
O     -0.720107102867    1.414453495904    1.746513784574
O      0.030331945425    0.022493034207   -0.120842149863
H     -0.344718192695    0.728522078769    0.588706574569
C      0.802999362994    1.464378765012   -3.288035248042
C      1.964252475346    0.745248247065   -3.555049760632
C      3.232242332803    1.381055080288   -3.383725508475
C      3.276380577422    2.701202562822   -2.942109031240
C      2.099387525547    3.428282259152   -2.667614918140
H     -0.169122977252    0.987589607412   -3.434566856356
H      4.245186204810    3.195867522631   -2.830337935108
H      2.146613838318    4.495031186843   -2.441884159105
C      1.885729157143   -0.680871847304   -4.037537982144
H      2.360707791909   -0.800718495460   -5.025839498245
H      2.407864635494   -1.367298224703   -3.350394046963
H      0.842663157783   -1.016951546230   -4.119877675026
C      4.504492765126    0.633137949496   -3.688502804719
H      4.607221309667   -0.260550481401   -3.050317497792
H      4.525202785862    0.278987327113   -4.732730179724
H      5.389377372637    1.265637984315   -3.528990314708
C     -1.078232629415    3.059129191797    3.409251330788
H     -1.441736901846    2.172765606813    3.943201048054
H     -0.374567935649    3.614804737552    4.045420258944
H     -1.940194592863    3.714605237003    3.202341518132
H      1.382114621878    5.166582419771    2.035944315594
N      1.988364083608    1.221281452291   -0.030011761993
C      1.331730009657    0.032997782798   -0.066713333900
C      2.066099714617   -1.179127858100   -0.040567150917
C      3.441919893205   -1.147323251524    0.101048266422
C      4.097170221679    0.091894408077    0.212063270408
C      3.330216450725    1.241999663406    0.133860593105
H      1.502225944348   -2.111239849676   -0.092592868934
H      4.010418098763   -2.080051085139    0.148067623902
H      5.176762084127    0.162421854909    0.349800259372
H      3.788333949473    2.231406589562    0.193220559201
