62

C      0.817330867544    2.840296339435   -2.822566481290
H     -0.070128548292    3.466506202701   -2.715589965559
Pd     1.121627235315    3.051415802065   -0.385729821803
C      0.025274982339    5.549940072345    0.377802970745
O      0.281535905010    4.832486401413   -0.699185986908
O     -0.459650257685    6.660312280577    0.335073262980
C      0.428730829029    4.864042457104    1.706776513563
H     -0.323596773711    5.153295574346    2.454834171138
N      0.394153789866    3.416772078411    1.465866663357
C     -0.471713470721    2.597493858553    2.055032383480
O     -0.724888885281    1.431070856066    1.649791750830
O      0.156063288822    0.092705573082   -0.167567919898
H     -0.253518790919    0.803125243171    0.554328072317
C      0.699491203193    1.513229874027   -3.285795303855
C      1.820702949746    0.747676505139   -3.593974086723
C      3.120559796338    1.319221087005   -3.438076847050
C      3.235707040542    2.626745746615   -2.974153723107
C      2.099380077361    3.401761023813   -2.658756023851
H     -0.296539355101    1.084136624757   -3.417706849570
H      4.228666350349    3.070826215302   -2.868838059992
H      2.203467022628    4.463154296255   -2.425121131013
C      1.665109017631   -0.662939709183   -4.102090500694
H      2.114759982415   -0.784735906088   -5.101952826922
H      2.168939658187   -1.386599806915   -3.439757744639
H      0.606026220358   -0.948560090653   -4.169044669577
C      4.350103293174    0.518363994703   -3.782902309477
H      4.416637766209   -0.398606399520   -3.173750533978
H      4.340437415686    0.196031841986   -4.837749485238
H      5.267029504483    1.100354413537   -3.614218568476
C     -1.227287487704    3.043070911810    3.298607531263
H     -1.668747847123    2.149901579653    3.756952713349
H     -0.583668308028    3.555038084252    4.026574983506
H     -2.043383685250    3.730564192072    3.022619270629
C      1.813848122105    5.374999849320    2.207388932863
H      2.528793585541    5.226904806378    1.374612348570
C      1.760285523329    6.875198179730    2.528359252843
H      2.763052983881    7.267060203137    2.756002336198
H      1.343573533722    7.455029731052    1.694524699596
H      1.121630445899    7.060477101070    3.409447728117
C      2.314656038386    4.544872714785    3.404329225164
H      1.629956303328    4.705559895136    4.258223388747
H      2.241590748679    3.476456776550    3.146780603834
C      3.748436321382    4.850782128240    3.843931705035
H      3.865525282359    5.883851924320    4.206784539312
H      4.059600143081    4.179485144089    4.660297995343
H      4.459691927100    4.707652213504    3.012833448358
N      2.127796894251    1.247484752604   -0.005719680082
C      1.451243364172    0.093213858655   -0.112039854544
C      2.144648998643   -1.164668494447   -0.164793480793
C      3.500114400557   -1.201793588875   -0.011870926359
C      4.228545487082    0.008173660688    0.195517256012
C      3.495742278624    1.235651374902    0.192194528007
C      5.631169779179    0.029353383207    0.399047220081
C      6.301625693058    1.221173784010    0.597456608402
C      5.576903120296    2.433405670519    0.596546412548
C      4.207455208612    2.443830965863    0.396395360299
H      1.536078436121   -2.061117259107   -0.288288612598
H      4.038523288255   -2.153752350092   -0.024920640490
H      6.173024143996   -0.920403099459    0.399798075883
H      7.382029903428    1.228778302965    0.757656317979
H      6.101478874735    3.378238290299    0.759664025102
H      3.653424763142    3.383286529173    0.400766894662
