62

C      0.881445478539    2.770764875648   -2.816344320766
H     -0.011358471593    3.395378488653   -2.748445772434
Pd     1.116911807404    3.007028720576   -0.400818483976
C      0.230181530585    5.585758018436    0.354999553057
O      0.377551597791    4.832278301996   -0.716090006587
O     -0.092279786666    6.754219110133    0.303448498041
C      0.526024318927    4.867582790035    1.696021466325
H     -0.261898921567    5.186079167748    2.392406095950
N      0.424193911633    3.423148339851    1.453507528446
C     -0.493709864537    2.656642075890    2.034302282944
O     -0.796044188033    1.495019580319    1.643302321929
O      0.069257886182    0.027696583335   -0.065625264898
H     -0.329552365959    0.799718534001    0.616640286032
C      0.779224332627    1.431750192040   -3.252253989194
C      1.908707786464    0.664931688620   -3.523632924369
C      3.202593687760    1.249108644820   -3.362341440550
C      3.302917473986    2.568266516497   -2.927917483146
C      2.158138361805    3.343300330038   -2.647028981431
H     -0.212335117368    0.994525271105   -3.392031460636
H      4.291655372098    3.023176143570   -2.822829989708
H      2.252266108365    4.408784478602   -2.429808607520
C      1.769347551081   -0.759361720020   -3.997510710739
H      2.245903688561   -0.907136167210   -4.981174733685
H      2.253575125157   -1.464847371104   -3.301859998153
H      0.712674743300   -1.048154756404   -4.085910694377
C      4.441176450233    0.447069108052   -3.667686310734
H      4.505576620269   -0.449194898744   -3.028378489985
H      4.445295020176    0.091353151850   -4.711665912990
H      5.352310064915    1.041400918767   -3.509569177719
C     -1.271663130701    3.154404653237    3.243966605579
H     -1.763862109849    2.287678079785    3.701132823788
H     -0.637685233908    3.655213480445    3.986968185333
H     -2.050547761636    3.866625852415    2.925808441585
C      1.890288382623    5.342597266302    2.328069740122
C      1.690746014838    6.768026255132    2.880473646801
H      2.635674271360    7.151160907696    3.299293587560
H      1.344824399052    7.454409881109    2.095562928570
H      0.939583989197    6.776961626501    3.687879896234
C      2.278819066403    4.403893282224    3.483954775045
H      1.505540339186    4.386102776036    4.269000687625
H      2.434519795308    3.371556396949    3.136733924440
H      3.212485545255    4.751591363626    3.955228070172
C      3.030963209202    5.365136464408    1.292750928512
H      3.192701636439    4.373226019065    0.841233954582
H      2.827510732749    6.079127245486    0.479823412088
H      3.973838196322    5.668958277097    1.775682860805
N      2.040359000272    1.181680357030   -0.000240146631
C      1.363012757819    0.023733015026   -0.030610805491
C      2.072837192112   -1.239381526281   -0.023156538948
C      3.492676700384   -1.235273760858    0.095062693577
C      4.149112213128    0.028545971050    0.205815908887
C      3.404227896653    1.173577529053    0.148509960271
C      1.370683327963   -2.465268378383   -0.107140505192
C      2.063164745377   -3.662909863160   -0.094777585272
C      3.473322080426   -3.666053025066    0.014012344121
C      4.176272181995   -2.478559622010    0.111167665741
H      0.282600084222   -2.435857530992   -0.179076492472
H      1.522201388165   -4.609759786997   -0.161918821669
H      4.011065577242   -4.617722899574    0.027359232575
H      5.265384853527   -2.484660793199    0.204036564202
H      5.231981763355    0.084480638770    0.328821855696
H      3.874174706732    2.155902294685    0.214272645748
