50

C      0.791466649458    2.745891608529   -2.882867034106
H     -0.161019796206    3.278294257583   -2.839553961461
Pd     0.960370306263    2.980848606589   -0.502065159099
C      0.028546496625    5.534366642493    0.258492790911
O      0.124428808270    4.774780415911   -0.810377156562
O     -0.287514608420    6.701510718388    0.246743095733
C      0.389088161459    4.817776483671    1.578520583431
H     -0.274611014408    5.200769916447    2.364701434737
N      0.300201406842    3.368235200558    1.400023471656
C     -0.375493528763    2.609776260098    2.217441063698
O     -0.665515468806    1.368026132110    1.990712638276
O     -0.030928536430    0.105832912085   -0.045908023108
H     -0.420314365848    0.954698118390    1.057770898448
C      0.832582236802    1.405081198828   -3.330403328098
C      2.037049985302    0.762924055788   -3.594745113911
C      3.263991011285    1.475310279726   -3.408973142551
C      3.224822699746    2.793891194317   -2.964834802712
C      2.002544779889    3.446272228934   -2.696543917002
H     -0.107482560058    0.869725503545   -3.483089002800
H      4.160992367544    3.343835805713   -2.838034670360
H      1.983102025175    4.515604066833   -2.479283221124
C      2.052328226469   -0.663508894962   -4.080684383203
H      2.573193163636   -0.756448599415   -5.048179877551
H      2.580751061707   -1.320849649738   -3.370312021108
H      1.032442634189   -1.053815112795   -4.203748889737
C      4.582435967571    0.806317564323   -3.697947111094
H      4.696470397520   -0.121368378250   -3.113464642088
H      4.664228966263    0.521639745588   -4.760762923087
H      5.427559411334    1.464247049271   -3.452686796376
C     -0.908334484629    3.112870663905    3.539867721299
H     -1.200188753950    2.246362478259    4.145245456499
H     -0.166159633194    3.712715441453    4.084042459475
H     -1.801568406874    3.738119431434    3.378402923766
H      1.420961058439    5.109937210147    1.844533237073
N      1.960475073320    1.215000544702   -0.147282576678
C      1.226177745258    0.041123799142   -0.085756543658
C      1.957149546881   -1.195993825426   -0.048151841784
C      3.330142127923   -1.204016759459    0.004580959312
C      4.042904765952    0.023117479806    0.001533193646
C      3.299642430769    1.196284752615   -0.081217967904
H      1.367560918409   -2.113698095558   -0.028593909216
H      3.883009597697   -2.143840628912    0.058698697449
H      3.819736198827    2.156149710480   -0.102072124419
C      5.516711015286    0.134845068963    0.048159260040
O      6.135583351248    1.177039133271    0.008584322774
O      6.118840560529   -1.071439984199    0.129078118062
C      7.543735058116   -1.061832966882    0.184067383381
H      7.898842711021   -0.505766006237    1.065063702213
H      7.855148920576   -2.111958360878    0.246915946329
H      7.969318343047   -0.590882064609   -0.715269809509
