59

C      0.795049694402    2.828360888400   -2.828912628958
H     -0.095273906452    3.449203276379   -2.714618366806
Pd     1.120211428989    3.042439355916   -0.396308487985
C      0.033586988985    5.541473835201    0.377826506871
O      0.269279907479    4.821017061074   -0.701787068981
O     -0.442174362429    6.655996088126    0.342836484808
C      0.453502027638    4.855217472373    1.700890609449
H     -0.286396069256    5.145711899174    2.461043808051
N      0.418675947430    3.407588540329    1.464313522687
C     -0.430657853139    2.585369166950    2.072207740796
O     -0.684652978656    1.416018670385    1.675365866061
O      0.165410575372    0.085348748538   -0.162204346943
H     -0.233906410169    0.792390840206    0.570139970388
C      0.681225320487    1.500323665784   -3.290567220388
C      1.804267553366    0.741623465565   -3.608732533754
C      3.101949214345    1.321226050117   -3.464731180096
C      3.213252336570    2.629568938771   -3.002255218802
C      2.075057449895    3.397797618548   -2.677150752503
H     -0.313303582262    1.065072835452   -3.413284222689
H      4.204379372915    3.079762860891   -2.905983013255
H      2.174688647915    4.459906835851   -2.444903542757
C      1.652847428960   -0.669980926493   -4.115371391643
H      2.094029217245   -0.788981720721   -5.119341118111
H      2.167270946715   -1.390444218742   -3.457709213340
H      0.594993638197   -0.962214744499   -4.172616941669
C      4.333235742895    0.527927257695   -3.820557278428
H      4.410932371647   -0.388541721541   -3.212016250749
H      4.316050338679    0.205470576877   -4.875270187558
H      5.248016415719    1.115588954103   -3.660160863602
C     -1.166181028072    3.030777131802    3.327843499401
H     -1.592660021238    2.136481250962    3.798000229050
H     -0.513036552703    3.550349545069    4.041740158440
H     -1.992224534152    3.711196870054    3.064098618509
C      1.846210127226    5.362821258193    2.175984487151
H      2.543708159616    5.217913737508    1.329100833846
C      1.814292607742    6.859346369886    2.512923225379
H      2.823954599981    7.214563949742    2.775182561202
H      1.433328276251    7.462275733189    1.678023145950
H      1.160249612840    7.048721755503    3.381457237794
C      2.371006521766    4.546683572549    3.362398635277
H      1.724570096052    4.675754879344    4.247604271405
H      2.422968523534    3.472974130285    3.130353710080
H      3.381244318048    4.883538301505    3.645708639758
N      2.136569794204    1.243211021167   -0.023517575608
C      1.461190584892    0.087576858466   -0.122759173164
C      2.156749799950   -1.168637525727   -0.184634950643
C      3.513840889050   -1.202741740267   -0.045647004828
C      4.241523033683    0.008453773900    0.157356915212
C      3.506116717741    1.234427421759    0.162961414279
C      5.645662068567    0.032240136587    0.349521224216
C      6.314850113556    1.225037437663    0.546526957468
C      5.587348452367    2.435522625198    0.556014091899
C      4.216546491141    2.443618593699    0.365798075198
H      1.549049250291   -2.066373672020   -0.302983891717
H      4.054310151065   -2.153417054358   -0.065668301956
H      6.189704963221   -0.916244657700    0.343144568241
H      7.396456064687    1.234547862921    0.698417730223
H      6.110982330023    3.380776368744    0.719578803518
H      3.660396085989    3.381710647583    0.378237822010
