56

C      0.870148673419    2.823352825420   -2.838601974611
H     -0.040607425654    3.422080221997   -2.775296135197
Pd     1.060401961905    3.041049473661   -0.418386879226
C      0.150229997659    5.598582803356    0.354452322262
O      0.323033269669    4.865747081772   -0.727502904253
O     -0.195822259331    6.761130384334    0.323870066598
C      0.453668603993    4.870450209989    1.682923816719
H     -0.328466159431    5.181962369882    2.388026855982
N      0.377367044622    3.425554055997    1.438155601062
C     -0.433594055250    2.608304014149    2.106032534541
O     -0.720163221534    1.441628264123    1.736680754227
O      0.031916770253    0.039903752968   -0.122831795926
H     -0.340175707879    0.750963325805    0.583355270339
C      0.809517742640    1.483812404982   -3.281662696665
C      1.962466536114    0.752183426943   -3.551156191513
C      3.237510127053    1.373191347869   -3.379233018624
C      3.296708744991    2.691958165353   -2.934966253761
C      2.128162285386    3.431392293095   -2.657936313468
H     -0.168021575052    1.018347619974   -3.428482458388
H      4.271120834235    3.175370784458   -2.822636370586
H      2.188644838162    4.497033499816   -2.429984554448
C      1.867455597554   -0.671865839533   -4.036824963122
H      2.339838684284   -0.794679039876   -5.026014668250
H      2.382755921142   -1.365664251967   -3.351924266922
H      0.820596917897   -0.996107498282   -4.118594276931
C      4.501130249541    0.611576781394   -3.686038228159
H      4.594129947987   -0.284241730404   -3.049383223558
H      4.517314456596    0.258981489726   -4.730851796829
H      5.393167369564    1.233773338009   -3.525909474446
C     -1.073269548955    3.078174228336    3.406057128446
H     -1.424259045688    2.188819525379    3.943666869537
H     -0.383618018381    3.649327247820    4.043040399678
H     -1.946275198179    3.715799975169    3.190449935260
C      1.830000067571    5.268617546997    2.260121834126
H      1.968385749307    4.692483104997    3.193820015320
H      2.607758077092    4.907161390306    1.563399517609
C      2.065854831083    6.763468156330    2.547662323139
H      2.008568035277    7.304467182860    1.588085139484
C      3.474636290720    6.962233319872    3.122592240775
H      4.248806372510    6.552831394840    2.452352074399
H      3.695317147381    8.031162941463    3.274018791403
H      3.581795694017    6.459081796842    4.099690863295
C      0.998200772963    7.366821015932    3.469553718878
H      1.252950598739    8.406342728804    3.732658056959
H      0.016003757191    7.387466310080    2.975216507792
H      0.911800465419    6.799179426359    4.413549151143
N      2.000624767570    1.220809075876   -0.023399096592
C      1.333191849843    0.038689735639   -0.066447859196
C      2.056471214993   -1.180213864148   -0.045036180181
C      3.432323628494   -1.161550860069    0.098415427872
C      4.098700768975    0.071099505974    0.216184279119
C      3.342302513561    1.228483894714    0.142722405254
H      1.484209045693   -2.106900851028   -0.102104285397
H      3.992240024804   -2.099640523714    0.141688028940
H      5.178656646885    0.131164346339    0.355822230093
H      3.808899872411    2.213442746000    0.208272351826
