57

C      0.939318593605    2.960410366994   -2.826848866203
H      0.121652423640    3.680660425665   -2.766888609778
Pd     1.158523273201    3.100699383491   -0.398937463766
C      0.128882182951    5.605739081201    0.406448366735
O      0.390992330756    4.917324858662   -0.688816706663
O     -0.307128061019    6.736835707864    0.392369515260
C      0.460691197041    4.855607328012    1.720872265786
H     -0.298566506403    5.151679473569    2.459938413062
N      0.381745208444    3.421080209673    1.430338376423
C     -0.536865982449    2.601268292456    1.941854599381
O     -0.793119219385    1.461214048858    1.480250359035
O      0.228239921200    0.046297770992   -0.253131250557
H     -0.236187042468    0.753974676967    0.389520654592
C      0.694367747213    1.639561855431   -3.256739335732
C      1.734044567827    0.744302816192   -3.493888164574
C      3.081816807896    1.180787161462   -3.315028994345
C      3.323289017218    2.485642120879   -2.890179014322
C      2.268534170021    3.385594159457   -2.630151360189
H     -0.337411427416    1.315575493996   -3.411702833510
H      4.355487132102    2.825474989608   -2.769666119898
H      2.478952255246    4.434433795363   -2.410494533099
C      1.431659197101   -0.670719873967   -3.916940726633
H      2.012966456879   -0.971796747230   -4.803157478499
H      1.674472152831   -1.383492562142   -3.110075263055
H      0.364579132972   -0.795044558988   -4.148358284225
C      4.229421088985    0.242007359985   -3.587647761247
H      4.172489586903   -0.655909177998   -2.950142504189
H      4.224581241752   -0.110411051205   -4.632888275897
H      5.197330905877    0.727975905668   -3.399677992457
C     -1.341574382778    3.031807527251    3.161287022909
H     -1.843953532775    2.141884229537    3.559246906213
H     -0.717262421897    3.486588387104    3.942629145790
H     -2.111011936847    3.765866275031    2.871581586300
C      1.853991047981    5.276561880197    2.272776279457
H      2.585078427177    5.087037871718    1.463279214051
C      1.900473362665    6.769884676587    2.620923396954
H      2.913643293049    7.055504782812    2.947163283725
H      1.612539576779    7.402517380386    1.770856683831
H      1.208325317228    6.998703256612    3.449519703890
C      2.259195931920    4.422541861785    3.479598295851
H      1.574991029024    4.589384740421    4.329543027614
H      2.251017004692    3.348808343969    3.241125478272
H      3.272580047951    4.690204910750    3.820244726212
N      2.131746380947    1.304483831679    0.026577732059
C      1.518298604762    0.114340802253   -0.102170119158
C      2.296736137619   -1.094548663783   -0.071545626267
C      3.654252155161   -1.015840575534    0.201952250702
C      4.244477939625    0.247616903406    0.410843017083
C      3.459772176914    1.375022329415    0.305156330907
H      4.263251005038   -1.917760075325    0.271726058131
H      5.306327669587    0.337546907577    0.643580696936
H      3.871886532290    2.377094946720    0.432370598396
O      1.598074119584   -2.225461797541   -0.298581978821
C      2.258605943257   -3.467824474336   -0.190291077494
H      2.676840870443   -3.618848653412    0.821130839363
H      1.503271260335   -4.240168109008   -0.384696829866
H      3.072574466059   -3.566862286558   -0.931527077326
