53

C      0.797641969922    2.756233397352   -2.863335233932
H     -0.153968564007    3.289877155261   -2.816904747539
Pd     0.965147965542    2.980003943429   -0.479042512633
C      0.065924087459    5.536868394530    0.289163708514
O      0.128991262618    4.772736482748   -0.778132572499
O     -0.200517234021    6.717835439876    0.270465741390
C      0.396289661585    4.825755282033    1.625636495235
H     -0.369719524353    5.165236057133    2.337412993236
N      0.306049326723    3.370606802089    1.421184818100
C     -0.371694397958    2.604354946852    2.229781919818
O     -0.660430140872    1.363624497085    1.993745170340
O     -0.028640436604    0.103778035970   -0.045190851780
H     -0.415282383239    0.954578862990    1.059163040433
C      0.835960784756    1.417341559251   -3.316608780188
C      2.039018238647    0.773937967654   -3.584681412314
C      3.267220042857    1.483252563936   -3.396962475372
C      3.230755334229    2.800225591111   -2.947418426657
C      2.010059243844    3.453616251204   -2.675538944279
H     -0.105219785940    0.884334731444   -3.470691635571
H      4.168096925672    3.347837757420   -2.819032070958
H      1.993096095868    4.521801127588   -2.452391200268
C      2.051181257759   -0.650428989745   -4.076863477964
H      2.570279957441   -0.740020805439   -5.045646096448
H      2.579563679194   -1.311798342224   -3.370231030586
H      1.030427621424   -1.038463926246   -4.200001145859
C      4.584275628208    0.813136743224   -3.689743063432
H      4.697714100823   -0.116513226308   -3.108238691685
H      4.664275750870    0.531612075574   -4.753541340298
H      5.430756311248    1.469068763323   -3.443664827865
C     -0.918120995218    3.093916024754    3.552163561644
H     -1.155612463388    2.219201611282    4.169825450070
H     -0.211143813012    3.742941983321    4.085022923113
H     -1.849451413778    3.660520952538    3.388674014024
C      1.771858859613    5.267561278457    2.136400781620
H      1.993654677619    4.822422010472    3.118988399737
H      2.566891816152    4.965588291495    1.436012510063
H      1.788033073372    6.363182391141    2.229602478887
N      1.964220008291    1.211024511486   -0.133474507078
C      1.228384904414    0.037472147253   -0.083947958641
C      1.957478878049   -1.201040803205   -0.057113409993
C      3.330418895921   -1.211440661747   -0.003380158505
C      4.044922293162    0.014666830384    0.005558065867
C      3.303185911542    1.189601635721   -0.066690779120
H      1.366612759614   -2.118070706505   -0.046626361770
H      3.881937846034   -2.152500445087    0.042387548448
H      3.824532296570    2.148896673116   -0.078628751461
C      5.518715025774    0.123870786309    0.054244606344
O      6.139228423990    1.165527311039    0.026841202723
O      6.119257719789   -1.084173862759    0.121779597254
C      7.544047547398   -1.077055631941    0.177789167632
H      7.899368184514   -0.531689976153    1.065388011833
H      7.854093226975   -2.128250577126    0.228675205301
H      7.970889700196   -0.596296074929   -0.715750969686
