60

C      0.781889914232    2.768896418071   -2.813705802982
H     -0.123837277449    3.353661772563   -2.643501031181
Pd     1.181473571899    2.958235280992   -0.385498042356
C      0.241968581601    5.479930892104    0.449925206619
O      0.341521875932    4.747519989754   -0.640038962721
O     -0.004253244224    6.665935505329    0.444560985076
C      0.493378043908    4.717500340386    1.774256571966
H     -0.351967020382    4.975012595839    2.429049927477
N      0.520898717267    3.279866782791    1.502176927071
C     -0.299156884353    2.410777845987    2.100675216152
O     -0.512339082588    1.248658297589    1.677380962326
O      0.267316699404   -0.012343976289   -0.277579400153
H     -0.102961502399    0.636217473521    0.478544228276
C      0.691907479215    1.443349510791   -3.288260831939
C      1.821755062701    0.731645230790   -3.681651143422
C      3.102112188502    1.360332095778   -3.607222942310
C      3.189422620901    2.668033858344   -3.136229330211
C      2.045136735360    3.386581334746   -2.730984400695
H     -0.290587214574    0.970990060228   -3.357572694854
H      4.165843845195    3.159410041623   -3.105929897904
H      2.116003389347    4.447151857930   -2.482037150746
C      1.694057761675   -0.677911437218   -4.200438728416
H      2.070804532348   -0.764145560009   -5.233642812348
H      2.279393164566   -1.385372367513   -3.590096271750
H      0.647309901199   -1.012396986983   -4.192023365157
C      4.339279498267    0.620500781192   -4.047248408111
H      4.496289696534   -0.291024095433   -3.446490317386
H      4.264782027639    0.296279368995   -5.098736688039
H      5.237099675046    1.247386139786   -3.949950801352
C     -1.040605021149    2.811993452554    3.367901282840
H     -1.388768213578    1.891256389410    3.851821554317
H     -0.421795107770    3.390261346058    4.065801455638
H     -1.925277902881    3.416422281055    3.106610923286
C      1.782471500162    5.266561824410    2.436007890673
H      2.642810244207    4.976058656838    1.810357417160
H      1.705648588355    6.363259129622    2.391482934056
C      1.997763049175    4.824847399940    3.865247135718
C      1.580955829621    5.640129860640    4.931289484720
C      2.586715914319    3.586283923292    4.171000480173
C      1.742983657795    5.232056555034    6.258321413743
H      1.126678432374    6.611777957692    4.715574825730
C      2.750915087758    3.173956138341    5.496630419693
H      2.913360329526    2.931994059595    3.359378084877
C      2.328499831277    3.995354225332    6.546113107037
H      1.414572791382    5.885368754396    7.071080604532
H      3.211907334415    2.205966892083    5.710503350121
H      2.458349501383    3.675101627831    7.583069233135
N      2.234781996132    1.163193970612   -0.091461656555
C      1.571605609549   -0.013425614942   -0.241216450270
C      2.284266840780   -1.229905753640   -0.358276189067
C      3.661237586722   -1.218833463881   -0.241528585773
C      4.323842642418   -0.004779693618   -0.004919049444
C      3.587428294415    1.174729652182    0.067548063446
H      1.707615929974   -2.144878981734   -0.496456266236
H      4.228259355041   -2.151308466707   -0.307127713772
H      5.406244267410    0.029442273206    0.124157824457
C      4.265036051257    2.488523062698    0.342405715195
H      4.059011502399    3.223406933787   -0.449642884360
H      3.897053689676    2.921375453510    1.285291813394
H      5.352573651943    2.356265665365    0.423563364734
