47

C      0.814643361762    2.702715449241   -2.847098334029
H     -0.151957224979    3.210014387312   -2.810231177084
Pd     0.972837553091    2.981105828354   -0.467529038072
C      0.134158400484    5.558891124353    0.292921176314
O      0.188636756144    4.792978900064   -0.774449933970
O     -0.094037109227    6.747422183149    0.269322185853
C      0.421322559394    4.838344306148    1.634301656041
H     -0.352463700941    5.192480329044    2.330553364580
N      0.304241279279    3.386170370468    1.424501430327
C     -0.402447770672    2.630836563330    2.219575141377
O     -0.720849751856    1.400443619235    1.970561991898
O     -0.132924690685    0.168692933460   -0.100241896043
H     -0.492723618124    0.995269276255    1.028934091447
C      0.888447142433    1.354622514092   -3.267613157586
C      2.108158516640    0.737253209256   -3.523092321416
C      3.316796059793    1.487227372864   -3.366513298196
C      3.244575911202    2.812566085341   -2.946293412591
C      2.008014464454    3.437133068912   -2.679557976349
H     -0.037948532906    0.791048228795   -3.400054682995
H      4.165514093957    3.393223229837   -2.845405539235
H      1.961969848163    4.508674747795   -2.478415481498
C      2.157750279000   -0.700178988943   -3.973642635211
H      2.612410062737   -0.794505086477   -4.974296602958
H      2.766731142898   -1.313827611975   -3.289808305605
H      1.152202037716   -1.141289632427   -4.012592563214
C      4.651255942451    0.851113863212   -3.656894046675
H      4.861380220345    0.022876724240   -2.959658253606
H      4.685455928533    0.428072145099   -4.674201298918
H      5.469666994733    1.578784603932   -3.562849833043
C     -0.949643314206    3.124580323798    3.539845203712
H     -1.200324980349    2.251355791690    4.154540423321
H     -0.239543683528    3.765612509713    4.077940293417
H     -1.874800305467    3.699969306850    3.371351499040
C      1.794427239891    5.251275796043    2.174688930907
H      1.986576569267    4.800694161405    3.161013586282
H      2.597353405200    4.934147614636    1.490017867880
H      1.831003802497    6.346234243665    2.269662039053
N      1.912421694602    1.176799684863   -0.107654840640
C      1.120747400932    0.053237722016   -0.104901449875
C      1.811838520293   -1.216351651651   -0.094018305517
C      3.185402663681   -1.289346475022   -0.005383939024
C      3.926527458029   -0.091817044593    0.054586896807
C      3.257687656194    1.115444979340   -0.007087570670
H      3.687868015972   -2.257288458120    0.024746687307
H      3.801528260019    2.060942530436    0.012559780217
Cl     0.846623903189   -2.656961398223   -0.178805570563
Cl     5.670372388845   -0.131668528678    0.164399331582
