41

C      2.394493420847    2.316582903330    0.305899805921
H      3.181572674728    1.578867635631    0.444820526308
H      2.496476084898    3.034540210725   -0.501628086952
C      1.430400909019    2.568808098381    1.280654472766
H      0.823527632423    3.463207357336    1.171556971665
C      1.431154948106    1.887910443891    2.602988636943
O      1.897986037133    0.743831822791    2.850422767390
O      0.875578289227    2.665235985719    3.567189502834
C      0.824553472599    2.126192884239    4.946100301231
H      0.362631637555    2.919578830027    5.532907670675
H      0.221499822032    1.213740770035    4.962162924246
H      1.837190505251    1.906341485423    5.295816572545
Pd     0.568187245184    1.159647266630   -0.376608301494
C     -1.242894065332    0.462637389146   -2.511620486106
O     -0.591784113446   -0.072980584830   -1.448409171059
O     -2.020632197906   -0.201321528000   -3.220233867536
C     -0.874353522074    1.921266775716   -2.810233440237
H     -1.805800729165    2.442662405432   -3.058272682112
C      0.057279104303    1.933534610250   -4.052385486721
H      0.335245270862    2.957415445577   -4.325776740196
H      0.977153507140    1.373953870997   -3.843113868079
H     -0.452432904480    1.466100792929   -4.902621433592
N     -0.242193080410    2.536794792283   -1.611677711912
C     -0.246111123934    3.894603429167   -1.422810275181
O      0.385229948788    4.473987133426   -0.483174586265
C     -1.083850623211    4.762279418219   -2.374220773516
H     -0.887822018939    5.803909393888   -2.112866132494
H     -0.835671626795    4.603815893933   -3.428612916527
H     -2.154614487891    4.559569343597   -2.241150041113
N      2.852650805021   -2.278201946532    0.902550171112
C      3.310627522506   -3.504070636480    0.536930707856
C      2.693787164414   -4.267340582962   -0.467919177191
C      1.551607138434   -3.738198219783   -1.107873013505
C      1.058662066878   -2.477602338038   -0.732580576324
C      1.765534229505   -1.803181569082    0.278126066360
H      4.187701175671   -3.863342162411    1.067532338811
H      3.091055250962   -5.241145082171   -0.736036542534
H      1.043253555952   -4.302041928015   -1.885122340654
H      0.183958385038   -2.021416691403   -1.180905654011
O      1.333895917433   -0.542128801599    0.729338107106
H      1.753216764136   -0.276786639242    1.614300748857
