41

C     -2.146891558096   -1.997132771097    1.594596723830
C     -2.023811033068   -1.788468298619    2.999400020221
C     -1.063126556140   -2.525811326357    3.747761961441
C     -0.231065179771   -3.444067609542    3.097405347037
C     -0.348340133709   -3.654786702030    1.694137418198
C     -1.298555831989   -2.947862290357    0.951341662742
H     -2.943891927892   -1.520104031432    1.032112590594
H     -2.726315305010   -1.138574307855    3.512426997265
H     -0.984051411309   -2.373007787403    4.820313367397
H      0.506083495829   -4.005866988408    3.665370475087
H      0.301931297911   -4.373190375946    1.202262953538
H     -1.390162076464   -3.096014031203   -0.119627472257
Pd    -0.715781314760   -0.065812084070    1.777424402811
C      1.663904495928    1.476948589072    0.965437221200
O      0.566815443568    1.481715171169    1.780820702699
O      2.545755700955    2.340306642293    1.105037632755
C      1.725593989792    0.354164101797   -0.104255477178
H      1.180655433576   -0.528022482122    0.306504972994
C      3.179188102087   -0.048642523423   -0.397162977335
H      3.201391666442   -0.819316454028   -1.176219623464
H      3.734092138886    0.825089228849   -0.749288094247
H      3.670402166494   -0.434602240572    0.505032590215
N      1.096228573197    0.862611067970   -1.339764271796
C     -0.136561130677    0.612911128109   -1.632977257156
O     -0.935056962967   -0.233065940903   -0.868884555088
C     -0.785393033360    1.187188778654   -2.868753199982
H     -1.682127639721    1.760246850365   -2.597020085200
H     -0.080445252557    1.839269298890   -3.387832461445
H     -1.103990372413    0.378921994815   -3.539675304956
N     -2.193828866446    1.300768203803    2.013380067324
C     -2.131140022770    2.177632004928    3.061374180547
C     -3.120240045452    3.129833021745    3.267792734994
C     -4.197456042156    3.189480532214    2.340431368680
C     -4.232857876467    2.330622240522    1.250546193000
C     -3.188999674780    1.363627607119    1.032342351935
H     -1.259139255277    2.098923707021    3.700535332083
H     -3.049260346608    3.810185753336    4.108656414304
H     -4.987869288798    3.924133857890    2.474319237195
H     -5.019812491770    2.369622201443    0.505102201432
O     -3.157470063391    0.587111252317   -0.010081370820
H     -1.900820005232    0.090402429203   -0.658361958078
