25

C      0.737682252791   -0.412910927588   -2.331007551126
H      0.520351990530   -0.698765899901   -3.357919221783
H      0.525335603898    0.618043928279   -2.056671599427
C      1.638007794902   -1.182414044433   -1.563553824775
H      2.125577389084   -0.774265113722   -0.682026660768
C      2.268734639560   -2.398932365958   -2.130538644891
O      2.023992692900   -2.931752524735   -3.232517815524
O      3.226541887130   -2.906549525318   -1.259592866408
C      3.921070418335   -4.130987636231   -1.687472415846
H      4.627122495459   -4.350492628507   -0.884932963222
H      3.204020115778   -4.948881889154   -1.814640386956
H      4.442522280648   -3.961325436436   -2.635115474636
Pd    -0.406227928561   -1.681432258023   -1.007378145603
N     -2.362880499879   -2.362265804540   -0.450402049426
C     -3.023743407642   -1.947585294693    0.672821847455
C     -4.291424994235   -2.426779888529    1.009994866375
C     -4.907429940806   -3.369848027142    0.152980367337
C     -4.242496086838   -3.799157873416   -0.999662236583
C     -2.962369692029   -3.269845629410   -1.267390561534
H     -2.505394333639   -1.220341727162    1.287255631488
H     -4.783355823071   -2.074606376142    1.910047399166
H     -5.894024144282   -3.760665168279    0.386058647645
H     -4.669621535722   -4.517712090932   -1.689089804687
O     -2.294307244629   -3.675879212892   -2.385357264671
H     -1.405417382432   -3.214223808711   -2.442497531797
