26

C      0.032440979174   -1.603442917706    1.888167289860
C      1.012563655086   -1.013606704973    1.032909315533
C      2.018114412748   -0.175151327170    1.603912608988
C      2.058303225467    0.023667255036    3.009208688399
C      1.104908967283   -0.586155844218    3.838778249646
C      0.082086708415   -1.386286221421    3.275295932557
H     -0.735194273539   -2.242012505744    1.459999435514
H      1.077704345673   -1.321580408116   -0.008163528937
H      2.815424320407    0.216982805069    0.978695968671
H      2.841555640180    0.642921030895    3.439512019501
H      1.144881020242   -0.437308744880    4.914823619903
H     -0.665256561814   -1.843318054499    3.918978791794
Pd    -0.006759075758    0.994713157989    0.723238713330
C      0.044274242295    2.970286582492   -0.249000969096
H      0.412352605606    2.879454225298   -1.279796642248
C      0.786454518130    3.956003950220    0.633382940090
H      0.661232816239    4.976247481021    0.234196550567
H      0.390574378893    3.936203516605    1.653110882235
H      1.860837666735    3.739622045795    0.657296817402
N     -1.222110050528    2.587013451260    0.044713578099
C     -2.263573824164    2.262456714772   -0.834607421051
O     -2.912261253958    1.192391211700   -0.745262082689
C     -2.639467389704    3.361930737854   -1.826641679169
H     -2.926476164829    4.275255691520   -1.291502046388
H     -1.787313261720    3.610213119257   -2.474198930745
H     -3.475851356690    3.020583436877   -2.440718647351
