41

C     -4.152958867356   -0.642300639599   -2.347437670854
C     -2.964067779491   -1.270968634811   -1.897899823217
C     -3.039454199320   -2.332767020911   -0.956300524303
C     -4.305669284830   -2.758834102850   -0.475851988156
C     -5.475689412495   -2.128202590164   -0.923902332414
C     -5.398635798165   -1.068937600599   -1.863219637533
H     -4.092502115009    0.158663108566   -3.079149943351
H     -2.001946453554   -1.010325038195   -2.329004563506
H     -2.137703002637   -2.882416675838   -0.700842337471
H     -4.363107300425   -3.590430073071    0.222072198350
H     -6.446300741509   -2.462254363139   -0.565577915956
H     -6.311136001743   -0.596235199357   -2.218345539980
C     -3.860984110515    0.762096645670    1.072343475750
H     -3.511199087136    1.769585871455    1.280951433172
H     -4.519629464244    0.613519247318    0.221052084892
C     -3.605180293031   -0.287907662877    1.941267841764
H     -4.062934312177   -1.262730343740    1.800779633051
C     -2.981694101084   -0.087190263682    3.285859154628
O     -2.696394839473    0.991908548106    3.824479124485
O     -2.804939748651   -1.315188221393    3.902540114856
C     -2.235634743311   -1.297490795816    5.262316643094
H     -2.210325372134   -2.343026975022    5.571484869314
H     -1.229260812296   -0.868286114874    5.240872026374
H     -2.869625510583   -0.703084972919    5.927776879816
Pd    -1.954101942866   -0.357146134188    0.332997319120
C      0.863441538510   -0.855419800981    0.092759906747
O     -0.298736448304   -1.033267002709   -0.595578280150
O      1.938085281812   -1.364288815495   -0.268060684955
C      0.720937642422   -0.006755792441    1.379470050692
H      1.554884571233    0.703588358135    1.378266781592
C      0.850186980720   -0.914935335842    2.623872343899
H      0.818487793804   -0.307577444893    3.536374494409
H      0.026962370872   -1.639174835648    2.660904367755
H      1.799660192650   -1.461667550779    2.591130640355
N     -0.571725718791    0.719291618045    1.330203546040
C     -0.679953837544    2.090078261256    1.388843665189
O     -1.691972273738    2.725623960991    0.969670699444
C      0.482282671249    2.863977515725    2.023576449622
H      0.085249465667    3.829022550697    2.346616970390
H      0.920678652153    2.345194321149    2.881989383625
H      1.270494480038    3.047440764934    1.280981469860
