16

C      1.658769174455   -0.363483493817   -2.014209411295
H      2.242663991543   -1.266588656084   -2.177040691940
H      1.105798724109    0.032130011394   -2.862743423612
C      1.913141004931    0.439245799828   -0.889221032618
H      1.550204311677    1.463869543641   -0.832853678050
C      2.997799285960    0.094006556742    0.073972942113
O      3.744173299733   -0.899860778251    0.024539472354
O      3.090105039834    1.061520566068    1.060123241513
C      4.122983296074    0.858585719410    2.092680901339
H      4.030588713379    1.719299970927    2.756065716196
H      3.938238830817   -0.076589127582    2.630820974313
H      5.114587620214    0.820217653884    1.630905854779
Pd     0.159044211762   -0.793843340033   -0.467006678078
C     -0.145063996952   -2.997569056093   -0.443381059461
O      0.647965562854   -3.849795404277   -0.758884911183
O     -1.242307319942   -2.551726156825   -0.054333355027
