29

Pd    -0.643646274443   -0.148897534033   -0.472150537110
C     -1.835845576260   -1.116137826708    2.866032021595
O     -0.473040757983   -1.202525686986    2.778490422643
O     -2.383629136829   -0.852128931888    3.944609458593
C     -2.677065278858   -1.415865470330    1.594149995033
H     -3.718602496428   -1.277683651059    1.907529494962
C     -2.468862178644   -2.879449730075    1.137896640174
H     -3.158702093666   -3.115787085615    0.319799282050
H     -1.446010096951   -3.040518376036    0.779604175648
H     -2.661347965783   -3.567685272765    1.969474122265
N     -2.355432884452   -0.487710441438    0.512049148514
C     -3.065063803729    0.439937280076   -0.116938060813
O     -2.319256439341    1.046950898966   -1.052908010428
C     -4.491452255726    0.845404357083    0.101974878359
H     -5.009154479407    0.188345263790    0.805924151354
H     -4.521946997179    1.870822212781    0.489811037178
H     -5.019809859501    0.840818347503   -0.857852261040
N      1.279072833685    0.076230048972   -1.273705934954
C      2.061416001771    0.733098619632   -2.160345156391
C      3.436631333223    0.466570303452   -2.222264046015
C      3.986445556326   -0.495736040083   -1.339933532539
C      3.174113881485   -1.175547156908   -0.418834622250
C      1.802960665354   -0.859170272329   -0.415860160378
H      1.578244428563    1.460256371118   -2.803830084048
H      4.059714481192    0.995238206878   -2.935045636800
H      5.051403437348   -0.710563852553   -1.374282491030
H      3.563659559992   -1.914651585573    0.271655664331
O      0.819944482139   -1.381782956468    0.360581405438
H     -0.032729066352   -1.356927650594    1.896810239710
