41

C      0.121023798835   -1.352302142107   -2.237009871313
H     -0.018418321173   -2.365327174099   -1.871535437351
H     -0.735278172023   -0.829842320326   -2.648905043319
C      1.404513162842   -0.859863802625   -2.458390203024
H      1.558435370114    0.058546195755   -3.016798367624
C      2.611961775051   -1.710790362071   -2.222795762479
O      2.604134853950   -2.876097378580   -1.783530586502
O      3.750788194453   -1.038079523680   -2.586484014728
C      5.036819955779   -1.745568029085   -2.426993333862
H      5.787054119633   -1.044677514137   -2.792794069474
H      5.200561806616   -1.985041850225   -1.371735698898
H      5.032234891321   -2.667339421875   -3.016899243782
Pd     0.646730000906    0.126709545886   -0.556209009280
C     -1.168894709522    2.200395564294   -1.744490887660
O     -0.049759343310    1.438586495831   -1.908751334085
O     -1.650448029614    2.816615170510   -2.711963501025
C     -1.756254755206    2.268421460156   -0.311422124905
H     -1.742571059022    1.240827955668    0.098167349164
C     -3.191741325575    2.803744431954   -0.319432673851
H     -3.561584250206    2.881504402254    0.709467808434
H     -3.212533377710    3.796801385642   -0.776885597361
H     -3.855501145723    2.144429893503   -0.892164156258
N     -0.906907776559    3.176349877003    0.493813716287
C      0.205928866213    2.786369788350    1.014790634364
O      0.748358374125    1.507973266290    0.951106446978
C      1.056577240906    3.728745318031    1.838389638061
H      2.035176862835    3.874978178081    1.362587465409
H      0.548545659810    4.691415838534    1.922159868394
H      1.229362331926    3.315762558146    2.840417046460
N      1.445862537900   -1.260882370914    0.832844934971
C      1.017379996420   -2.561959017317    0.848171977632
C      1.559571561721   -3.523040685077    1.694512274987
C      2.607871754575   -3.141615363811    2.565534197124
C      3.033163738912   -1.814969683417    2.584103646618
C      2.412799443777   -0.869252153954    1.729115678025
H      0.228986392340   -2.819528873370    0.154711278221
H      1.189076087579   -4.541089417029    1.659470573243
H      3.067729877441   -3.871306999538    3.226233580579
H      3.806175103285   -1.455107395097    3.253070434085
O      2.776177111566    0.421551224084    1.808099078986
H      2.010521185197    1.062554317260    1.477112597766
