41

C     -2.903619872331    1.421484343836   -0.018880998845
H     -3.981966313992    1.600519147020   -0.096782638500
H     -2.413200974310    1.771649838255   -0.935116796391
C     -2.574248563886   -0.048687708287    0.202146398157
H     -2.724195371077   -0.571983963445   -0.747870444476
C     -3.321519356383   -0.768716874185    1.272137122159
O     -3.622410057272   -1.985549912059    1.250114935794
O     -3.654947732596    0.034783241263    2.353144330737
C     -4.356873535601   -0.620445612833    3.471341420363
H     -4.556471732807    0.180049573611    4.185547076912
H     -5.287822614934   -1.076441005217    3.120568775669
H     -3.722056466498   -1.395001876786    3.913458497657
Pd    -0.526940239816   -0.248558063464    0.553791307847
C      1.911224869397    0.845839872964    1.779853424170
O      1.548911007155   -0.106115314957    0.908401784293
O      3.080647594462    1.200737690580    2.019292972098
C      0.723512686157    1.465494154456    2.563676500762
H      1.000087953036    2.503015964978    2.778066944285
C      0.536482053571    0.694155017191    3.893308084763
H     -0.263467738649    1.138469217222    4.498050246398
H      0.278635789962   -0.351931473416    3.694123056629
H      1.469751493612    0.724758854940    4.466073475146
N     -0.519574435467    1.413982743995    1.732853117759
C     -1.412816610122    2.359236438499    1.800710624782
O     -2.539305346216    2.396201183166    1.050427194817
C     -1.333344436758    3.573565517654    2.701761229905
H     -1.042912041293    3.301493320532    3.720474920638
H     -0.597025337820    4.290068307861    2.315880429860
H     -2.310135259823    4.059518373663    2.722445986797
N     -0.292891350121   -1.985016683680   -0.620976005162
C     -1.305643145402   -2.907364032601   -0.735645673874
C     -1.214375654251   -4.021863028849   -1.565713846277
C     -0.034645835716   -4.211650899014   -2.324376279783
C      1.012120099517   -3.303006861040   -2.191236131208
C      0.879659459603   -2.200587346092   -1.306419260197
H     -2.190458113696   -2.734543064386   -0.133004925778
H     -2.043575222376   -4.718921815793   -1.615723994961
H      0.063761164520   -5.063930009807   -2.991471811586
H      1.952164492420   -3.407275439849   -2.720339529841
O      1.938057927741   -1.382710961455   -1.172514129741
H      1.956952866063   -0.786387946524   -0.325531298304
