53

C     -0.727296180581    0.541789029732    2.620677619908
C      0.677501901562    0.791352488796    2.615975402792
C      1.581007355745   -0.278062827308    2.851200743186
C      1.095220024080   -1.569118224133    3.076176988893
C     -0.300555203458   -1.821427964127    3.080357980459
C     -1.203156405196   -0.779273919571    2.863024664709
H     -1.437337291043    1.363327473763    2.610851816501
H      1.060872048421    1.804068962853    2.532593710885
H      2.650509188206   -0.085363296270    2.851016304301
H      1.789121927629   -2.389915456387    3.237192488008
H     -0.663129090351   -2.832688989353    3.243902701734
H     -2.274186405233   -0.964524510653    2.878780678340
C     -1.885761391845    3.380452664943   -0.088818416464
H     -1.738141175596    3.834604671600   -1.071532672918
H     -2.371727928674    4.082851263302    0.592400530083
C     -0.569188562826    2.857431846153    0.474597063759
H     -0.511727978941    3.009347735262    1.554084509836
C      0.609406298768    3.485064007871   -0.186422369428
O      0.675102461210    3.933887156864   -1.351005666935
O      1.715888157731    3.519710386905    0.668480998697
C      2.954220361387    4.094956472691    0.119030397917
H      3.666503236169    4.075837181506    0.945850636651
H      3.314164080388    3.492434182125   -0.721346091367
H      2.778454260484    5.119425334324   -0.224032365917
Pd    -0.207806307824    0.755970237371    0.272559513356
C      1.088231410503   -1.482898120947   -1.011715341940
O      0.334859302722   -1.252560059987    0.064735464412
O      1.717699736048   -2.540824425234   -1.247122872219
C      1.181894771895   -0.293160769960   -2.014875710578
H      1.183236252487   -0.725933115027   -3.020160962988
C      2.495693512961    0.489932611862   -1.807571105267
H      2.573219819019    1.317057706528   -2.523662443205
H      2.541949794555    0.904548881941   -0.793522992965
H      3.343975036010   -0.188901749673   -1.949010320297
N     -0.020641354039    0.570420720241   -1.802121613771
C     -0.823700692608    0.851228582417   -2.793169948536
O     -2.025466543331    1.440923797465   -2.626223656061
C     -0.548026354517    0.548847223449   -4.251881064677
H     -1.249851362105    1.124853933257   -4.857627498129
H      0.475353514927    0.812841015708   -4.533381262145
H     -0.700781866688   -0.517011837765   -4.463693704486
N     -3.659286369340    2.384298164294    1.849619147325
C     -4.558159912004    1.980820318595    2.788745040276
C     -5.579456199963    1.059738737341    2.516480170771
C     -5.674505166573    0.533848983833    1.206945335448
C     -4.762225557898    0.947494254518    0.228309217584
C     -3.772965919507    1.880552527171    0.610788666712
H     -4.438633912530    2.416093138716    3.777080564112
H     -6.273894838542    0.764354627491    3.296056785813
H     -6.451044531358   -0.183279970139    0.955518007261
H     -4.800508248182    0.580626035410   -0.791618902715
O     -2.882111905733    2.297309826486   -0.368543617075
H     -2.343937746465    1.636008347487   -1.685279146427
