41

C      2.175175327184    0.540126633756   -1.959398602025
H      3.198487668543    0.276427152871   -1.701754506155
H      1.927944989843    1.595858829223   -2.012704578108
C      1.305137244490   -0.425422703138   -2.470843503990
H      0.345277879875   -0.177172580620   -2.906736378797
C      1.781837604736   -1.816461790705   -2.736885175278
O      2.852420765644   -2.315087425087   -2.329764547671
O      0.900878309398   -2.484024863114   -3.542592377831
C      1.228258749846   -3.876210510355   -3.905393423763
H      0.416211059764   -4.189045765359   -4.561563892433
H      2.193794536296   -3.914507009808   -4.419429226381
H      1.266714177044   -4.495519313803   -3.003766030702
Pd     0.938520051000   -0.128940098484   -0.215053116100
C      0.945685021133    3.027654543242    0.386863045788
O      1.440117676023    3.912499829968   -0.325853329300
O      1.666523796103    2.477018430119    1.418045956847
C     -0.499540121666    2.512921279596    0.177648725274
H     -0.972799899904    3.295177534421   -0.426802461492
C     -1.268673285969    2.371069819086    1.515592816717
H     -2.325642521905    2.160558338293    1.318341491701
H     -0.877213152251    1.549903520554    2.122220196993
H     -1.210361007358    3.302126275294    2.094165762255
N     -0.479521828278    1.257108931052   -0.620461098994
C     -1.551638980755    0.849400210647   -1.375021383111
O     -1.600165593994   -0.320803141002   -1.872747707444
C     -2.682013143166    1.841570528259   -1.662430894691
H     -3.414338159904    1.328844974563   -2.289478315747
H     -3.178143320128    2.182663165049   -0.746788092881
H     -2.308535506812    2.724971710798   -2.196326427262
N      2.274464741301   -1.388504770248    0.823556401675
C      3.247070783011   -2.326084075970    0.699964326349
C      3.830946086691   -2.887793250433    1.843472596622
C      3.387907358881   -2.466723512824    3.120650961816
C      2.379369430565   -1.499472316762    3.243647444372
C      1.838862950101   -0.970937415924    2.056430765797
H      3.532600310793   -2.598508744666   -0.309042351420
H      4.611532782887   -3.633082981464    1.737536642428
H      3.831712503541   -2.896033607399    4.015309835907
H      2.012360596860   -1.155048126316    4.203806694161
O      0.861608599746   -0.032066811011    1.943338356195
H      1.284354220483    1.639946748772    1.819256276519
