41

C     -0.253359787942    3.497601357698   -0.355539703497
C      0.085182254406    4.242200457890   -1.494447795070
C     -0.497227686695    3.921176260830   -2.744180365103
C     -1.417759979076    2.861403084685   -2.851870558641
C     -1.783745735272    2.133259513059   -1.699133310657
C     -1.198032762174    2.438189605649   -0.441105208912
H      0.173991491548    3.749519651261    0.611761551051
H      0.784829689758    5.070772901339   -1.419638237314
H     -0.240252055801    4.505886335890   -3.624841405223
H     -1.870082926896    2.626527769380   -3.811891475499
H     -2.552859919928    1.367969176613   -1.756417634447
H     -1.672142502341    2.075856272985    0.494453542453
Pd    -0.403827197440    0.157614940623   -0.077370153996
C     -0.942261025013   -2.618542327472    0.588981643056
O      0.096448177765   -1.745367040044    0.430065651268
O     -0.770260177742   -3.813101301975    0.869796962190
C     -2.322873771315   -1.973260189648    0.345591963110
H     -3.002397063917   -2.426136032965    1.074009868821
C     -2.820297719785   -2.330566993486   -1.076909107612
H     -3.826817322184   -1.924917514160   -1.233877875922
H     -2.153897253406   -1.903575407575   -1.836454923230
H     -2.851681273263   -3.418626808688   -1.207655043639
N     -2.214337412652   -0.509828671021    0.557410170483
C     -3.003764708841    0.167545365296    1.445230509882
O     -2.775768296360    1.379096874964    1.775933750862
C     -4.222659349482   -0.535265686084    2.054283238258
H     -4.817228853564   -1.073723895875    1.307545541157
H     -3.913154216951   -1.249001720566    2.829277598951
H     -4.840303228067    0.233852830138    2.522642777479
N      1.598130484059    0.479724711991   -0.717790723069
C      1.858339788850    1.310605585623   -1.774531555300
C      3.150595739777    1.617791332591   -2.191780726310
C      4.240464981914    1.050512528622   -1.488284618637
C      3.990167524856    0.172723673157   -0.435894186231
C      2.650455427060   -0.132046949900   -0.082937395283
H      0.996186265126    1.724389704981   -2.279128995480
H      3.300859179400    2.283593063883   -3.034403563049
H      5.262894469677    1.279842576396   -1.775858591615
H      4.779718275245   -0.321097580592    0.118250083195
O      2.444695941084   -1.038479459595    0.890790245664
H      1.522668175188   -1.489148846181    0.860184669998
