26

Pd    -0.661613186585    1.993253796503   -1.399434069531
C      0.831488587431    2.556954337867   -2.706531434838
H      1.584137497291    2.870089254082   -1.955190579876
C      0.337922573774    3.725522799905   -3.551591395066
H      1.175303253863    4.175956333855   -4.107745709539
H     -0.408141363194    3.394725857488   -4.283089697331
H     -0.094603817010    4.515935542159   -2.918666166367
N      1.295915368093    1.421717444934   -3.457514468363
C      0.882229425770    0.247200790794   -3.096414590765
O     -0.098020269184    0.121155018771   -2.142609536525
C      1.407587172638   -1.041793233227   -3.674660660437
H      0.583393695440   -1.634177939086   -4.089347182583
H      2.141382231034   -0.834613619891   -4.456090775552
H      1.876754601922   -1.639522505784   -2.883075787793
N     -2.208020276343    1.258320035311    0.013676861534
C     -2.933268483635    2.124327908488    0.787619045812
C     -3.915442778179    1.707743723307    1.684734994667
C     -4.170341234672    0.318280420941    1.796370507586
C     -3.441828821314   -0.577914864922    1.016586793755
C     -2.454728276558   -0.082402714238    0.121622522527
H     -2.701111633760    3.178896080442    0.667498886466
H     -4.461321535918    2.436017032354    2.274780026021
H     -4.927546098874   -0.048869990986    2.484069607929
H     -3.595016752683   -1.649971248387    1.061134026423
O     -1.774074514005   -0.984219043206   -0.611760721562
H     -1.061501881275   -0.646214474114   -1.270216262339
