38

C      0.170922260812   -1.977011355163   -1.733076570867
H      0.797769265443   -2.428994726428   -0.969537995212
H      0.507318376913   -2.094968981387   -2.760930515539
C     -1.200694392317   -1.744462426305   -1.469046761375
H     -1.905404957183   -1.599493768854   -2.284152703362
C     -1.860649739462   -2.041293259102   -0.175897624648
O     -3.060327453325   -1.789288551810    0.080114735894
O     -1.017494817003   -2.632796464110    0.750787136329
C     -1.576791701530   -2.894645657141    2.087067392386
H     -0.784278398937   -3.416379915576    2.625559012116
H     -1.827662918964   -1.950757078830    2.582260794061
H     -2.475771498292   -3.513855985868    2.008244369299
Pd    -0.080816664637    0.123738194749   -1.168548337783
C     -2.006901959710    1.288223727504   -1.014330981492
H     -2.718761147405    0.658940741515   -0.468101551153
C     -2.411216121815    1.703798997701   -2.412737250310
H     -3.261185640459    2.402633587724   -2.349325015266
H     -1.589431995694    2.217367888617   -2.921842485117
H     -2.737395464259    0.844648177038   -3.009114213820
N     -1.047381663449    1.965006471421   -0.354570622125
C     -0.948159369558    2.150916747749    1.027986669477
O      0.103096519932    1.906992279453    1.674475132742
C     -2.162191869446    2.796011626653    1.691365948713
H     -2.390210258944    3.758347856737    1.217631971855
H     -3.046489661260    2.153543839388    1.581379386994
H     -1.954177728009    2.949934537964    2.752451390729
N      2.028694721605    0.826568332375   -1.172423992177
C      2.636152195398    1.276814422717   -0.033748121605
C      3.987886443374    1.639024544983   -0.021068701943
C      4.733365856780    1.543935438087   -1.217869665025
C      4.109794013382    1.098141510110   -2.389923978917
C      2.746780116807    0.752073228662   -2.317631262089
H      1.993788029088    1.359004363015    0.836977754870
H      4.439473961311    1.992985432985    0.899340962542
H      5.784114578070    1.820638101386   -1.235807600073
H      4.629659414706    1.015806582009   -3.337158713294
O      2.104388912553    0.323536543200   -3.455154337687
H      1.157575476546    0.118201076942   -3.237928457514
