12

N      0.662984935799   -0.331225990396   -2.176813113801
C      0.292395903237    0.053656138683   -3.426801933625
C     -0.827677837709   -0.480304490802   -4.082792033336
C     -1.596301749707   -1.457546247873   -3.409384212797
C     -1.226430478497   -1.864456233522   -2.119866241780
C     -0.082766346134   -1.262751662760   -1.553972793731
H      0.917318658217    0.807003071470   -3.898568671342
H     -1.089511757615   -0.145658850613   -5.081315915012
H     -2.470470390421   -1.893852516776   -3.885398478903
H     -1.779502746239   -2.609055628407   -1.559100556649
O      0.307468121518   -1.643813703185   -0.282244689048
H      1.113254229954   -1.141791963515   -0.027388313299
