29

Pd    -0.866344234463   -0.198986111755    0.126182659026
C      1.281723142069    1.866045772156   -0.443721426175
O      0.326821846437    1.494040761490    0.543654720933
O      2.129127461641    2.716191075090   -0.195505828603
C      1.005192083862    1.130442266724   -1.746486535846
H      1.983594667986    1.016116298154   -2.227044956077
C      0.125420361589    2.065137110156   -2.634915552096
H     -0.033554926804    1.585850566872   -3.606245214176
H     -0.854277863250    2.220309651113   -2.169302137202
H      0.611106906006    3.035653801328   -2.794413806528
N      0.379675953853   -0.178296578706   -1.486095248221
C      0.568600163385   -1.238097618775   -2.337103214126
O     -0.060696535036   -2.329928698205   -2.207837428530
C      1.599450842177   -1.109299742844   -3.470607499993
H      1.555600874747   -2.031513285343   -4.053165123676
H      1.393914175627   -0.261480106546   -4.135729613178
H      2.616648739223   -0.995595752893   -3.072166625646
N     -2.168140770105   -1.748547087499    0.045082117052
C     -2.512537165808   -2.836762857584   -0.682582218754
C     -3.579220384526   -3.635269601960   -0.245776118482
C     -4.258952684774   -3.292137619288    0.950273941095
C     -3.878087743047   -2.171974224886    1.703786856153
C     -2.800168920715   -1.403790892422    1.216535157628
H     -1.906331431811   -3.032114407046   -1.558373488442
H     -3.864301153006   -4.508868703283   -0.821612650499
H     -5.084782482689   -3.910617170834    1.293995805937
H     -4.370425012074   -1.889683132594    2.627543119714
O     -2.224573364580   -0.301631424426    1.741354835530
H      0.417637138930    1.954384430611    1.406010246103
