12

N     -1.024832862335    0.278854300781   -3.050048431595
C      0.110898192689   -0.265028866442   -3.562150021111
C      1.323931990836    0.437905149893   -3.628929181230
C      1.357510877383    1.764840779104   -3.141743439115
C      0.194150790041    2.339203058869   -2.610765505992
H     -2.853145314541    1.413801339608   -2.128501419474
C     -0.970552016057    1.543369058569   -2.591881716185
H      0.029710381725   -1.286944408989   -3.922330077816
H      2.278666538548    2.340489518344   -3.176780126763
H      0.164175643939    3.351299395287   -2.224066379362
O     -2.134830338235    2.082618817143   -2.073752011859
H      2.208377441569   -0.033075953770   -4.045497749929
