24

C      2.435270593187   -1.090573321655   -0.202081441651
C      1.964799542149   -1.976569264089   -1.193563207722
C      2.859935452615   -2.596579290131   -2.086636116534
C      4.240557674841   -2.339795058701   -1.993395936713
C      4.718213994711   -1.461074642553   -1.000761515632
C      3.823202760730   -0.839950752747   -0.111591188740
H      0.898851239728   -2.183821391249   -1.267334880972
H      2.481748310345   -3.276284545587   -2.846867877171
H      4.934082593772   -2.818471216152   -2.680849833317
H      5.784473307560   -1.262563210395   -0.919052343141
H      4.201181175273   -0.172345760769    0.659244102894
C      1.400031466117    1.139961243141    0.495340945780
H      2.367315807740    1.595793574199    0.730212720254
H      0.638411943387    1.615963252869    1.125920025400
C      1.442004974959   -0.390226284821    0.736007970460
H      0.448083058885   -0.815609187400    0.564521750974
C      1.805481705554   -0.681520059606    2.190194956457
O      2.679313423382   -0.099887571376    2.856059590165
O      1.040461444030   -1.710768587489    2.704552143382
C      1.334972482424   -2.136808829579    4.086079750630
H      0.621400868559   -2.935787905028    4.291724647076
H      2.365043169119   -2.500619197600    4.154684567368
H      1.200390770333   -1.298432790685    4.776760826163
H      1.161814612302    1.345490229913   -0.554490867945
