41

C     -2.162460836702    1.591230120235   -2.330359488697
H     -3.094857341951    1.142685262061   -1.996150572379
H     -1.889386576704    1.558059663080   -3.380278274298
C     -1.414241145378    2.429164011465   -1.505535435671
H     -0.625908325971    3.026914824128   -1.948873124573
C     -1.872878798415    2.815138483693   -0.143213671466
O     -2.655339408036    2.148811238345    0.584182791413
O     -1.357740680067    4.010497981617    0.247309479545
C     -1.742597614365    4.524660114076    1.582194012339
H     -1.229590255491    5.482391159847    1.665696719881
H     -2.828246078764    4.646268944583    1.633249972641
H     -1.412345175855    3.825264711732    2.355742371172
Pd    -0.522128787813    0.305778042178   -1.393574560442
C      1.812268439295   -1.383710892901   -1.425533465468
O      2.561420501729   -2.359024204772   -1.239490145671
O      0.535270518550   -1.345933694531   -0.965636212990
C      2.269283990911   -0.098819893291   -2.134963316683
H      2.843351364491   -0.410513572860   -3.014601553180
C      3.203672136930    0.689538758420   -1.180498685115
H      3.576842029624    1.599143757299   -1.665006384845
H      2.662947152579    0.982364387908   -0.272252478464
H      4.057217653001    0.064121630137   -0.894788560823
N      1.076586093363    0.684896705067   -2.551496588049
C      1.078093872848    1.491403140158   -3.658624826773
O      0.072506419962    2.182609633896   -4.018651394582
C      2.348950208624    1.545483259157   -4.518017666132
H      3.253069498940    1.740873766988   -3.932064664201
H      2.489129607384    0.600618545379   -5.059611139708
H      2.210771093589    2.347202685344   -5.246162331976
N     -3.980002371132   -1.440933619990    0.603052120901
C     -4.649416033931   -2.600446018531    0.837209474806
C     -4.051658495878   -3.859768926370    0.666610949477
C     -2.703555526546   -3.913876699771    0.248731535044
C     -1.994070980099   -2.724652549325    0.014210309461
C     -2.703031207959   -1.526280528358    0.207098224818
H     -5.680144468495   -2.498404387555    1.164142830826
H     -4.619587973286   -4.764486968333    0.858570667088
H     -2.205158880289   -4.870021653509    0.115388866389
H     -0.953021935856   -2.700786325376   -0.288366352236
O     -2.066751025716   -0.289666932865   -0.002652580341
H     -2.578911283280    0.499517457244    0.363786017372
