41

C      3.201374471358   -1.624499104863    0.250108498590
C      3.305513736480   -1.548412870987    1.667890397043
C      4.414956241076   -0.889908706146    2.256541567411
C      5.397038770218   -0.308714949200    1.443098120806
C      5.287091637136   -0.371075202875    0.030669190971
C      4.202112008302   -1.026355539481   -0.563657206891
H      2.438345002636   -2.255794089373   -0.197051041869
H      2.583024613231   -2.079475243204    2.279816711427
H      4.507975615706   -0.857686245033    3.339101076207
H      6.252582289500    0.188479288199    1.894106417564
H      6.054735945155    0.082806335301   -0.591023756429
H      4.120908697996   -1.088364108455   -1.645076210098
Pd     1.333065641431   -0.086198044746    0.745156718944
C     -0.881415797433   -1.634606052910    1.636173185028
O     -1.477461350884   -2.492935758978    2.313674103401
O      0.394452673820   -1.786890804889    1.216298713749
C     -1.594272120171   -0.351192534646    1.148750840664
H     -2.052619428903    0.122171440189    2.029461869089
C     -2.708800513176   -0.830909932273    0.180335537888
H     -3.367728261416   -0.019445966210   -0.136444566264
H     -2.261025431562   -1.287336315934   -0.710801200624
H     -3.312056067195   -1.586928196202    0.694135554711
N     -0.595538261316    0.563104763432    0.518766549835
C     -0.943509427394    1.649119108823   -0.189959799378
O     -0.145202754070    2.239267298067   -1.020089069064
C     -2.309343058139    2.310862965651   -0.034208367106
H     -2.133819594389    3.389758555334    0.027826683908
H     -2.918030248239    2.131617053048   -0.927677496080
H     -2.856833692267    1.980016721750    0.851385907316
N      2.432385963455    1.692728616839    0.605783310991
C      2.962591047032    2.173552939650    1.771923062445
C      3.912382809586    3.192573147151    1.794833985435
C      4.354552917818    3.728983577512    0.560976212490
C      3.798511976748    3.263832284507   -0.630600308426
C      2.793606758824    2.262718621713   -0.589695463555
H      2.608336615288    1.708537422886    2.685201178440
H      4.301197555745    3.548774598423    2.742481247477
H      5.106692841513    4.513424912458    0.541877592875
H      4.068278535119    3.667816284870   -1.599612398313
O      2.153298254010    1.876107701127   -1.699993822923
H      1.083368087908    1.875587828496   -1.486003580348
