29

C     -1.863729056440    1.989911300370    0.343279505196
H     -2.431137511533    2.414232509652   -0.482379271687
H     -0.893670651228    2.426344895818    0.557636007553
C     -2.436357120773    1.105157697618    1.261126128569
H     -1.995903062900    0.923829219257    2.235609683434
C     -3.763554122709    0.506186633936    0.945855329049
O     -3.934650388655    0.002053717774   -0.209011753371
O     -4.682156123024    0.487759422433    1.923697537229
C     -5.983082548680   -0.184547076186    1.652614574657
H     -6.520957019149   -0.125767528366    2.597809113319
H     -6.509212799180    0.350257734282    0.857578028124
H     -5.802480774053   -1.220614747056    1.353469319185
Pd    -1.559828488219   -0.090792802861   -0.462981149045
C      1.280858719959   -0.800341488648    0.113919718201
O      0.381107033655    0.201629662335   -0.127248814896
O      2.442084880867   -0.498068526490    0.442307062317
C      0.784863033350   -2.257186235111   -0.059451321040
H     -0.217250954403   -2.315755997924    0.405050732619
C      1.736420800037   -3.242974299041    0.628220146431
H      1.385658737632   -4.267223590994    0.458713186237
H      2.740842732484   -3.141834662576    0.207474401843
H      1.791140243377   -3.053622572305    1.707308810832
N      0.725808346458   -2.579731359769   -1.504368462404
C     -0.284662680217   -2.207150394280   -2.231192543841
O     -1.398512594450   -1.514042282167   -1.818743487431
C     -0.354190118836   -2.573462780320   -3.697435391406
H     -0.341275468589   -1.665616851936   -4.313692307408
H      0.498449942848   -3.205666456273   -3.955392355863
H     -1.290559969154   -3.103903028046   -3.909015677090
