53

C     -0.065045133999    1.922380055352   -1.660428564417
C     -0.667255498720    3.182983923206   -1.851578179082
C     -1.307702186865    3.475992634043   -3.074698830402
C     -1.355504654728    2.511876970405   -4.100125790736
C     -0.757706777867    1.252341782184   -3.899675067919
C     -0.105333812765    0.955459359080   -2.684478600002
H     -0.841821617194    2.575586045477    2.043566644346
H     -0.655240387014    3.928369197971   -1.060240436246
H     -1.767182845690    4.451863959566   -3.219992196155
H     -1.850397211799    2.738867626246   -5.041671116736
H     -0.790456004116    0.501104669697   -4.686319436121
H      0.358336864136   -0.016482384591   -2.547612578109
C      2.218633241860    2.539790454788    1.749515800559
H      1.783798096727    3.523033842455    1.911245810222
H      3.113814788033    2.490563139855    1.139508086275
C      1.843519076482    1.455373087012    2.516976886645
H      2.386198698933    0.515729239382    2.474384061922
C      0.889855210656    1.543879886687    3.639774699753
O      0.877310677722    0.819426106305    4.640444690479
O     -0.043716828432    2.620482883299    3.516976962067
C     -0.827812999515    2.930879140148    4.736660465145
H     -1.481432036542    3.758388171662    4.454323056796
H     -1.398746766833    2.052935423290    5.051103837457
H     -0.147154831363    3.228399417883    5.538400907285
Pd     0.777862799408    1.564231933409    0.134044853758
C     -1.146898056101   -2.266217216569    1.864520267088
O      0.197483847153   -2.311524083697    1.766435420848
O     -1.775443015187   -2.912658330791    2.720255881739
C     -1.913032728997   -1.382932842334    0.839793957348
H     -2.967955744871   -1.422940479238    1.145880355354
C     -1.765887339513   -1.957124799004   -0.588130301112
H     -2.357090278486   -1.366912886222   -1.297946410550
H     -0.718301228307   -1.931722900916   -0.903054197233
H     -2.121823105907   -2.993896392704   -0.609241514614
N     -1.341883186670   -0.033363896401    0.882536151073
C     -1.926700547998    1.038774809341    1.230020019061
O     -1.084924194243    2.213429803847    1.135610635294
C     -3.334569889164    1.345585070658    1.668588288577
H     -3.935125361500    0.435480713399    1.749310267075
H     -3.339207076841    1.848072797931    2.644750413923
H     -3.804779754462    2.023750887412    0.946300300020
N      2.414515264620    0.826155626037   -0.835452693883
C      3.281563048261    1.565779653779   -1.593637850486
C      4.403424667784    1.007118416582   -2.193567418334
C      4.634857479687   -0.386562733919   -2.011890975241
C      3.751846688521   -1.149862646029   -1.261380770185
C      2.588894060337   -0.552548789430   -0.651312097726
H      3.035605637660    2.615695017806   -1.712517733664
H      5.068209680012    1.624149307553   -2.787927597622
H      5.504113179745   -0.855793748165   -2.467436768565
H      3.892892037725   -2.214651923936   -1.107399545926
O      1.723197377157   -1.217788623503    0.031706203545
H      0.693084795933   -1.789334200027    1.047762110166
