41

C     -1.822126442553    1.256691003922   -1.891603538340
C     -1.222043322393    2.506724115497   -2.206145433095
C     -1.560556476104    3.649425442853   -1.471583485460
C     -2.505998586880    3.567865245587   -0.417728182564
C     -3.101349115012    2.341435229271   -0.093908863363
C     -2.761587876758    1.173627601178   -0.824737737339
H     -1.671067369737    0.397390206658   -2.539425487899
H     -0.505931921595    2.567233357352   -3.020406046939
H     -1.104797529288    4.605923251289   -1.714684952086
H     -2.772624165255    4.465067571725    0.135822699916
H     -3.840182665339    2.281744592551    0.701239653023
H     -3.282366084352    0.236923895682   -0.650356291444
Pd    -0.541268152563    0.010255413866   -0.205335755832
C     -1.287045725794   -2.746365359632   -0.313259535656
O     -1.945410147397   -3.787058023140   -0.499354196455
O     -1.561117585492   -1.569967685932   -0.925489739485
C     -0.096396751593   -2.698942361909    0.681248648777
H      0.491351695914   -3.606616055302    0.507793712079
C     -0.618972384560   -2.719165840754    2.135012910824
H      0.217468174290   -2.745375593425    2.843698175232
H     -1.216917445121   -1.822862674168    2.342561047787
H     -1.246777491266   -3.603608036539    2.290740461732
N      0.704579756606   -1.485039210591    0.383326003505
C      2.016692385929   -1.518484305051    0.120116654548
O      2.670218342467   -0.522201690849   -0.391213903070
C      2.840752876404   -2.770143775622    0.408148140504
H      3.891966418138   -2.475962459141    0.425314381170
H      2.574985190681   -3.238494396171    1.361176433586
H      2.704607787847   -3.509668016363   -0.391809707412
N      0.367932050021    1.635309875911    0.724467921995
C     -0.226392647963    2.122721956196    1.856922951923
C      0.168875977515    3.317266307374    2.452350938367
C      1.216785035550    4.055453272645    1.847192854076
C      1.843851951710    3.553861965593    0.708574192065
C      1.432047871982    2.304278006204    0.167186503510
H     -1.036394549103    1.527898165807    2.264026277095
H     -0.326686039360    3.664411799479    3.352326204478
H      1.542081668218    4.999190668937    2.277390932682
H      2.671428308626    4.060256740603    0.225157904091
O      2.068630898211    1.766946113489   -0.871148123431
H      2.271408121411    0.678914856321   -0.742547997374
