41

C      1.427757996472    3.221721537329    0.934716999878
H      2.288051480309    2.815353836522    0.413365792439
H      0.897481317669    4.056148289498    0.482086374131
C      1.181494876227    2.870786459616    2.256487542225
H      0.427560313595    3.397369074377    2.837959455984
C      2.057096540426    1.993050164543    3.095653647104
O      1.916344191093    1.889132855251    4.325099452534
O      3.041246351090    1.359394098398    2.377786115292
C      3.880198715486    0.394914185282    3.121426625742
H      4.584489792052    0.010222291489    2.383581106416
H      4.397655927363    0.903426147867    3.940389785327
H      3.244963721426   -0.402078062856    3.518786819889
Pd    -0.240047449844    1.643323372863    0.962597722687
C     -2.971084967000   -1.332475869931    1.911603944831
O     -4.114977203528   -1.691249348325    2.249874675355
O     -1.883294750853   -1.600412699221    2.661251915328
C     -2.777863575123   -0.541957321548    0.582934178119
H     -3.798336552438   -0.358085873319    0.220985959230
C     -2.037255586934   -1.376053494279   -0.475052657628
H     -1.940040536425   -0.803383969764   -1.404720591329
H     -1.039617513865   -1.667093583261   -0.139083583654
H     -2.606964586903   -2.288620337633   -0.685756837663
N     -2.125879744865    0.759525318787    0.818895022591
C     -2.713631233392    1.798288756052    1.405089993116
O     -1.845709998190    2.803197829662    1.627676022649
C     -4.143410103810    1.928779196250    1.833911367963
H     -4.829646435073    1.676797219976    1.016441057563
H     -4.361158641925    1.243207998285    2.662431310579
H     -4.324344550931    2.955642746691    2.160935581181
N      1.049072339584    0.268422903475    0.187597816555
C      1.706388618480    0.444418388265   -0.996892379453
C      2.582262361914   -0.509223086178   -1.501100063142
C      2.788145793431   -1.695616576415   -0.741445064033
C      2.114166276729   -1.883420880824    0.458045713196
C      1.199140702177   -0.887024270669    0.951822516422
H      1.503410316379    1.366568952512   -1.533304825101
H      3.084798040630   -0.341887294803   -2.447179187722
H      3.469169852849   -2.461049174336   -1.106486715438
H      2.233848600818   -2.780602725540    1.056415376255
O      0.515434068739   -1.010516441486    2.044468051269
H     -0.944660351610   -1.304346359607    2.362200228262
