53

C      2.937616506543    1.984077889158    1.949726474240
C      2.932769423229    1.886565816114    0.521551760185
C      4.027223584273    1.277946553584   -0.154746674042
C      5.118929338565    0.805619094893    0.579188498867
C      5.134898801701    0.904729742877    1.999309484494
C      4.054838831351    1.468009279803    2.676883815535
H      2.199895331697    2.632294061454    2.426889776651
H      2.168249677154    2.412985214287   -0.040832306576
H      4.027256080691    1.222383395208   -1.240521421237
H      5.970953211006    0.367371734268    0.064368588440
H      5.994470828565    0.535528444421    2.552531556154
H      4.055231149064    1.542057771201    3.760424331732
C     -1.500033505935   -1.853401501961    3.573859609241
H     -2.511548530600   -1.472277781760    3.409944748355
H     -1.577184258812   -2.791459600703    4.133927165951
C     -0.784768624655   -2.127984366436    2.252593352868
H      0.243685308022   -2.451823293943    2.432442768382
C     -1.460105673028   -3.193396501522    1.380489644488
O     -2.175214640792   -4.098601514915    1.828697836198
O     -1.092845053137   -3.093216185781    0.057889147536
C     -1.679351639714   -4.086277119454   -0.864884632586
H     -1.253747749476   -3.848298188301   -1.840315946684
H     -1.406938200155   -5.097969018388   -0.549529978383
H     -2.768706156936   -3.984687475026   -0.872196690554
Pd     1.219571143436    0.421687608672    1.560307914510
C     -1.676943816944   -0.243094855837    0.849653214153
O     -0.575865977751   -0.859087598069    1.476737485107
O     -2.797685249162   -0.751424149728    0.863726128538
C     -1.258869591216    1.053829401493    0.156551073052
H     -2.175161984760    1.647978774104    0.093144976182
C     -0.792146276197    0.726423279459   -1.289544867766
H     -0.571953281047    1.663944725804   -1.812248734297
H      0.117131998149    0.115238093374   -1.273466360337
H     -1.571724170071    0.187522266602   -1.841661888586
N     -0.225644483128    1.745158006917    0.945320974676
C     -0.364600805099    3.047245225632    1.354576638033
O      0.518370017950    3.638067427835    2.050928636308
C     -1.621960657703    3.835464909981    0.953727448570
H     -1.773472794171    3.857279800024   -0.133036607486
H     -2.524307688479    3.419282437495    1.420664168885
H     -1.485787090704    4.857499692034    1.312381336237
N      2.417565401493   -1.114687621508    2.181529084889
C      3.198061574563   -1.890349805100    1.374849852455
C      3.988354327765   -2.916258253808    1.879699721522
C      3.984145102842   -3.130387563918    3.291612965636
C      3.196465443262   -2.347281184653    4.121760284036
C      2.350078361015   -1.304833763745    3.577161415446
H      3.165580718320   -1.668683823524    0.312061604867
H      4.583662541214   -3.528757637292    1.211387448538
H      4.604040778613   -3.916694801865    3.718103742837
H      3.175379211533   -2.484872342633    5.198449619418
O      1.546030977831   -0.568329860956    4.255740413026
H     -0.903949879351   -1.144377040594    4.155718626255
