53

C      0.685906381512    2.704671930759    0.144580396385
C      2.067998644402    2.562821258610    0.364829947753
C      2.927211546423    3.631704002208    0.031844107285
C      2.408739475814    4.821930068975   -0.515118524602
C      1.022273523419    4.947241218734   -0.729364704915
C      0.152992190195    3.884590539788   -0.402626947953
H     -1.437975978942   -1.033754428605    1.954158421648
H      2.473460351987    1.649382228838    0.791890009022
H      3.996773853357    3.524806202363    0.198302221280
H      3.077052666619    5.639683230359   -0.774894216270
H      0.613855797037    5.863020869966   -1.152003946238
H     -0.915825275473    3.994672817485   -0.572663226342
C     -1.682467149834    2.080132677886    2.242010978366
H     -1.845985739665    3.136071991125    2.050510705894
H     -2.538600750750    1.413909763252    2.170924285994
C     -0.492323770552    1.657731543367    2.826958365377
H     -0.334818666141    0.641951284799    3.196218302297
C      0.563263126447    2.620070289423    3.275240854250
O      1.643905274730    2.285015118547    3.785813306669
O      0.183054231596    3.939661732375    3.115193232583
C      1.178417399563    4.962207984890    3.484910923534
H      0.671147313578    5.915990638830    3.334044287717
H      1.480077983431    4.833596086891    4.529097654890
H      2.053622900955    4.875538838620    2.834402783997
Pd    -0.472377779258    1.133024324811    0.568166062250
C      0.576089582355   -1.779131249089    1.776385514873
O     -0.013791866480   -1.501893663027    2.886158771154
O      1.376517982188   -0.956220041183    1.159267420141
C      0.128118365371   -3.084707671847    1.055419814344
H     -0.229078886365   -3.756446760194    1.846553545549
C      1.247477361801   -3.781248387361    0.266850525833
H      0.857002215657   -4.700889604031   -0.182641821548
H      1.631377166108   -3.140041313112   -0.532097714064
H      2.078102110643   -4.037717882868    0.935808777892
N     -1.034761715879   -2.861782782804    0.148617341534
C     -1.864553682163   -1.889894715841    0.158427701976
O     -1.843588885793   -0.761839067698    1.073923350439
C     -3.017324242001   -1.768007929197   -0.798432954458
H     -2.977680866994   -2.582523010109   -1.524256230781
H     -3.966302646931   -1.809510659518   -0.248980862690
H     -2.981441913155   -0.806418160762   -1.322933738283
N     -0.257972914597    0.615940492594   -1.494038968828
C     -1.175351588274    1.180364635870   -2.346159539416
C     -1.106308620931    1.048831807948   -3.727239956714
C     -0.026960470218    0.308273290597   -4.276269499985
C      0.908946373907   -0.267998011170   -3.426395149046
C      0.782621066858   -0.114917076854   -2.012597609400
H     -1.969274849344    1.751110830442   -1.876965275980
H     -1.858181896973    1.512908632828   -4.355968050664
H      0.068263899498    0.190770851418   -5.352436294361
H      1.750838236877   -0.846357794164   -3.788746144533
O      1.697712027304   -0.691493121734   -1.240617878800
H      1.568134285433   -0.820646048034   -0.167257578347
