12

C     -1.166869390040    0.861537246862   -0.275564871988
H     -0.750044694102    1.054892045972   -1.260526504863
C     -2.005659628414   -0.173020051764   -0.055773577776
H     -2.305974355402   -0.860023864273   -0.841430143499
C     -2.571688365471   -0.431993516494    1.291832825005
O     -2.361484768736    0.226863042659    2.327831827843
O     -3.399442319415   -1.542776312010    1.263902366056
H     -0.887964818231    1.529685604058    0.536325052638
C     -4.037859001752   -1.926648570683    2.534458658124
H     -4.634542002178   -2.807962841613    2.295436418445
H     -4.668735922862   -1.110807727681    2.901742408313
H     -3.275528751144   -2.158052584590    3.285332808718
