41

C      1.773494327261    0.566687156974   -2.547174715709
H      2.097368500404   -0.181867526684   -3.265178816561
H      1.317599289637    1.479167565080   -2.918731678826
C      2.154705216306    0.471477190675   -1.215453635516
H      2.003943964146    1.302645696359   -0.532258116818
C      3.050043284747   -0.627981509728   -0.738247599270
O      3.573783655488   -1.495412091279   -1.460170562268
O      3.246528921423   -0.534051661316    0.616336517573
C      4.110695421666   -1.553578505828    1.245679526324
H      4.133719129543   -1.285376000635    2.301821061252
H      3.677706557158   -2.547592307588    1.098557244990
H      5.111413914667   -1.518464111543    0.804225533644
Pd    -0.066715707859   -0.128102951060   -1.337888279981
C     -1.480477106144    2.256810208376   -0.548826249031
O     -1.721483336161    3.454114311077   -0.329953631854
O     -0.380640736711    1.850627335490   -1.240949437758
C     -2.374876059618    1.128520523005    0.008894615195
H     -3.410430170982    1.432708018862   -0.170018864583
C     -2.129688157566    0.954182583012    1.522770559772
H     -2.814158860916    0.207962687054    1.941841782647
H     -1.103348050822    0.630081885352    1.732330411994
H     -2.303618016298    1.912378930363    2.022797896506
N     -2.131829213210   -0.174724248146   -0.712466965821
C     -3.017633811798   -0.441860682347   -1.830418077399
O     -3.675050536295    0.477229572614   -2.348518769794
C     -3.103634428863   -1.887852983457   -2.276299407387
H     -3.307540399504   -2.546140510304   -1.423691308233
H     -3.900813188738   -1.978246014998   -3.016853520445
H     -2.159108047700   -2.216352257810   -2.724126868307
N      0.184965490643   -2.193738454443   -1.337530098908
C      0.947285910085   -2.852587705294   -2.268900623115
C      1.167245458393   -4.221884763914   -2.229545840345
C      0.593558818239   -4.963099336932   -1.159624296607
C     -0.189858922860   -4.318752373021   -0.213327496316
C     -0.446651550548   -2.904923524344   -0.301138132260
H      1.393102454137   -2.247763459814   -3.048649135969
H      1.782405565588   -4.692270708696   -2.987934397202
H      0.764786121718   -6.034545110166   -1.086040259495
H     -0.656206278770   -4.845726213885    0.612240714635
O     -1.249328572968   -2.291574245285    0.516689006082
H     -1.949427515827   -1.028063555185   -0.077447949546
