41

C      2.094183469378   -1.958704513562   -0.185372416357
H      2.947155672745   -2.168783909032    0.463593660952
H      1.848194878818   -2.818860348108   -0.811025030550
C      2.343519180747   -0.674121518416   -1.011684241718
H      1.846471512638   -0.644650802451   -1.984209929174
C      3.786832950274   -0.311682318969   -1.082634510924
O      4.709404980813   -0.785067099795   -0.383849577823
O      4.022125096361    0.648352435418   -2.056855540272
C      5.407373560579    1.126690740078   -2.188698832632
H      5.373301163481    1.863630699018   -2.992523406478
H      5.742171490677    1.582756969110   -1.251049805704
H      6.075179951733    0.296934147310   -2.442827862731
Pd     1.243935633930    0.817614220537   -0.014584415859
C      0.838510186088   -0.743956834353    1.481635601718
O      0.845796554115   -1.865287918855    0.701056346430
O      1.937933392506   -0.149224047516    1.827275576207
C     -0.526937400217   -0.172424468465    1.994124277894
H     -0.430740627110   -0.019291001281    3.078157037608
C     -1.717315747655   -1.088622840800    1.668410854316
H     -2.652216690047   -0.662337155793    2.046827659295
H     -1.804448697513   -1.237132570905    0.587756392324
H     -1.573105213628   -2.069636309850    2.134997143397
N     -0.529630811468    1.125528031559    1.265963613984
C     -1.451315586239    2.033562638109    1.175986156059
O     -1.322982246009    2.996354336447    0.227070567025
C     -2.690605194239    2.185233138307    2.021719029241
H     -3.575631826233    1.872711698710    1.454033379749
H     -2.628872852966    1.601633773951    2.943738859979
H     -2.817664979361    3.244230767053    2.268155075259
N      0.441933590624    0.582068460542   -3.320082793688
C      0.298177918663    0.419629677089   -4.661456141309
C      0.068932281139    1.482208629497   -5.548186500270
C     -0.003482669003    2.786970314654   -5.009450798420
C      0.151315817911    2.973629594548   -3.631132787440
C      0.366767091997    1.833956079520   -2.807437479845
H      0.372225135390   -0.603240321233   -5.024128017589
H     -0.041716922640    1.298205362204   -6.612083156608
H     -0.172181514853    3.643578492097   -5.657769141359
H      0.113943354702    3.957816611815   -3.176001855378
O      0.473059405325    2.019419218697   -1.463385495345
H     -0.613192916253    2.767096049427   -0.474438390348
