41

H      2.804625949693    2.724958113929   -1.867349121892
C      1.502935324139   -0.803100992803   -3.513675137564
H      2.229775137203   -1.500273969773   -3.103733592035
H      1.861690926344   -0.048302788860   -4.206228600412
C      0.151824611745   -1.026841530018   -3.309951386780
H     -0.613026167828   -0.457215735625   -3.830601953774
C     -0.311718202471   -2.255910144527   -2.582330404198
O      0.316129579424   -3.322050327618   -2.525111427661
O     -1.548274734176   -2.050549618090   -2.013970101872
C     -2.039415186048   -3.119827039676   -1.114470766307
H     -3.039248241673   -2.800037621075   -0.818345010840
H     -2.068556691238   -4.074712539105   -1.647785160726
H     -1.371499836771   -3.190496228976   -0.250590997153
Pd     0.883980731546    0.495887371555   -1.711559840856
C      0.583325270472   -0.766107198534    0.809953995964
O      0.232357327436   -1.633206935897    1.633739086911
O      0.997538193931   -1.062158943485   -0.443986466052
C      0.544320276565    0.745140589750    1.159735775462
H      1.113715941063    0.858474092414    2.089576441627
C     -0.913393649589    1.191143189054    1.412033321017
H     -0.948729156400    2.240495453542    1.728253046238
H     -1.512218421848    1.087154923068    0.498712672308
H     -1.357377539191    0.566746109609    2.194852440748
N      1.184365805546    1.500554999191    0.051810177324
C      2.089449785294    2.454503861349    0.264094636264
O      2.811555090410    2.990496779091   -0.682489887814
C      2.372540128659    2.992400804696    1.660283627799
H      2.888973031974    3.947871397715    1.551370992439
H      1.460791289450    3.132411327416    2.248844468950
H      3.034622252149    2.306208774024    2.204586877523
N      0.496225467214    2.087818137349   -2.995659337777
C     -0.797208100275    2.297965347383   -3.398210610701
C     -1.123118791010    3.208252921381   -4.397818821394
C     -0.069877730657    3.928733890663   -5.021405842845
C      1.242419671142    3.741178055973   -4.597644289711
C      1.526174812571    2.827878048586   -3.538024388398
H     -1.558932945228    1.710976127443   -2.894739509289
H     -2.158505054442    3.348574530477   -4.687770819769
H     -0.288774285398    4.635195593906   -5.817853786574
H      2.077388048011    4.286249831173   -5.023030671844
O      2.747188384155    2.670459211366   -3.056531757908
