41

C     -0.880124870820    1.897617602061   -1.335815971132
C     -1.689535454233    2.995942939678   -0.984792378835
C     -2.133518831049    3.881240758498   -1.990219549096
C     -1.788592212859    3.663602363411   -3.337543877591
C     -0.992766971398    2.554076619313   -3.680451176613
C     -0.531485511846    1.669120460517   -2.682975933413
H     -2.440736797848   -1.782368737535    2.837875557062
H     -1.989328778339    3.162455732431    0.043966443361
H     -2.756268953707    4.730019195707   -1.715449557678
H     -2.139566986775    4.344633611414   -4.109078473998
H     -0.726219037069    2.371788271806   -4.719411303807
H      0.082447797812    0.819528515119   -2.966201122958
Pd    -0.228990533586    0.648115967894    0.077175923114
C     -1.485507130588   -2.105473839181    1.164198516419
O     -0.413214102425   -2.446617463846    0.604346807291
O     -1.756778634131   -2.446117171702    2.441562715932
C     -2.504459201949   -1.142005261050    0.520947782039
H     -3.488068702694   -1.327413921367    0.968792741514
C     -2.602782718641   -1.276327961435   -0.999239728709
H     -3.241526300627   -0.480264331096   -1.396230989399
H     -1.623129164925   -1.202806086142   -1.480035766734
H     -3.042442927660   -2.246842967087   -1.262285489068
N     -2.031748470392    0.216779681747    0.963787515043
C     -2.396843062277    0.560740015042    2.232187393816
O     -3.005091853910   -0.269209683226    3.021897905653
C     -2.095629662665    1.958981436010    2.730076045555
H     -1.375985007502    2.475687432913    2.089545762411
H     -3.029340622176    2.535494518019    2.762339209123
H     -1.708237949481    1.904666895838    3.752596590223
N      1.711471396076    0.582786049464   -0.677874056662
C      2.454605233635    1.728782545229   -0.811207832209
C      3.758385793319    1.722882899132   -1.297418057462
C      4.330534266907    0.483622257352   -1.675727848105
C      3.584377154588   -0.686151111931   -1.544169744535
C      2.263922295544   -0.618924210305   -1.029833299229
H      1.956938587375    2.647478047968   -0.525461997865
H      4.307670872743    2.653583245706   -1.384972201419
H      5.344368258696    0.440594267779   -2.063813699361
H      3.971741955205   -1.661793888471   -1.812887318624
O      1.587211331458   -1.782913035409   -0.944564357322
H      0.750979796772   -1.905619770057   -0.385702016170
