53

C      2.087833971439    0.970773811947    1.061782743414
C      2.620327667639   -0.352608203109    1.032405985381
C      3.746394947439   -0.646854245121    0.213467786821
C      4.334809444798    0.364849853975   -0.552501784684
C      3.813103398919    1.686608945851   -0.523135932831
C      2.703091788547    1.985806497630    0.269229793076
H      0.907030390249   -2.394202251683   -0.583265018764
H      2.270496582670   -1.089600506889    1.748741174518
H      4.167247573431   -1.649737051772    0.215005722549
H      5.206953054698    0.145212685266   -1.164229806479
H      4.286357413290    2.465909817211   -1.115096543448
H      2.295626647616    2.991723475109    0.301850495234
C     -0.385388054444   -0.843316041311    1.622142030767
H      1.346959585493    1.273079040324    1.797139294669
H     -0.267944189839   -1.919255729578    1.791508167467
C     -1.112473109893   -0.132233408938    2.510766783603
H     -1.595346864565   -0.628193492946    3.354358741548
C     -1.389329100955    1.327209951238    2.403979743440
O     -0.559613339866    2.222309630936    2.151816823794
O     -2.715757109945    1.595011802040    2.665389314902
C     -3.158450231032    2.987833621395    2.452050758057
H     -4.220852839199    2.986024212181    2.699552135905
H     -2.599829046618    3.666941255458    3.104048021084
H     -2.995566561437    3.259740268005    1.405110103505
Pd     0.345326223895   -0.176503601866   -0.121977787510
C     -2.533966171529    0.686509258753   -1.298402935928
O     -1.578120720071    1.275535862773   -0.598030670480
O     -3.454501925225    1.258466766878   -1.934975082806
C     -2.545965592536   -0.869360492036   -1.285668309387
H     -2.895676413994   -1.162367372360   -2.284386473518
C     -3.569180018940   -1.354697436409   -0.228274894737
H     -3.669732413095   -2.447782276914   -0.241451072652
H     -3.263877625351   -1.040444067589    0.773758291790
H     -4.544583099814   -0.910515734791   -0.452701991423
N     -1.192924819128   -1.437793423637   -1.041498482419
C     -0.865564022546   -2.646218461526   -1.371631255490
O      0.403380381864   -3.104143477266   -1.073498150731
C     -1.683127215043   -3.699919948591   -2.068748543393
H     -2.631326352708   -3.306925872732   -2.438059825825
H     -1.106901539538   -4.109045281122   -2.905479862081
H     -1.884895171380   -4.525982718754   -1.376318735311
N      1.045404434912    0.516593755151   -2.087168362262
C      1.777079043492   -0.316454269901   -2.887177056412
C      2.349659001109    0.091705774843   -4.090424607977
C      2.164092490455    1.435809614652   -4.498121452152
C      1.406070857547    2.293214571697   -3.703856731573
C      0.829877466643    1.809950668047   -2.496135299716
H      1.904510593294   -1.333002956336   -2.531676039966
H      2.922192491071   -0.611121114887   -4.686167351820
H      2.597682303384    1.794087621505   -5.428345758165
H      1.208955337637    3.323766786904   -3.976093843019
O      0.090056924399    2.646753452726   -1.757154522339
H     -0.676189286725    2.181071022854   -1.172329345656
