41

H     -3.015500931278   -1.893546755278    3.035202874314
C      1.665280858653   -0.735366252576    2.475899205447
H      2.705790364563   -0.647527041522    2.169742890316
H      1.298041655624   -1.702044198585    2.813062251813
C      0.905001000186    0.413808879059    2.651365794301
H     -0.075448764063    0.371403931819    3.115530646596
C      1.514365660067    1.777506061639    2.533460937899
O      2.724313035950    2.028445343661    2.434043658714
O      0.531006592626    2.746290503295    2.588588935038
C      0.979956208048    4.151143739639    2.512641977302
H      0.065719382299    4.742367755131    2.571475131514
H      1.649264442469    4.374144834531    3.349223459485
H      1.505835440985    4.323440171388    1.568561368359
Pd     0.528727332025   -0.320468367705    0.521807168321
C     -1.252287804661   -2.784329563537    2.956277625202
O     -0.238445216797   -3.223266988136    3.527875159692
O     -2.368602186936   -2.405239257866    3.639035080542
C     -1.346177143149   -2.577209852247    1.419496707601
H     -2.356181540766   -2.888196597758    1.116210061432
C     -0.311742048856   -3.414104439456    0.660912855036
H     -0.406223372572   -3.248129456863   -0.418280489543
H      0.711612735978   -3.179218277024    0.969818804222
H     -0.476579530841   -4.477923750103    0.866790799859
N     -1.243170099665   -1.116127978587    1.110606766355
C     -2.353753925976   -0.352986734112    1.306474644159
O     -3.412240361880   -0.838918622302    1.864901743542
C     -2.338859954520    1.100120681536    0.871609898366
H     -1.760816380011    1.251126326385   -0.046203825843
H     -3.372365451811    1.421493865281    0.716358644000
H     -1.898305355441    1.730066157206    1.655367440935
N      0.373563183574   -0.326120438382   -1.552558325896
C     -0.410983599651   -0.653165910537   -2.607168066738
C      0.045026635757   -0.433067808781   -3.910872807391
C      1.336330527999    0.131238164573   -4.096517575233
C      2.145036406732    0.464851705943   -3.003753562913
C      1.627955594663    0.219706581767   -1.710218542264
H     -1.384782965148   -1.079637758561   -2.390789607308
H     -0.581572027898   -0.691539542194   -4.757107646055
H      1.702646171177    0.305595968714   -5.105107769910
H      3.134515520659    0.893318855307   -3.115411751511
O      2.206821340085    0.448630379370   -0.517278317435
