41

C      2.770148273322    2.349338607551   -0.233090093493
H      2.247380243500    3.300869895495   -0.268941607845
H      3.523989560675    2.141524340234   -0.987633055082
C      2.645251919864    1.547322717140    0.898000612358
H      3.275363389883    0.674945074811    1.057231606074
C      1.862613553068    2.018084470114    2.082392492969
O      1.549357387789    3.193659166996    2.320528455161
O      1.572684501001    0.961495520407    2.920945179201
C      0.711487895309    1.264483492447    4.076956214007
H      0.583751015845    0.311359295169    4.591979245681
H      1.193502289512    2.002995071867    4.726034836717
H     -0.247126433791    1.656377799325    3.723946177114
Pd     1.275098537719    0.734177297889   -0.702270430098
C     -1.502502622432   -0.788009479832   -3.693698488674
O     -0.148397050153    1.791062937449    0.141742700864
O     -2.103768575541   -1.600283079678   -4.417298315208
C     -0.944112342775   -1.249960505415   -2.324631800892
H     -0.820916682554   -2.329738952247   -2.504732624519
C     -1.973900303648   -1.128516191352   -1.177666063320
H     -1.566443181389   -1.627820492890   -0.291402493338
H     -2.173107657263   -0.085471986422   -0.939920609531
H     -2.909129271866   -1.624842693798   -1.463994668907
N      0.355695684059   -0.667266700495   -1.987259326262
C      1.526821532605   -1.224412744410   -2.321346048271
O      2.573462395288   -0.611098002381   -1.786193527575
C      1.741491192779   -2.445114277409   -3.182627334656
H      1.482447328762   -3.358155816384   -2.629877576892
H      1.133947798344   -2.420999975757   -4.094498875998
H      2.798838703070   -2.496915051893   -3.453159734244
N     -1.197600931387    0.526485984365   -4.253543921867
C     -0.989834691064    0.580253128232   -5.637152477649
C     -0.641110242733    1.747247036850   -6.261867087460
C     -0.503518384626    2.944419024518   -5.476375158341
C     -0.763484511344    2.922420468668   -4.126193963280
C     -1.202902340883    1.714073772198   -3.449914686880
H     -1.115649294957   -0.360803207503   -6.158363194890
H     -0.465239645682    1.752391354101   -7.331231572073
H     -0.203748472856    3.871511519621   -5.958166565133
H     -0.701058205368    3.809965038935   -3.505896092463
O     -1.616257105327    1.676223777264   -2.259293120653
H     -0.861643595529    1.891404776757   -0.536259686101
