53

C      1.060951254721    2.867733585809   -1.062140482513
C      2.168730770929    3.572591437800   -1.575793366795
C      1.977747732355    4.618195058829   -2.503918342587
C      0.680892861455    4.963409928343   -2.928158377523
C     -0.426360652023    4.254546092635   -2.421515669607
C     -0.238658638772    3.207908533467   -1.495364614010
H     -3.507252180350   -2.666559800267    3.490453186209
H      3.180647803756    3.327699946083   -1.256774911780
H      2.840004322376    5.161416649467   -2.886272211846
H      0.535156900552    5.770657679472   -3.642612534405
H     -1.432591582061    4.506445038210   -2.752661657228
H     -1.099825502280    2.655656577637   -1.124989648594
C      2.485555437493    2.482935598358    1.746836825096
H      3.058724089721    3.257471717187    1.244604020438
H      3.011157617585    1.649644140277    2.202508820008
C      1.145437846612    2.692857441740    2.051430424757
H      0.635473866520    2.026072674669    2.741093632230
C      0.488825204130    4.003953537688    1.779162621335
O      1.059843405270    5.060524244381    1.459080664354
O     -0.878909015565    3.920207094523    1.976245035119
C     -1.647956827017    5.152213104204    1.729820116929
H     -2.685252479650    4.884003247020    1.936010935456
H     -1.306930988135    5.950282762677    2.397334100255
H     -1.518157108834    5.469037881910    0.690231859517
Pd     1.271749971769    1.332513070502    0.217762441910
C      1.045104963830   -0.671152392114    2.675929423973
O      1.343437813593    0.010330355233    3.698619221932
O      1.397598939332   -0.456125886039    1.431468350565
C      0.133877119133   -1.922107821727    2.834110153889
H     -0.258923218281   -1.951474807004    3.852721900731
C      0.900448691786   -3.220671837742    2.505923223638
H      0.249559937600   -4.098200331119    2.604060455945
H      1.303323046062   -3.175114786832    1.489144202134
H      1.736873551838   -3.330296424359    3.205785275171
N     -0.992964939675   -1.732756081409    1.877272899472
C     -2.235809004419   -1.994076116346    2.132334038823
O     -2.545876723160   -2.542495927087    3.353502952086
C     -3.343560241258   -1.716499281753    1.153323708025
H     -4.032918698210   -0.968145230555    1.567742175488
H     -2.918194906516   -1.333383264673    0.222058704585
H     -3.911680086178   -2.633435556768    0.947543800603
N      1.039602165158    0.058660167884   -1.441106370026
C      1.955540138860    0.061770921890   -2.453530479703
C      1.900310868438   -0.827025667302   -3.524422816522
C      0.831354673154   -1.757392995476   -3.560743955397
C     -0.113395980633   -1.760120445286   -2.538990963731
C     -0.015076733089   -0.837303553296   -1.444247084520
H      2.735827579549    0.811467150673   -2.388331336289
H      2.653029710289   -0.787575280627   -4.304151340598
H      0.746427383772   -2.463297163208   -4.384158036305
H     -0.950925640614   -2.450384036598   -2.533265640645
O     -0.906103038351   -0.819446459454   -0.478516485399
H     -0.775203848245   -1.295831301847    0.872541223699
