53

C      2.418014150545    3.207748575027   -0.470373400695
C      3.463766849802    2.760695301235   -1.328943376797
C      3.318174878302    2.853041180428   -2.715341485017
C      2.127651380679    3.387254065505   -3.277565045829
C      1.086244836268    3.816674854554   -2.449896988940
C      1.219725854635    3.735978503936   -1.035088811165
H     -1.845356525145   -0.007920910869    1.381941565955
H      4.375292708787    2.358790061220   -0.896458615486
H      4.121802557307    2.523080587961   -3.368827924207
H      2.032628559031    3.466865716449   -4.357830719154
H      0.179014099627    4.238525340767   -2.873890503448
H      0.469280807099    4.204255014778   -0.407770195001
C      0.985123499120    2.534678399770    2.725598824683
H      0.613739854547    2.995088034027    3.641016109090
H      1.983021449803    2.100581514192    2.761782754337
C      0.220218179427    2.480114478687    1.615341479109
H      2.602925949160    3.301546689011    0.594661651247
C     -1.167809428583    3.020160891715    1.559777154674
O     -1.793824967404    3.220818997101    0.493052096536
O     -1.725487493224    3.270420682663    2.795804630634
C     -3.152139891744    3.645299619306    2.813827131192
H     -3.376250991919    3.842866703972    3.863335431396
H     -3.322393039334    4.534381012006    2.198639135092
H     -3.746082880383    2.809321163446    2.432197177986
Pd     0.724762010803    1.515479089163   -0.080301131320
C      0.375392682459   -1.061381230660    1.352164316707
O     -0.335101303499   -0.095479567814    0.790955781170
O      1.634532191576   -1.168898732432    1.206807619487
C     -0.389796777115   -2.118383493199    2.179264415639
H      0.398114213493   -2.711622071295    2.651495322819
C     -1.184812142523   -3.045505836245    1.217438854567
H     -1.653560856846   -3.842943718829    1.804293015595
H     -1.969947705950   -2.494314201380    0.688069374936
H     -0.513500939870   -3.503611782574    0.480291634350
N     -1.249970819218   -1.632778335306    3.280512637227
C     -2.210839328507   -0.772014540026    3.184961254066
O     -2.581598696836   -0.025837608844    2.069300969029
C     -3.106063199764   -0.475415585868    4.361338785671
H     -2.838320180726   -1.118632578745    5.201386207820
H     -3.003124810636    0.577425933532    4.652871100726
H     -4.154439428198   -0.640349096081    4.082839515394
N      1.137940590997    0.335713786662   -1.860227208797
C      0.311495995746    0.472970178677   -2.938097461328
C      0.566331986721   -0.146407500419   -4.162202751209
C      1.732625912379   -0.939006527435   -4.282822196402
C      2.567610867886   -1.108622040066   -3.176265895087
C      2.228253514228   -0.479572828107   -1.952438551848
H     -0.559261419254    1.102989806176   -2.790891054831
H     -0.118834079099   -0.012772417909   -4.992307910732
H      1.970133817663   -1.428217720489   -5.223891111874
H      3.454776216581   -1.730802759210   -3.202558422476
O      3.013148676661   -0.682047657919   -0.870941533388
H      2.506521088798   -0.744084170032    0.028472269835
