41

C      0.926108181532    1.626172999318    1.320274128462
H      0.146338785398    2.354480013285    1.069210652628
H      1.903095062681    1.987241973583    0.974858321930
C      0.991729797734    1.363919934992    2.819418126721
H      1.802643888674    0.672079942516    3.068003078945
C      1.245728743093    2.650103976435    3.613896630828
O      2.324798486831    2.912681206537    4.167796283900
O      0.174881556579    3.506891935491    3.579971207164
C      0.321588624797    4.790711313603    4.294731886578
H     -0.628526932715    5.303993398228    4.144030391786
H      0.507696803486    4.607184724366    5.357360700768
H      1.153336763477    5.363201899732    3.872436183872
Pd     0.564920205253   -0.100840850634    0.316390493384
C     -1.653051924650   -2.846705401479    1.259364037771
O     -0.730045824856   -3.412256780697    0.453014054286
O     -2.180285160124   -3.480786491803    2.193430517368
C     -2.084319359638   -1.367272782857    1.013285467359
H     -2.996344394233   -1.255198113909    1.604269861393
C     -2.429883603051   -1.048515737197   -0.451625263131
H     -2.793285663900   -0.017039302717   -0.530785286358
H     -1.577063049315   -1.170641959914   -1.123100080081
H     -3.230656628892   -1.721076071644   -0.784568691323
N     -1.036291209448   -0.433770610599    1.562542515648
C     -1.138850347286   -0.032477402943    2.802741234991
O     -0.249594493519    0.795957546988    3.414948783034
C     -2.242218896079   -0.411870217144    3.769221110019
H     -3.194758111748    0.042213198238    3.466688401681
H     -2.376539257627   -1.497588138063    3.803336486021
H     -1.982037646832   -0.039700310229    4.760985620172
N      2.105197279436   -0.207651323733   -1.075710761954
C      3.221251266599    0.437085257206   -1.492471125985
C      4.030434626183   -0.099351260493   -2.500692948455
C      3.658984043365   -1.340395761742   -3.077200550580
C      2.507069699646   -2.010452622165   -2.648635588497
C      1.725875736402   -1.416262617990   -1.628190399923
H      3.455194487601    1.381054271868   -1.010113480083
H      4.920512006085    0.429254596812   -2.823645908210
H      4.275155691296   -1.777644338081   -3.859092273800
H      2.197164230443   -2.961557943219   -3.067159447306
O      0.592730770365   -1.880483000748   -1.101688544050
H     -0.215775386118   -2.852803088901   -0.224912940986
