38

C      1.135221919031    1.708217860039   -0.326162831974
H      0.432517981531    2.493872530688   -0.602188881394
H      1.665678422243    1.237102200882   -1.152868020196
C      1.760490414339    1.770431772764    0.960779378177
H      2.724914775223    1.299755587130    1.136185666977
C      1.388221029089    2.816377404773    1.927536592201
O      0.527081066146    3.712988683105    1.799699861825
O      2.151121572452    2.700871220825    3.102351584357
C      1.862252712688    3.677894808151    4.161734537204
H      2.565671139512    3.445662311832    4.963969433554
H      2.013815487676    4.697186873867    3.791807519569
H      0.827537229768    3.574176701873    4.505705695981
Pd     0.205233609429    0.257618432616    0.920660816539
C     -1.253607715403   -1.840238780619   -0.951000100591
H     -0.264181168995   -2.273423020452   -1.097161103300
C     -2.412479561798   -2.523842413105   -1.630364077933
H     -3.367064450417   -2.022940571789   -1.442320674918
H     -2.237784015797   -2.574279399025   -2.713806378683
H     -2.488689254897   -3.558945129316   -1.269854380513
N     -1.316432310293   -0.791052166532   -0.195980761295
C     -2.478311255047   -0.071241468106    0.189314871840
O     -3.117977456562   -0.433784010780    1.216450806872
C     -2.852196662532    1.154576684254   -0.612843801411
H     -2.335116719763    1.185667961560   -1.575302815445
H     -3.938440674666    1.168015996927   -0.756760592808
H     -2.579912648207    2.051787560126   -0.044424596184
N      0.121304323715   -0.875860475379    2.937185930606
C      1.243758547308   -0.599745487130    3.679672749093
C      1.655179918449   -1.383193190340    4.760101761136
C      0.877752883405   -2.510084416972    5.113331556891
C     -0.287359570869   -2.782337996011    4.394884883476
C     -0.651039965102   -1.929053275932    3.322171738495
H      1.802978016714    0.280123083655    3.384151642889
H      2.555113638088   -1.118821159308    5.305320246974
H      1.170606762700   -3.148877285097    5.942573657820
H     -0.943586228523   -3.611018744410    4.634853420096
O     -1.815417615086   -2.224852195700    2.681641441074
H     -2.259881426070   -1.494139031036    2.149572713473
