17

H     -0.990604127336   -2.858947855342   -3.329074278704
H      0.562329613023   -1.992005499231   -3.201646736983
H      0.498871171839   -3.746007727341   -2.912358508625
N     -0.884091951042   -1.284675230561   -0.958849112644
C     -2.005730444631   -0.589040580884   -1.156075416384
O     -2.011195501229    0.546244590221   -0.477135001111
C     -3.146127335121   -0.996602525815   -2.043903941229
H     -3.036693918182   -0.527403842011   -3.029918864891
H     -3.191551995053   -2.082098703105   -2.177906559094
H     -4.082452288486   -0.640012162276   -1.604358801877
Pd     0.013729806309   -0.167529580806    0.338590763377
C      1.082681437228   -2.666247543005   -0.496452378853
O      1.385903717656   -1.629538082110    0.337541491649
O      1.836078238379   -3.641172906288   -0.643563590334
C     -0.277790530127   -2.582543029060   -1.272883915290
H     -0.907689692431   -3.395569625260   -0.879298087905
C     -0.042910770842   -2.802954588334   -2.781104032619
