53

C      0.975054046679    2.494257533897    1.697371362457
C      0.258689117004    2.526838624445    2.911300625082
C      0.772600590472    3.250202246288    4.008417190357
C      1.999508607840    3.934310008538    3.899929086652
C      2.715347853033    3.891474850639    2.687950315361
C      2.206815610939    3.169895425928    1.586736603305
H      0.268521637855   -0.047449226136   -2.924216208398
H     -0.682829450712    1.991996910407    3.013611979329
H      0.217811428216    3.267150161137    4.944386576531
H      2.395336208485    4.486324903770    4.749361810214
H      3.666077820475    4.413068631844    2.595762985734
H      2.776309635791    3.147578704275    0.658913606465
C      0.127502453264    3.177115424558   -1.247150614368
H      0.837181185434    3.940028586764   -0.944957572078
H      0.308274884117    2.645972617821   -2.177221689107
C     -1.103793811331    3.080759924109   -0.609415963224
H     -1.896799382491    2.455311991978   -1.010249784051
C     -1.564673336037    4.019106793969    0.460203054129
O     -2.616706055843    3.865339587478    1.105075168273
O     -0.722053052513    5.094555170679    0.621268458349
C     -1.045115143230    6.040410112077    1.706782162994
H     -0.325403453003    6.851908759696    1.594782081611
H     -2.072645825765    6.400652724132    1.598635887019
H     -0.924884815827    5.539829993469    2.671866620251
Pd     0.238387505409    1.408588847785    0.172467929520
C     -1.496156184048   -0.640865254460   -1.393069425533
O     -2.011984957918   -0.953916914853   -0.274506817580
O     -0.532957249581    0.259783058537   -1.521805471876
C     -1.961447069455   -1.302347207508   -2.710530892914
H     -2.080765194651   -0.471252728210   -3.428072755045
C     -3.293186028834   -2.040258904061   -2.541583693066
H     -3.581008521368   -2.484885739037   -3.500498678791
H     -3.186420692858   -2.840574393399   -1.803865212471
H     -4.084988894038   -1.360402501325   -2.204661766575
N     -0.950664219197   -2.269025519166   -3.238069271878
C      0.201531393187   -1.882071544677   -3.689569575221
O      0.714049755732   -0.587066727082   -3.649582544723
C      1.144487636506   -2.840351695326   -4.366919825887
H      0.682254904017   -3.826681563217   -4.437903168330
H      1.388323103597   -2.471015729307   -5.370889330895
H      2.085604627272   -2.908966723240   -3.807166264417
N      1.109490174893   -0.257522322049    1.147169204187
C      2.457626916266   -0.470612838014    1.080257343590
C      3.091970578375   -1.449104653287    1.842969208577
C      2.307164885499   -2.230712051088    2.724292715364
C      0.927873036234   -2.026607345614    2.783483641766
C      0.334395450659   -1.037161949642    1.961152857709
H      3.014369288515    0.173567425534    0.409666304551
H      4.164354999527   -1.587651422915    1.761610560087
H      2.772042223814   -2.992300832351    3.344437575703
H      0.276518556351   -2.609294514321    3.424284151830
O     -0.997261493589   -0.838241973828    2.002758141907
H     -1.475566702385   -0.774382914136    1.069227609094
