41

H     -1.539569614332   -0.054422825498    3.199702394316
C      1.309045286157   -0.846038939318    0.664581343824
H      2.122159023093   -0.606927628863   -0.010675337608
H      0.501155366973   -1.452653755987    0.264032430495
C      1.373277765394   -0.569537164993    2.027413781003
H      0.628572034211   -0.953882508865    2.721783527615
C      2.593018254134   -0.024605505215    2.706809953576
O      2.583022842057    0.447948855616    3.858161801375
O      3.721145168708   -0.142367212438    1.937016251995
C      4.976000349542    0.409993345627    2.487143903110
H      5.742658129976    0.130169533293    1.764462591378
H      4.890002549987    1.497473984415    2.568857489051
H      5.176654748355   -0.024257909484    3.471149806189
Pd     0.218140630050    1.138277748401    1.036820570129
C     -2.334184758392   -1.574760455997    2.252590123694
O     -1.698093991364   -1.019081303185    3.349954852494
O     -2.597634671098   -2.777288240676    2.206140144382
C     -2.704176780128   -0.559864357408    1.144976512412
H     -3.746478935065   -0.268295872793    1.358991681998
C     -2.668076231778   -1.219884424446   -0.249094224095
H     -3.073106173904   -0.537969199131   -1.005132697691
H     -1.642286297658   -1.474070857206   -0.536220498861
H     -3.259959671532   -2.140196873581   -0.240726783683
N     -1.835613027277    0.622776817479    1.258375243163
C     -2.225527518232    1.875953697176    0.973726847223
O     -1.212768756092    2.727500316143    0.905807778610
C     -3.627667815046    2.361359622971    0.722385901849
H     -3.984316573757    2.025392911642   -0.259733212720
H     -4.326966613015    1.993846851100    1.482597641872
H     -3.625452362821    3.453848373095    0.732756822014
N      1.899033490739    2.211842009375    0.725591973996
C      2.328505309055    3.141629177813    1.632440521518
C      3.370714611849    4.010824156190    1.343975879010
C      3.981153973623    3.918991432624    0.055259534065
C      3.540262029428    2.988732547738   -0.870529523175
C      2.443876671845    2.087398300365   -0.570039226924
H      1.814542427278    3.161367827541    2.589269533231
H      3.692317976975    4.738920264381    2.080142245840
H      4.795760888978    4.592880303401   -0.202317659628
H      3.975354862660    2.906699819371   -1.861531075025
O      1.957531758231    1.224191877576   -1.381073330143
