53

C      1.598105833332    2.826031269919   -0.326520901721
C      2.972310229239    2.739865600094   -0.659721589547
C      3.784991434699    3.892197651432   -0.664281545526
C      3.237344150585    5.151583324595   -0.348273922125
C      1.872012665365    5.245739051002   -0.018447300050
C      1.058308309203    4.091406543849    0.000624310226
H     -1.505792573150   -0.602884417894    1.912683392836
H      3.413172899538    1.780092735297   -0.921246738193
H      4.839611440163    3.804808294507   -0.920563007657
H      3.863761528967    6.041219908292   -0.358188404284
H      1.437785487808    6.212823473506    0.231623157466
H      0.013810984398    4.178305879888    0.287661678066
C      0.332333884332    0.134075933131    2.569024503450
H      0.312356487874    0.396149161316    3.635095681313
H      1.324807988877   -0.264398442690    2.345907478288
C      0.004003106842    1.360863347811    1.689830979220
H      0.629849943268    2.199041293331    2.001009568439
C     -1.418895754989    1.709149381085    1.658522768497
O     -2.372966369261    0.868743041988    1.812092746887
O     -1.707572418979    3.038702523533    1.446567280447
C     -3.121242648787    3.393935641341    1.228175898533
H     -3.113697400473    4.472792269493    1.065234331354
H     -3.511211512580    2.865727925499    0.352297406735
H     -3.720586229266    3.133922732811    2.105882331462
Pd     0.495863388978    1.146691101932   -0.397642871597
C      0.267114413365   -1.674389679051    0.227483901907
O      1.380456344208   -2.056220579285   -0.275441607667
O     -0.568180948574   -0.823424023298   -0.278912008620
C     -0.126155106117   -2.240985048682    1.604325920954
H      0.762820559337   -2.595486601932    2.131177505609
C     -1.174287592069   -3.357485915960    1.456411860098
H     -1.439956767852   -3.810781581782    2.418893803594
H     -2.076935936456   -2.984923229319    0.958324075038
H     -0.746981688124   -4.146900772123    0.828918900912
N     -0.684653050608   -1.054134500920    2.412878379634
C     -1.146626820063   -1.524511657737    3.787156892164
O     -0.317432289237   -2.030632281156    4.540281863164
C     -2.606563984399   -1.308944862528    4.066960799913
H     -2.832784177780   -1.597406618658    5.095130145791
H     -2.880552572354   -0.264117800379    3.879415093027
H     -3.211341726897   -1.909187012498    3.373166890044
N      0.908198235294    0.990929025449   -2.502037695619
C      0.401810175393    2.015958136066   -3.259700628329
C      0.570588501174    2.099560575017   -4.639044600110
C      1.313917320224    1.082732175814   -5.285814835626
C      1.834622252211    0.036299507225   -4.529408746309
C      1.612083899353   -0.001545885149   -3.123668475469
H     -0.130011285938    2.783878582346   -2.711020499193
H      0.149691688699    2.935830045486   -5.186708232512
H      1.478000336785    1.115088835634   -6.359840498962
H      2.409298991233   -0.772330400316   -4.966061177935
O      2.159551617759   -1.030535211622   -2.455920402314
H      1.805307636295   -1.358597758905   -1.538056232711
