53

C      2.156208564453    2.866876076039   -1.861316854613
C      1.516972714187    4.077084477691   -2.210757247345
C      2.029593956424    4.855219501084   -3.269530766868
C      3.159704386155    4.421142786234   -3.991863406711
C      3.779192845617    3.201196919069   -3.656723224331
C      3.270084669859    2.414792464567   -2.601051519109
H      0.445240977578   -2.856153808434    3.210581346580
H      0.640309144728    4.405551660153   -1.658372721247
H      1.543528531259    5.793350540357   -3.531293712494
H      3.548311853840    5.022877260479   -4.810744906141
H      4.649305244235    2.858950785396   -4.214070158493
H      3.753419515458    1.469240230181   -2.356055023129
C     -3.342319981766    1.958004888245    0.462669886182
H     -3.686029125597    2.024725736458    1.499321721713
H     -3.811436006688    1.086732726359   -0.005961215469
C     -1.817177876955    1.794147117144    0.430850578645
H     -1.529691747206    0.843344513798    0.897340707639
C     -1.085306411820    2.921615824303    1.160988828957
O     -0.182844031608    3.649849249263    0.711724064358
O     -1.556376626449    3.031298685253    2.445030198518
C     -0.819707590232    3.941587659878    3.343823389541
H     -1.333846896154    3.864102675916    4.302690440993
H      0.219068485957    3.607028372366    3.419169370498
H     -0.854341847485    4.964715481596    2.957467330833
Pd     1.614641686246    1.934058358569   -0.200041889224
C      1.292573200732   -0.184234123484    1.917542428954
O      1.983438886956   -0.965194243197    1.199184197162
O      1.111938604132    1.106184881894    1.703921195454
C      0.570353331892   -0.719842193719    3.183741213003
H     -0.218574322666   -0.003436689664    3.430935645071
C      1.566213202384   -0.850389893230    4.351067542399
H      1.061045506340   -1.200096173223    5.260551903976
H      2.372175805544   -1.550650457044    4.094615802979
H      2.021485330058    0.123100148820    4.562002959366
N     -0.054227212096   -2.026326896708    2.913728465258
C     -1.109817328715   -2.161671483396    2.054651830480
O     -1.667793037609   -1.162848801317    1.511668876461
C     -1.587202289174   -3.580792486051    1.782510923379
H     -2.668669524953   -3.633111396530    1.947539540942
H     -1.400334888113   -3.824100385819    0.729901365793
H     -1.092383626086   -4.329075632516    2.411373357444
N      0.559777445783    0.500882263497   -1.305842361675
C      1.184728755280   -0.592453191016   -1.822678019538
C      0.504840344839   -1.517469327524   -2.622631762220
C     -0.863296850121   -1.310404347964   -2.887714874077
C     -1.509727676540   -0.201160808365   -2.324616794514
C     -0.769231809164    0.685877868219   -1.522116071119
H      2.226282583324   -0.716190718170   -1.559414856920
H      1.037940975748   -2.373815502277   -3.021235274169
H     -1.417618692146   -2.006220062914   -3.511557273419
H     -2.563809904518   -0.003207378106   -2.480991207726
O     -1.384338202235    1.805977238430   -0.996067466572
H     -3.647088354938    2.861236916079   -0.078237950397
