53

C      0.809648583398    2.673858451547   -1.602148149008
C      1.961583573912    3.319034363601   -2.097795331184
C      1.908897785979    4.027254535663   -3.317368630830
C      0.708447808956    4.092121832759   -4.049775157342
C     -0.437837947831    3.434665322296   -3.562660383881
C     -0.388675285745    2.722698089689   -2.345999810611
H     -2.641617111586    1.225114104430    2.926788540278
H      2.905016907626    3.269232688672   -1.556210859724
H      2.804393893376    4.520069664133   -3.691199264393
H      0.669025819034    4.637711822205   -4.989744285447
H     -1.365975075347    3.463853128409   -4.130165981341
H     -1.270943136597    2.188809839118   -2.001162262779
C      1.397993736445    3.503842117091    1.220134939168
H      2.010704272429    3.160625371358    2.048535821290
H      1.868334477277    4.106381534230    0.451568449936
C      0.005819203005    3.435224325871    1.312969361620
H     -0.637087593490    3.938995617440    0.596598289837
C     -0.676942160991    2.973235380841    2.549681492184
O     -1.906825085104    2.695569211449    2.606298711045
O      0.137321931445    2.939943144021    3.633882486115
C     -0.352971650571    2.295219089041    4.867080802289
H      0.425672688918    2.481607018116    5.606456107641
H     -1.305099070275    2.739276170486    5.174180326855
H     -0.464719074191    1.223585952347    4.682782788259
Pd     0.777643360054    1.640073678166    0.127397428824
C      0.663126198842   -0.733627111211    2.291018777427
O      0.477550592699    0.529032604437    1.957751516521
O      1.713552697571   -1.251368132003    2.743080230065
C     -0.623596409349   -1.653623617355    2.184401149786
H     -1.086443974586   -1.645700794175    3.177093829299
C     -0.269996358817   -3.090681781769    1.773468054626
H     -1.146129334124   -3.747151290178    1.840041345724
H      0.116628350206   -3.125161622390    0.747601776490
H      0.514364348514   -3.461208321757    2.438432159114
N     -1.573234636889   -1.057473324942    1.222837593481
C     -2.419183980080   -0.108053759926    1.510361981754
O     -2.627402701482    0.226207076999    2.807046895842
C     -3.194644222258    0.597571696781    0.432982962352
H     -3.121885413361    1.680718399488    0.579889806766
H     -2.810255603005    0.331982200990   -0.553818027689
H     -4.254469547571    0.320544544062    0.506196927101
N      1.496671641152    0.024768554439   -1.002721286692
C      2.826015852870   -0.118624814409   -1.275731682130
C      3.319786161158   -1.160419254251   -2.055436447588
C      2.390074872094   -2.089281829092   -2.591686791446
C      1.033354149056   -1.951299103185   -2.316671134352
C      0.560011704307   -0.876249429808   -1.491146076950
H      3.488044254445    0.623815718359   -0.842637661319
H      4.384926423144   -1.245526493438   -2.239920084641
H      2.737575458789   -2.909665321760   -3.215709816994
H      0.291562848327   -2.638471251379   -2.710476879302
O     -0.702212233296   -0.723415636593   -1.174689009033
H     -1.298653255891   -1.126459001047    0.186795084002
