53

C      2.063750655661    3.194621584526   -0.760643365578
C      3.179856386494    2.642768381189   -1.424189485732
C      4.099885385228    3.490748752743   -2.075941732245
C      3.905291771033    4.885942373574   -2.077494808726
C      2.783980138305    5.433139709386   -1.425413142860
C      1.862741169837    4.591046313024   -0.765420244329
H     -0.274132671512   -2.878478281204    0.271996952774
H      3.329592616804    1.565300011871   -1.450886638884
H      4.959013530315    3.058796950853   -2.585141510718
H      4.615305993985    5.536530050435   -2.582666150298
H      2.622686343389    6.509302024940   -1.425216544193
H      1.000535145220    5.033395432825   -0.268525425389
C      2.087189448726    1.781563465263    1.971391844025
H      1.821226059774    0.835995439615    2.433057822181
H      3.082343015157    1.877039380099    1.547467775044
C      1.287503691630    2.903320158870    2.148951158620
H      1.636729146219    3.885867235535    1.846353481935
C      0.054215299667    2.946843551899    2.993742913752
O     -0.756584795546    3.891145395355    2.965266515312
O     -0.062322876039    1.869538483307    3.838033552933
C     -1.298786281801    1.793736178676    4.640699462995
H     -1.175880042383    0.908484680206    5.265379055232
H     -1.407432246261    2.696536501717    5.249107489261
H     -2.160306726899    1.691806616397    3.974238288569
Pd     0.750789679943    1.961693348933    0.141272654049
C     -0.683151520982   -0.624156995517    1.069923530629
O      0.116980007294   -1.303773972574    0.291739828062
O     -0.691096156664    0.662009744776    1.120471151891
C     -1.628110774534   -1.380107160769    2.028240764218
H     -2.290987380973   -0.609359068443    2.431167651630
C     -0.785401709293   -1.958647671540    3.201404438886
H     -1.462710374560   -2.421054194542    3.927833557160
H     -0.084034775081   -2.722210374768    2.847208280658
H     -0.220744153963   -1.161778638717    3.701821468980
N     -2.511578560663   -2.417832839746    1.452711595014
C     -2.127873605763   -3.434491307324    0.746495043613
O     -0.854415440296   -3.703954556466    0.266418233040
C     -3.100797452680   -4.520707310544    0.362509984989
H     -4.084026371420   -4.304539658315    0.784056834401
H     -3.170169254280   -4.597912498876   -0.729520395661
H     -2.739335272758   -5.487833977687    0.733893377294
N     -0.016895159640    1.588332827089   -1.792498259612
C     -0.797479602238    2.513909439931   -2.424957070194
C     -1.184042364224    2.368938262555   -3.756238381890
C     -0.735304859011    1.231374461305   -4.468571636930
C      0.050337213639    0.276801757168   -3.819969476998
C      0.388236681309    0.464259529054   -2.457295832052
H     -1.091315716868    3.377649093371   -1.839868337254
H     -1.804426040567    3.125012764676   -4.224490600130
H     -1.007122342566    1.094700907149   -5.511729802135
H      0.404683425437   -0.621557402161   -4.311793116376
O      1.142525124722   -0.450742060842   -1.816060721190
H      0.794766165909   -0.757177029667   -0.867513422704
