53

C      1.656633500482    2.942046965079   -1.615116352774
C      3.039492478316    3.201689104217   -1.732338831599
C      3.515610465990    4.050647205076   -2.755708444413
C      2.615215705748    4.647306856746   -3.658872497671
C      1.234559762669    4.393676913798   -3.535499621574
C      0.753335552925    3.545472835197   -2.516162692513
H     -0.596261792384   -0.416753084347    0.323711573347
H      3.751125770744    2.747520571593   -1.044570697020
H      4.583149454841    4.244159954402   -2.839540837742
H      2.982667667873    5.303338161727   -4.444370060967
H      0.531178547986    4.853427858006   -4.226613941209
H     -0.315493508092    3.360493777026   -2.432856045283
C      1.681150652588    3.080812387709    1.448421951440
H      1.748993142263    2.436828497974    2.321215869352
H      2.603498889154    3.485968725225    1.040810185042
C      0.459024227679    3.558527912048    0.986792524622
H      0.416098236893    4.320449633468    0.213138748508
C     -0.861894411671    3.356503389058    1.671368990873
O     -1.949503519600    3.615653201854    1.120455608762
O     -0.727199951245    2.944839526769    2.967131316184
C     -1.958320491943    2.760515643536    3.777593778976
H     -1.631110517013    2.895737537835    4.809973776381
H     -2.702800552390    3.509092891279    3.491266328115
H     -2.344560123338    1.750143760903    3.621504891227
Pd     0.974219292436    1.683050176234   -0.205168133274
C      0.604204126529   -0.119094997497    2.430935002514
O      0.139859781964    0.296034119779    1.243927363457
O      1.629613890399    0.342087812578    2.983025786757
C     -0.207427978202   -1.245352296115    3.131007866747
H     -0.580184140213   -0.802068341342    4.061089926558
C      0.722755996039   -2.431898274241    3.464413461429
H      0.191287151810   -3.166145510274    4.080256762543
H      1.073407049144   -2.932718898211    2.550912993635
H      1.598348477694   -2.069462558392    4.010364315219
N     -1.380015135388   -1.683061100697    2.371233030946
C     -2.641532217853   -1.173306827707    2.585833974130
O     -2.877385526980   -0.331498410719    3.496535698021
C     -3.731982840229   -1.715695448464    1.673588730786
H     -4.536739738160   -0.979343684098    1.610447468657
H     -3.351672308444   -1.925396545365    0.667542095941
H     -4.146232744688   -2.640229514947    2.097008547907
N      0.821880197185    0.100217613340   -1.696922544543
C      1.651929815276    0.103220120439   -2.790801688402
C      1.548749849784   -0.822770274300   -3.825154346302
C      0.529812312233   -1.802799781351   -3.757086052997
C     -0.312305683377   -1.830037687659   -2.648654583634
C     -0.137161092377   -0.879469320667   -1.607537348498
H      2.398206798623    0.884690580118   -2.818645732060
H      2.234470667296   -0.769998492751   -4.663426357498
H      0.407537730654   -2.530450931469   -4.554888529635
H     -1.102623110328   -2.562660897566   -2.532710098940
O     -0.935300401256   -0.966746758633   -0.529867265944
H     -1.235771089520   -2.286235763739    1.568771109195
