53

C     -0.865769174202    2.779283589121    1.286874279917
C     -1.060769826515    3.843766153999    0.389003137748
C     -1.962646865764    4.875948800216    0.726571296616
C     -2.659285482255    4.842107644253    1.950077808216
C     -2.458943604670    3.766590526795    2.837283222049
C     -1.565003859184    2.726701012237    2.505855147076
H      0.817069726610   -3.662005244431    1.063505891939
H     -0.532987248770    3.880451087960   -0.560597784667
H     -2.122359356395    5.695007188406    0.027982864417
H     -3.356346513189    5.637319033389    2.204495299247
H     -3.001403013877    3.726816311356    3.779759869893
H     -1.437524021807    1.888666469480    3.187279722818
C      1.905851300681    1.668025415749    2.271917349103
H      1.497692956732    2.209622930652    3.119403405003
H      2.266376585457    0.656133501585    2.439488474576
C      2.245869150351    2.342746092572    1.096553456693
H      2.830003761787    1.841995811129    0.323705950344
C      2.145252999720    3.822581286881    0.937319579728
O      2.312385905833    4.419891050591   -0.142913811795
O      1.890588843114    4.472577417270    2.125986705478
C      1.703117551677    5.933335893701    2.063614435680
H      1.630371871668    6.251845070780    3.104241900656
H      2.555180618218    6.402545229412    1.562148543823
H      0.781000685813    6.159580288834    1.520147975341
Pd     0.301518568193    1.244420448410    0.776445917413
C     -1.122922080793   -3.451715503524    0.677462798625
O      0.213861336900   -2.948603048716    0.754269711724
O     -1.318922916737   -4.635649819015    0.954070830711
C     -2.121384620511   -2.375975612713    0.285607853280
H     -2.107798277040   -1.633013531991    1.102088179507
C     -3.531800836999   -2.975811960725    0.153457053560
H     -4.242161638769   -2.166172455130   -0.043657391898
H     -3.567808543453   -3.679840827415   -0.684060688561
H     -3.831576638978   -3.500587838161    1.068267197756
N     -1.712830540439   -1.759295159002   -1.003657881713
C     -1.414732243351   -0.479452707848   -0.994999907693
O     -1.410405048087    0.295099853328    0.117835536712
C     -1.118009907692    0.207327420750   -2.313980335346
H     -1.157575132703   -0.510288216282   -3.136634291945
H     -1.860948262257    0.997782938770   -2.481375556863
H     -0.131363436959    0.688763570208   -2.290653803772
N      3.266804112325    0.066337808429   -1.047632789042
C      4.112123068386   -0.020021064627   -2.106981189361
C      3.985104486805   -1.000474033291   -3.104645223208
C      2.916987236191   -1.917174804307   -3.007739081205
C      2.026465389736   -1.830963149044   -1.926334235277
C      2.263389085911   -0.821902641271   -0.966690986790
H      4.903785354612    0.722857839006   -2.143660036710
H      4.688328095056   -1.035180506743   -3.930155378271
H      2.769771025981   -2.678190416108   -3.769135190489
H      1.166907752802   -2.487194928489   -1.836919646084
O      1.429708218500   -0.681284795694    0.146946700383
H      0.867784406910   -1.496887094854    0.330428959760
