53

C      1.430324270951    2.190782093838    1.699188949603
C      0.883682412479    0.747240436725    1.734891730997
C      1.806265343748   -0.222476848635    2.367107155750
C      3.160087684258   -0.002738837703    2.429906996798
C      3.735791551024    1.224244094171    1.873546301369
C      2.934852034316    2.246497878726    1.466452832560
H      1.291257838701    2.564085991354    2.737537430070
H     -0.125122356752    0.711291946334    2.158334831721
H      1.376870724412   -1.146048743786    2.750781616157
H      3.821936241034   -0.748345212117    2.865391339176
H      4.818756537038    1.305846280295    1.792502377131
H      3.359107744869    3.166265529629    1.064087541843
C      0.608980598537    3.183600335473    0.834832543998
H     -0.401001017597    3.274677371933    1.258312618435
H      1.060679770322    4.182495305495    0.883275245756
C      0.432467192099    2.784007204810   -0.629302436256
H     -0.059189298154    1.802175382886   -0.703195575475
C     -0.389157723903    3.786360784047   -1.437157313668
O     -0.782467261203    4.894411795696   -1.046454469929
O     -0.670809463566    3.271941435205   -2.683101581055
C     -1.443144509421    4.126477599424   -3.606226593888
H     -1.543907684889    3.535256422023   -4.516813333373
H     -2.421303546806    4.356294003268   -3.172690069590
H     -0.899937018304    5.057409436682   -3.796290322691
Pd     0.381738392607   -0.277173690451   -0.045175707923
C     -1.857032618079   -2.064920798531    0.585467025677
O     -1.211199638259   -0.996806252639    1.047780486219
O     -2.803596649005   -2.641663251529    1.171140354737
C     -1.357995829538   -2.665585115241   -0.763028003063
H     -2.259956487554   -2.963364080789   -1.311760719056
C     -0.504871624100   -3.923324269367   -0.472336306703
H     -0.199695860661   -4.420270055677   -1.402658618982
H      0.397656602720   -3.651815059883    0.088839412270
H     -1.091622076746   -4.625703139186    0.128611723996
N     -0.571924033415   -1.656980088868   -1.521476895628
C     -0.633360747015   -1.572792997771   -2.810532097542
O      0.057271170591   -0.574026001791   -3.466972209435
C     -1.404461247158   -2.431815413370   -3.782192948488
H     -0.855816815967   -2.484512036142   -4.726586424124
H     -1.566421705990   -3.440927150328   -3.397630580763
H     -2.381825218262   -1.976677252172   -3.988573717712
N      2.113400772493    0.371357588206   -1.130864795009
C      2.971193104035   -0.677033077943   -1.378548613482
C      4.182359281609   -0.523992374480   -2.042711028107
C      4.548190584812    0.768260845303   -2.491862955393
C      3.692887895431    1.838505356234   -2.244842617455
C      2.480596436711    1.608722323596   -1.546014320518
H      2.640881091605   -1.642634899069   -1.016160355268
H      4.820034453047   -1.385348157988   -2.207593144045
H      5.483251154432    0.926619844744   -3.021446846521
H      3.916457066845    2.851944359585   -2.556388721515
O      1.737060331480    2.737525419965   -1.332535564033
H      0.488079320734    0.037345075046   -2.825247690717
