41

C      0.316426403257   -1.744308754034   -1.797879397872
H     -0.136944607179   -2.836871852865   -0.079531062512
H      1.307175372794   -2.078754028452   -2.132154827813
C     -0.749799548840   -2.441074110149   -2.281320042091
H     -0.611625483454   -3.254052940661   -2.995538953514
C     -2.182558351459   -2.187524471116   -1.990083122153
O     -3.124412172090   -2.667097775945   -2.652372382045
O     -2.389191100086   -1.378550181903   -0.883750187894
C     -3.787483894129   -1.054811698677   -0.544812966044
H     -3.719183302211   -0.391684271431    0.318406565447
H     -4.272780929576   -0.553964902992   -1.388194337466
H     -4.336726986944   -1.969693985352   -0.300793234847
Pd     0.366004958434   -0.142374901704   -0.596595184724
C      1.174056954202    1.262827336816    1.888674998193
O      0.479052297106    1.467750879683    0.763863931486
O      1.320180788080    2.083923472837    2.813060079320
C      1.864953047675   -0.124455371515    1.946449307102
H      1.852707147331   -0.431254059906    2.997295283468
C      3.331153362621    0.002833504450    1.469534790829
H      3.857133613970   -0.955476306824    1.563080602507
H      3.367031745264    0.316957256590    0.420221680106
H      3.849494263081    0.750350304951    2.079700807870
N      1.111332285615   -1.100230272536    1.100929281207
C      0.886429996803   -2.312515316249    1.528155330856
O      0.174472854492   -3.203486275836    0.791399884195
C      1.342083293713   -2.900397624403    2.843829470533
H      2.404064114756   -2.709231669233    3.026081263458
H      0.771128688691   -2.470922194825    3.676466382037
H      1.167519357696   -3.977444552943    2.823993716259
N     -0.336680495164    1.132933633275   -2.138007928681
C     -0.173956383073    0.800871112481   -3.461016894616
C     -0.679892411422    1.565675841837   -4.506775195539
C     -1.406628055949    2.740201516124   -4.194754831043
C     -1.561358277197    3.106188534545   -2.861590528494
C     -0.996004301384    2.302261621013   -1.834028678243
H      0.368716387409   -0.112691892770   -3.657611091952
H     -0.520065475404    1.248437785783   -5.531281319230
H     -1.829023128100    3.356075487920   -4.983998065224
H     -2.085267260214    4.004247691169   -2.555845259597
O     -1.138067684210    2.730626796282   -0.571369132360
H     -0.495066436381    2.318739382452    0.138031075725
