41

C      0.650243828691    1.419813143826    0.179856080220
C     -0.074846034668    1.309578090412    1.463405780357
C      0.452858977446    1.708942289664    2.665408748609
C      1.709441390912    2.443979227200    2.674050624571
C      2.483200458980    2.574590719260    1.555765991675
C      2.118853892877    1.873314026300    0.271091045404
H      0.097661303023    2.044509758445   -0.541557975398
H     -1.096808352954    0.930917062906    1.423373087087
H     -0.105308372442    1.591965278613    3.590067742203
H      2.002750430032    2.957914778680    3.588966206687
H      3.370607732059    3.205107700503    1.557771014701
H      2.356624486904    2.507462641080   -0.589914268234
Pd     0.091600159503   -0.443557015800   -0.752521723299
C      1.518225395416   -2.948435407593   -0.997757096868
O      1.699244662474   -1.698774322490   -0.505121913862
O      2.428846598172   -3.805872312699   -0.969581646219
C      0.118540534154   -3.300540278259   -1.617673217541
H     -0.319111638599   -4.068341817516   -0.957601503414
C      0.310015618172   -3.910755412212   -3.024942946536
H     -0.644728061192   -4.264701832852   -3.432349095329
H      0.724724789462   -3.162937715005   -3.711626423204
H      1.005896430068   -4.753968665584   -2.960624754274
N     -0.672582949770   -2.081140644395   -1.603349979605
C     -1.917758251194   -1.684223130588   -1.822354090245
O     -2.116267471908   -0.402874559791   -1.517747889585
C     -3.048132875590   -2.524565615887   -2.358962008911
H     -3.248982028275   -2.253537502280   -3.403419551133
H     -2.819249689597   -3.594309113868   -2.310895643834
H     -3.957188611905   -2.318114114338   -1.784125288166
N      3.162638174076    0.681263902048    0.047235939242
C      3.816975352118    0.112356726921    1.101957302069
C      4.809121614846   -0.841180766647    0.906622143976
C      5.157508580791   -1.209217263902   -0.411183988471
C      4.460819259841   -0.651190513615   -1.484870060014
C      3.417992988249    0.248856455061   -1.226232388526
H      3.523939342391    0.468390646257    2.081026087752
H      5.294988049234   -1.288229504281    1.766122139965
H      5.931914850582   -1.948206177602   -0.590653156321
H      4.638398231698   -0.941815499086   -2.512826268969
O      2.668418839132    0.741808247424   -2.258227043493
H      1.688539435904    0.650563201514   -2.075034462876
