53

C      1.957100551576    2.842636437109   -1.478447842837
C      3.330465967947    2.977485903661   -1.180911595055
C      4.140484013021    3.830332328335   -1.962745359684
C      3.581943953397    4.552029769275   -3.035115019553
C      2.209071571871    4.420411463945   -3.324512543163
C      1.394313660854    3.569546821327   -2.548016672565
H     -0.944522531055   -0.387581372072   -0.417721159609
H      3.778147816193    2.423164003350   -0.357159440000
H      5.198688429236    3.928684635065   -1.729255949792
H      4.206061431310    5.210465546283   -3.634563275254
H      1.769187161180    4.977306029534   -4.149180347027
H      0.335921592542    3.479300803915   -2.782110426405
C      1.006157250743    2.814643997073    1.491370856543
H      0.697326491804    2.165837845327    2.302660719871
H      2.039729159271    3.148960554896    1.482683344600
C      0.066838220128    3.422988048127    0.664833405012
H      0.362578123452    4.219220322082   -0.011307454332
C     -1.422274024685    3.336555726662    0.814255618623
O     -2.201257247277    3.889791625887    0.014213483278
O     -1.836683366159    2.664238315925    1.936002643918
C     -3.299264141957    2.651879091798    2.211480402914
H     -3.412450523764    2.026452927999    3.098959423013
H     -3.638556556257    3.677337542399    2.387044921453
H     -3.830434955842    2.233695112026    1.350713033568
Pd     0.870262838760    1.555262422253   -0.381588537848
C      0.425865013069   -0.573640122464    1.738817236558
O     -0.255090729412    0.122823514720    0.810677612794
O      1.672479521906   -0.535316996661    1.864680307193
C     -0.473183320504   -1.410003044759    2.669240125434
H      0.142046022954   -1.700857290866    3.525923749273
C     -0.974186762183   -2.679640515050    1.934581855525
H     -1.602784123644   -3.281710082535    2.601212214983
H     -1.568816358703   -2.409097923703    1.055098361710
H     -0.125230088453   -3.295269402152    1.611442707522
N     -1.573130804199   -0.534127422893    3.112014288946
C     -2.251146257409   -0.560929401754    4.306889214577
O     -3.168778379356    0.277347317447    4.544436030457
C     -1.845294425798   -1.609308368340    5.336084920785
H     -2.579177376751   -1.592214894335    6.144112954673
H     -1.802389022872   -2.616579070472    4.906538876257
H     -0.857110665522   -1.375566101876    5.754092143842
N      0.946697954086    0.120037580454   -1.995003858252
C      2.011015894198    0.072729994808   -2.858503313453
C      2.045662355310   -0.772782342712   -3.964611231269
C      0.929387500034   -1.605310563964   -4.216405888373
C     -0.151947276507   -1.580273155520   -3.337514935987
C     -0.112747666100   -0.721684109186   -2.210472082752
H      2.829611471892    0.745603157960   -2.642612194328
H      2.913071076823   -0.770846481795   -4.615188763901
H      0.915696891034   -2.265000217144   -5.079684686986
H     -1.027653129354   -2.205665875617   -3.465425663964
O     -1.158749808073   -0.750269382158   -1.357324355025
H     -1.823663191387    0.208292562346    2.461233924255
