41

C      2.758128270341    0.705695066223    0.642199986404
C      3.797420802354   -0.146160797895    0.212875277298
C      5.103067027462    0.028646502935    0.720602147880
C      5.374759420303    1.057785780121    1.642371705124
C      4.332818375110    1.906359156955    2.066364372738
C      3.022836706944    1.729338900727    1.574534772004
H     -2.608363688695   -0.775764927078    2.865513103871
H      3.599551709489   -0.948769743131   -0.494398651467
H      5.899429924788   -0.638266163043    0.395604853439
H      6.382655276305    1.194827300740    2.027587532458
H      4.534950367552    2.702478971606    2.780408732254
H      2.220163485985    2.372898727944    1.924254968763
Pd     0.914320235227    0.470866648702   -0.053992784078
C     -3.260942194646   -0.913621570124    0.312558697867
O     -4.313066662078   -1.018260322821    0.973456425314
O     -3.217288399536   -0.461106001174   -0.953770032623
C     -1.916188982095   -1.349923956220    0.957002793460
H     -1.073569319401   -1.058914745559    0.331982059698
C     -1.908606456452   -2.880200524951    1.159451825739
H     -0.972906379325   -3.195066362794    1.635508785470
H     -2.754904796882   -3.192593625002    1.782324730444
H     -1.993622569799   -3.388480012459    0.191498458438
N     -1.804519025329   -0.651696467248    2.255000870738
C     -0.836373991035    0.211476137950    2.638640444858
O      0.180568411111    0.542488093252    1.936739048962
C     -0.969031029970    0.826640639407    4.019778103495
H     -1.042778925304    1.915177178512    3.920487925167
H     -1.841124535179    0.457037507180    4.567851793782
H     -0.062270298686    0.608683273561    4.593759497124
N      1.310312481005    0.475297766299   -2.058932351505
C      2.365269916565    0.672945975274   -2.886879265979
C      2.199055610174    0.646375199113   -4.275716523051
C      0.902342266193    0.413604581838   -4.799147978089
C     -0.188138033395    0.218496555613   -3.943654683037
C      0.036458611815    0.258149683164   -2.545317959465
H      3.325830408520    0.853929175157   -2.417733786828
H      3.050892676489    0.806445856328   -4.927244525855
H      0.750491927619    0.391014956072   -5.875546106948
H     -1.192777850942    0.047768905523   -4.315119704321
O     -0.858955628578    0.117345394594   -1.571493708951
H     -2.276581108796   -0.242372199387   -1.332223798440
