41

C      1.635576138032    1.385257915481    1.488702324505
H      1.548402522310    1.352439976118    2.579404974018
H     -1.480130484520    1.440707583702    1.232843767057
C      2.582791239408    2.182990290633    0.944197223706
H      2.722437078763    2.263417374306   -0.128947723263
C      3.476734042746    2.987066987137    1.810948478705
O      3.484758388689    3.026241717851    3.060509319053
O      4.359589242231    3.738325703915    1.046081825091
C      5.309840579516    4.589107731721    1.777034129313
H      5.897875784948    5.084355924911    1.002635055286
H      4.772784549736    5.320132482854    2.390749423146
H      5.947784215645    3.978499292479    2.424884800223
Pd     0.401490491191    0.236536052268    0.411103067017
C      0.688961326106    0.599899557551   -2.465868748601
O      1.233711719827    0.944157349039   -1.294117962977
O      1.128968107806    0.959353094602   -3.579308326117
C     -0.599514672769   -0.263069090115   -2.424300005845
H     -0.461973108041   -1.043589768399   -3.182970906456
C     -1.807923839933    0.620239415259   -2.819060817370
H     -2.729855310432    0.029373209795   -2.887727889019
H     -1.960658060003    1.416860786085   -2.080918326299
H     -1.608903756385    1.082184802284   -3.791176554263
N     -0.790415608380   -0.868160465350   -1.075136275054
C     -1.494806103674   -1.943416236521   -0.907630755164
O     -1.666468619326   -2.459322317802    0.358062541268
C     -2.209563649918   -2.787060442617   -1.930073829275
H     -2.030795532568   -2.449002120530   -2.950927939209
H     -1.881653740434   -3.827592466777   -1.829183783006
H     -3.287166471611   -2.765380288699   -1.729220210050
N     -0.367689896247   -0.406682286313    2.268485215567
C      0.269376755743   -1.354962062270    3.031581796471
C     -0.152925500011   -1.664594061390    4.322525748513
C     -1.264666648915   -0.970328882254    4.859657528799
C     -1.903332833490    0.013286403667    4.100132130185
C     -1.415278050917    0.281041384116    2.804672423735
H      1.121048014479   -1.839939187849    2.568597964047
H      0.372237447183   -2.420390320700    4.895357304816
H     -1.614329521714   -1.190389612980    5.863989260858
H     -2.742681733296    0.588901887411    4.471498247489
O     -2.001898276173    1.260902580641    2.062311709583
H     -1.223122217000   -1.896741720387    1.035353228578
