53

C      1.141761123786    3.956049972879    0.068195876395
C      2.341314423839    3.180568829738    0.144966663388
C      3.279082712759    3.210951843926   -0.922139630340
C      3.033626544045    3.993655376335   -2.054535414474
C      1.839502330199    4.754858793143   -2.144939364342
C      0.903520231138    4.728838421899   -1.106090587343
H     -3.093921419470   -0.687908972407    0.879572915065
H      2.597102697562    2.690267703983    1.081976093312
H      4.191911313357    2.627405438454   -0.840592516992
H      3.756987841871    4.024561126805   -2.865256965491
H      1.656678980303    5.369032652759   -3.023501892567
H     -0.002574425082    5.327844080175   -1.169420822442
C      0.208406147551    4.016601491416    1.287877072399
H      0.750767311462    4.415165926637    2.154424909965
H     -0.640734764203    4.676162041899    1.077497667956
C     -0.275954694024    2.578176839663    1.547109532130
H     -1.354516345691    2.419027164441    1.509558133574
C      0.356113823329    1.894192607931    2.710695567809
O      1.472784205731    2.186265781114    3.201048239371
O     -0.427217681231    0.872047619877    3.206643770119
C      0.134024437701    0.053972645537    4.305211796133
H     -0.626853071284   -0.703214838343    4.498579492450
H      1.076080936051   -0.399361660474    3.981278787030
H      0.312699751617    0.683480562741    5.182729060480
Pd     0.419615841399    1.680189912914   -0.192311857318
C     -0.448983956441   -0.996909535967    0.618197497716
O     -0.935600201350    0.115728603183    0.126483012909
O      0.791942110170   -1.306066189193    0.633233195016
C     -1.462644435849   -2.006539630435    1.179720718015
H     -1.032562547829   -2.423462552869    2.094762934175
C     -1.689580653871   -3.148461613018    0.159057332251
H     -2.360538442654   -3.897851712109    0.592635830173
H     -2.143009870997   -2.767062156934   -0.765095421266
H     -0.735818377332   -3.627108299056   -0.089218354607
N     -2.711172723840   -1.339417935096    1.555563845282
C     -3.163505848142   -1.300631092954    2.854473506606
O     -2.604645698052   -1.941291602826    3.788646050089
C     -4.382901566803   -0.424230671493    3.104356742723
H     -5.104507619100   -0.978863207571    3.712493191412
H     -4.071372569340    0.456724014578    3.678797916968
H     -4.869169083329   -0.091319865942    2.180410375579
N      1.139074355870    0.890374781056   -2.085680551808
C      0.684867752566    1.450118849735   -3.245712360442
C      1.227682851012    1.142732062027   -4.493150630185
C      2.298838545594    0.217900438808   -4.547303348473
C      2.755837339817   -0.375712152936   -3.370377291031
C      2.137759081289   -0.041216506585   -2.136109841515
H     -0.126068716228    2.163539791424   -3.142268414264
H      0.833705802083    1.610251949635   -5.389130279292
H      2.755379785599   -0.039553617177   -5.499524594088
H      3.556099131514   -1.106709268561   -3.356205616059
O      2.568948309280   -0.638695964347   -1.011063460622
H      1.857199201672   -0.809565614588   -0.262439245594
