53

C     -1.033021345067    3.114435857485   -1.482419784827
C      0.231316392492    3.605980937549   -1.917923513539
C      0.582211129717    3.526320705044   -3.294066593006
C     -0.306895646900    2.958105245780   -4.212684909971
C     -1.556460978125    2.445516686643   -3.775615431117
C     -1.916818300099    2.519864047696   -2.426620248415
H      0.059777361412   -2.784765799519    2.365073040852
H      0.849000620012    4.190991220936   -1.244334054438
H      1.530754527159    3.939358648773   -3.628406009229
H     -0.047583245091    2.916299500131   -5.267869703576
H     -2.241023112869    2.007764847967   -4.497855344728
H     -2.882870084014    2.151053896614   -2.092849574874
C      0.752490152505    2.828855993210    0.988356736996
H      1.604823705520    3.504607214552    0.875009163182
H     -1.386075362526    3.327780769873   -0.478704591497
C     -0.043959351057    2.896315891986    2.077530932959
H     -0.847145111714    2.188579901379    2.275388471416
C      0.147753380304    3.905945819401    3.147595488504
O     -0.527260192993    3.976961418863    4.192549725509
O      1.172837177879    4.811610900942    2.874531698114
C      1.449858664827    5.815142377801    3.912551580430
H      2.275846437136    6.409747818950    3.517847417664
H      0.566134335765    6.437590805755    4.088645304386
H      1.734141117547    5.324648180566    4.849281696209
Pd     0.577419990632    1.522899027832   -0.500966262258
C      1.587406507354   -0.107157351137    1.927669036791
O      0.767697763787   -0.032763120678    0.865953862045
O      2.643676797326    0.544440754151    2.052048228193
C      1.099198257846   -1.051283518387    3.063316694776
H      0.802231268622   -0.365324488551    3.867609413456
C      2.245914559958   -1.955801838890    3.551767610391
H      1.948829524124   -2.493194688474    4.459938885642
H      2.528096172646   -2.691233443873    2.784858797673
H      3.125269995942   -1.343663774741    3.768786335941
N     -0.082034443013   -1.843128553659    2.711462889930
C     -1.363241432295   -1.328861518199    2.745819292661
O     -1.596636960333   -0.144855260412    3.105440906898
C     -2.460448586441   -2.279095135680    2.285766388186
H     -3.410388668865   -1.962620958412    2.723244566331
H     -2.540737696133   -2.228401516226    1.192204821231
H     -2.256790378684   -3.319090018359    2.569383148416
N      0.513502561535   -0.093870568562   -2.049966725591
C      1.112174075874    0.060740637556   -3.267329127532
C      1.018778362434   -0.888586763583   -4.286765884749
C      0.261228525397   -2.058768433962   -4.046086689034
C     -0.325981274107   -2.249018022471   -2.793930772715
C     -0.153978745667   -1.259658895686   -1.793775466135
H      1.671183938501    0.977571018591   -3.406696578591
H      1.516857202909   -0.718587442238   -5.235236473908
H      0.152288875458   -2.814347343386   -4.819691892198
H     -0.888062419048   -3.140915201928   -2.541714959748
O     -0.656626531053   -1.488408813238   -0.558337153310
H     -0.169073273730   -0.939568458967    0.177504518538
