53

C      0.972589114445    3.113921470467   -0.473371665112
C      2.161801418890    3.713478090646   -0.012562177649
C      2.547998227365    4.979941309998   -0.501465219148
C      1.752160737697    5.645695771047   -1.453575403597
C      0.568122008231    5.039082953355   -1.917610122013
C      0.176983385280    3.773002947058   -1.432928486215
H      0.082201409904   -2.236092486581    2.383495657201
H      2.791150839257    3.214985115878    0.723164034695
H      3.466331816162    5.438651045296   -0.139834359839
H      2.053713640159    6.619140738958   -1.833607551435
H     -0.047696298237    5.540063223107   -2.661827866926
H     -0.732448142173    3.310548007967   -1.809994517499
C      0.278531463820    1.884907835935    2.336346143036
H      0.926007357857    2.733354896294    2.531142009637
H      0.540629467334    0.923295633722    2.767548291366
C     -0.981013249139    2.083163803081    1.782620418808
H     -1.714489611568    1.282023788942    1.752638618566
C     -1.554667033022    3.429772440002    1.475926584197
O     -2.637051587963    3.599752228080    0.888065645032
O     -0.777941214818    4.459444891929    1.955310549811
C     -1.216342832990    5.831571118075    1.635110155449
H     -0.528437830273    6.479691877903    2.179013669263
H     -1.139134930000    5.994948996781    0.556331538824
H     -2.249572940900    5.982481307970    1.962211021526
Pd     0.408407705654    1.287934884519    0.153889613976
C     -1.068425130174   -1.440861529241    0.327793235727
O     -1.649360927831   -1.170035608954   -0.783265716445
O     -0.175386782338   -0.682705024297    0.903664290599
C     -1.482179920469   -2.730594782001    1.046491377801
H     -1.430007171553   -3.551761091531    0.320914502076
C     -2.950720851371   -2.622771687778    1.533369259309
H     -3.237362487650   -3.566401131617    2.006372380774
H     -3.060898588357   -1.810335665137    2.263133588272
H     -3.611533406241   -2.429589358531    0.682067335042
N     -0.540728478283   -2.999150831181    2.140104156564
C     -0.431228308326   -4.234768248620    2.727326832418
O     -1.155432858753   -5.209555491737    2.382819770895
C      0.618963128605   -4.361100840622    3.824897636666
H      1.307826811261   -5.173257643239    3.567125104338
H      1.192575263149   -3.440417570549    3.981791054272
H      0.124849110552   -4.637368587079    4.763511893575
N      1.306881711213    0.578725725996   -1.626488488166
C      2.666554540520    0.534066459912   -1.755334942889
C      3.288114468661    0.228778776691   -2.964215347003
C      2.473947217350   -0.023011873516   -4.095060235543
C      1.085421637914    0.010602812618   -3.965408156093
C      0.506434748904    0.297023333806   -2.702138008353
H      3.242146626175    0.766439837324   -0.866837302055
H      4.370485408076    0.203563262863   -3.025519707815
H      2.925875454451   -0.248732311901   -5.057221588838
H      0.415325837140   -0.189829027457   -4.793303526633
O     -0.828138097846    0.325442660944   -2.561118176305
H     -1.233273810732   -0.235589099158   -1.742167423277
