53

C      1.886732423017    3.730802639877   -0.827416204827
C      2.679239565357    2.829851220033   -0.055455299962
C      3.753578918881    2.134381908385   -0.682754807726
C      4.038575714915    2.350557683806   -2.033403367972
C      3.254118344445    3.256584946430   -2.796795069782
C      2.186247594097    3.936606306691   -2.204236294907
H     -3.178581395030    0.133652990967    1.046550784125
H      2.569427950526    2.774864083266    1.025727265732
H      4.353276271097    1.446505123503   -0.094327227213
H      4.869827951944    1.830693602877   -2.503238042851
H      3.494705981824    3.425801279517   -3.843684273212
H      1.599555264518    4.648321592034   -2.780039995532
C     -1.094856783276    3.649311446165    1.217476599695
H     -1.523143127330    4.099978719797    2.114288016853
H     -1.478388343340    4.012209313851    0.264915730868
C     -0.154390083027    2.688006976929    1.292720154010
H      1.167129750194    4.374415419085   -0.331566771410
C      0.376063860184    2.180685014768    2.592438509266
O      1.588068464339    2.128633192716    2.898446269430
O     -0.621689437025    1.724683279990    3.427916315960
C     -0.216880184135    1.096704450727    4.710233365612
H     -1.068583126925    0.477235145724    4.993872434833
H      0.683300596962    0.494417247789    4.559803625653
H     -0.018374320967    1.881354557399    5.447682254660
Pd     0.552413222029    1.697916183191   -0.324821497695
C     -0.692258448995   -0.728474050326    0.803348015490
O     -1.003282858729    0.356950399625    0.134776192198
O      0.486149986113   -1.212287457825    0.902955229644
C     -1.858323174629   -1.459402002992    1.490874006841
H     -1.487185083809   -1.839523492180    2.447028888956
C     -2.329460315327   -2.646954461480    0.617069065800
H     -3.118311564779   -3.195193426931    1.143166685803
H     -2.728991081260   -2.295103396543   -0.342688533426
H     -1.493922533943   -3.328895884466    0.421992832143
N     -2.940878976749   -0.517179850753    1.787782833297
C     -3.338496627360   -0.232428259855    3.074705631098
O     -2.914173118821   -0.874534000745    4.076259657172
C     -4.306287031392    0.933229378898    3.217641786951
H     -5.016374391246    0.716419320041    4.020662389246
H     -3.733150529757    1.826110501530    3.498032846560
H     -4.854761963378    1.145357003333    2.292708609326
N      1.126405049948    0.541749632060   -2.069299360965
C      0.698741728867    0.965175459611   -3.295151156520
C      1.105095982220    0.363246219844   -4.485448024535
C      2.005231256661   -0.727205728397   -4.410302351396
C      2.427263953308   -1.184859360261   -3.161828962195
C      1.946511514813   -0.548909935458   -1.986818970006
H      0.022247239179    1.813261889418   -3.294396490092
H      0.736909438890    0.733079325182   -5.436318077483
H      2.354079871242   -1.216099426744   -5.316238378052
H      3.091609497273   -2.033138021072   -3.043601583081
O      2.329889759547   -1.023895851343   -0.788292423825
H      1.615376534044   -0.992462919183   -0.022874826165
