41

C     -2.045428141647    1.714608677059    0.947883632218
H      3.604431267267    0.584850439326    0.861215857321
H     -2.815387619365    1.247546589498    1.571500307051
C     -1.818425711546    3.046024735288    1.058715130900
H     -2.416649776469    3.645050777449    1.747067589233
C     -0.843129065357    3.864367652372    0.303637017622
O     -0.839852891933    5.113467174000    0.308456513279
O      0.095373471989    3.127869082599   -0.406353430072
C      1.030677455905    3.891514114295   -1.265323503426
H      1.708905767498    3.148273297005   -1.684968183393
H      0.468857677812    4.404975165164   -2.051917340852
H      1.569216671674    4.631282404375   -0.664619209987
Pd    -1.158717784655    0.438237206535   -0.250402635795
C      2.506225969749    0.319538848203   -1.842648030275
O      3.252460943896    1.315776646853   -1.949341446906
O      1.547765731588    0.042635021653   -2.738145219631
C      2.773223104874   -0.660171107775   -0.650818008691
H      3.833079737142   -0.918538910914   -0.772643295367
C      1.971470338857   -1.970657148614   -0.622905495562
H      2.276629151766   -2.570870074854    0.242402706290
H      0.894582217523   -1.817045473365   -0.574449245710
H      2.196325472535   -2.541335412354   -1.531814713608
N      2.733775357256    0.127045015630    0.614268295019
C      1.634494473947    0.494240642141    1.317008790996
O      0.469047329666    0.055109718126    1.042128930083
C      1.835136409083    1.430325562944    2.491541042950
H      1.402897570375    0.976504768870    3.389691586420
H      2.886337552171    1.672157082130    2.678206843929
H      1.282324718743    2.354643965478    2.290859904148
N     -2.488427679013    0.447434077509   -1.793203089391
C     -3.664469622189    1.027793805476   -2.132786315224
C     -4.251667470995    0.768887564555   -3.376199648163
C     -3.588680904151   -0.108123503053   -4.270565714128
C     -2.371423945521   -0.703168553132   -3.916353332869
C     -1.823043305411   -0.407191983422   -2.646770796791
H     -4.111141911945    1.695228409778   -1.404026146750
H     -5.192619010589    1.238846844954   -3.639936932195
H     -4.027505734197   -0.320062293571   -5.242385527315
H     -1.838519734787   -1.375623989038   -4.579427938069
O     -0.684927580666   -0.877905693842   -2.119355716384
H      0.671913409059   -0.472511367845   -2.491874848379
