53

C      2.066455187020    3.082071356239   -0.189942222514
C      3.458028177248    2.859580905343   -0.148027358851
C      4.344167122195    3.905029532264   -0.485926511408
C      3.846700461099    5.163951572905   -0.873687663996
C      2.455596370955    5.377594135567   -0.924428288039
C      1.562550654814    4.340077656775   -0.581355761653
H     -2.034444817324   -0.321129910038    0.875836006611
H      3.857069730075    1.884364962444    0.121264389707
H      5.417225988549    3.728095199567   -0.452177373730
H      4.532854660325    5.966167696237   -1.134929527879
H      2.061314828535    6.346335051451   -1.224608060424
H      0.490399571306    4.525034145255   -0.617924465741
C      1.065729824086    1.778506139025    2.516713103303
H      0.651784790089    0.868245981723    2.937949905814
H      2.135223822739    1.943403800567    2.615627132929
C      0.233808984300    2.806287482297    2.095556036774
H      0.644198114647    3.777721830914    1.839796163732
C     -1.259060048351    2.814350935949    2.208496254179
O     -1.979319002106    3.609060248756    1.573169941932
O     -1.730833538802    1.908543358698    3.120528452392
C     -3.199077041140    1.832895923657    3.312823678293
H     -3.616297512176    1.212442023821    2.515747573558
H     -3.326833255056    1.360181372444    4.287910209945
H     -3.628756669653    2.838458949375    3.296122562997
Pd     0.825168640742    1.559460492892    0.266316015905
C      0.142116186120   -1.348153333848    0.780594997361
O     -0.466189333520   -0.183978134914    0.684869753732
O      1.404652767570   -1.479769456230    0.617807021458
C     -0.671907911793   -2.639936744768    1.022628364705
H      0.053692531092   -3.330798667986    1.462513620104
C     -1.076487092093   -3.210658327694   -0.370530046698
H     -1.569607106669   -4.177148150327   -0.223080327861
H     -1.774761377142   -2.539387491707   -0.884741058859
H     -0.189323082095   -3.358445575335   -0.997297448920
N     -1.841426052792   -2.645914064737    1.919450938679
C     -2.825728033470   -1.810685217093    1.933968661397
O     -2.940837146941   -0.622790805282    1.215346267883
C     -4.048314630796   -2.066033428798    2.780816453591
H     -3.956288078558   -3.032608623233    3.278875498897
H     -4.168242668489   -1.275349995664    3.532193655961
H     -4.945318143160   -2.056136000007    2.149072517368
N      1.072897049492    0.971770816267   -1.754414599254
C      0.299992261908    1.546424982149   -2.724349520765
C      0.549858279280    1.352471268569   -4.081423754516
C      1.650115369803    0.543765494629   -4.455357501623
C      2.429458297426   -0.060604177008   -3.468007639042
C      2.108451693849    0.150670639722   -2.104322749938
H     -0.514318695164    2.174594433915   -2.381499971271
H     -0.084854048460    1.826986587970   -4.821491602689
H      1.882615243461    0.385067984421   -5.504871069503
H      3.269875410194   -0.704957381970   -3.698111153414
O      2.846389174226   -0.444299835060   -1.146103379412
H      2.308153210494   -0.790406216965   -0.319530078269
