53

C      3.508243326865    1.209214609256   -0.271700511744
C      3.782946608711    0.510738235649   -1.482573558399
C      3.853552228940    1.207346290442   -2.691720413086
C      3.648124314004    2.612736853420   -2.722422131339
C      3.362160905703    3.309931522057   -1.545020939695
C      3.291556614556    2.617833123418   -0.303327804920
H     -2.389185308403   -2.260587311577    0.846879960233
H      3.946376407406   -0.562622841621   -1.455516402882
H      4.075181154127    0.674782375285   -3.613198688241
H      3.720449515796    3.145775086447   -3.667429862018
H      3.217009174246    4.386842399661   -1.560022774664
H      3.202327188443    3.191964118759    0.612475536989
C      1.881287413487    0.620188047190    2.898236986734
H      2.021703800630    0.741002543103    3.972425829948
H      2.004294315432   -0.383343464966    2.494020189406
C      1.543963563731    1.667356486444    2.115113892669
H      3.625561372009    0.699154649153    0.678836604516
C      1.348801631160    3.037685888530    2.666283142587
O      1.435980393821    4.093538357872    1.998545354154
O      1.050075948682    3.056259322516    4.017485934304
C      0.835258294536    4.378789723173    4.632667730293
H      0.578989674866    4.165220005745    5.671413130918
H      1.747328719346    4.981173808869    4.567104437591
H      0.019296504226    4.901498870960    4.124032527332
Pd     1.124629410158    1.508388397482    0.149626848094
C     -1.274648580745   -0.055131781661    0.835140331624
O     -0.657141227288   -1.060897296405    0.322917635184
O     -0.838860791804    1.172552652143    0.817648717691
C     -2.612126901425   -0.277986761586    1.551140773341
H     -3.337453589070    0.448554709391    1.164754709079
C     -2.456845128854   -0.032835264481    3.074561446812
H     -3.428348415103   -0.180787586333    3.555475996303
H     -1.731284333850   -0.732128323300    3.507774593164
H     -2.114494199806    0.990964235872    3.257250530879
N     -3.082753035074   -1.632571202000    1.242517058135
C     -4.393577309504   -2.005168355804    1.397866775514
O     -5.271073008044   -1.209821688605    1.837215570728
C     -4.729164443130   -3.439942927071    1.008918074885
H     -5.116200908432   -3.968111892465    1.887978427933
H     -5.526396195035   -3.428329030997    0.257265670027
H     -3.869399179676   -3.990972585434    0.611847157374
N      0.492430103410    1.310794192815   -1.918586768383
C      0.198784808667    2.440912621548   -2.625427342174
C     -0.096868475214    2.417463468937   -3.988872923222
C     -0.081436245387    1.170022366227   -4.656899512918
C      0.188845025754    0.005555123489   -3.934837193958
C      0.443644320662    0.098352104995   -2.543725632855
H      0.214431943102    3.368941464495   -2.064130403728
H     -0.328623158424    3.339473868783   -4.510926335315
H     -0.296230200661    1.113277996134   -5.720861149859
H      0.180559326616   -0.978819134118   -4.388527530695
O      0.656495806498   -1.033972624775   -1.837512989847
H      0.255147311788   -1.033870710991   -0.879349403705
