35

C     -0.070801377679    2.461599259571    0.634520619896
C      0.817780228619    3.580272030360    0.607171214401
C      0.490362369569    4.732057370158   -0.156726095199
C     -0.706590009317    4.780238697043   -0.883407087088
C     -1.595279230347    3.675763912303   -0.856770621094
C     -1.279634752671    2.531086633096   -0.116803178392
H      1.687129740834    3.582862296184    1.259204679182
H      1.168958967238    5.581305765197   -0.158971125433
H     -0.957970261885    5.663458386293   -1.464990205673
H     -2.522940679741    3.714409212670   -1.421743736250
H     -1.953872087698    1.678500341854   -0.113530843576
C      0.264481735040    1.231141051011    1.500809850858
H      0.433168615979    1.532263518235    2.540509929674
H     -0.568024916547    0.521589487784    1.467312754794
C      1.522436907718    0.569610913536    0.902384341225
H      1.380287023565   -0.430001452920    0.492124821870
C      2.814606906710    0.672061215060    1.649029835856
O      3.743761703721   -0.153365167813    1.603972735160
O      2.887822336805    1.814755027660    2.452832122647
C      4.125900899923    1.983530298351    3.234836389143
H      3.977611194795    2.900816180707    3.807193540110
H      4.273218903724    1.125527288442    3.898006553962
H      4.987387060323    2.070791596542    2.564917801534
Pd     1.650272724488    1.725272810564   -0.796600581802
N      2.760838323075    0.386437631859   -1.860561903914
C      4.095512028801    0.517978728643   -2.141539835570
C      4.787342324760   -0.412506550325   -2.902674656198
C      4.068279234367   -1.549766028682   -3.383363640665
C      2.726561796745   -1.712279032245   -3.084934294617
C      2.011256742316   -0.742248898840   -2.275992033370
H      4.587467274134    1.400881346057   -1.742546838007
H      5.841114744007   -0.270732679629   -3.116173135376
H      4.583554663121   -2.298186045116   -3.982437284134
H      2.159832812319   -2.574277333540   -3.422747278117
O      0.784559799097   -0.849487109903   -1.926047263008
