23

C      3.099177407632   -0.837733971756   -2.694861358428
H      2.951500179179   -1.548112954483   -3.511360192718
C      3.861289788108   -1.164460164352   -1.604077125085
H      4.373433834358   -2.106916620770   -1.436489880973
C      3.944539232304   -0.096340274695   -0.621420986534
O      3.336419441768    1.019986822322   -0.822616197212
O      4.669543557159   -0.301348411902    0.499303917673
C      4.742503507969    0.799099998315    1.489171530745
H      5.369338798245    0.406859407369    2.289806262429
H      5.190191986372    1.683390822455    1.026982175103
H      3.738292691296    1.040605074750    1.848737487368
Pd     2.302518995856    0.975617742461   -2.684067079829
N      1.274294537312    1.074555365157   -4.424041913821
C      0.983020888231    0.333488475875   -5.518845452901
C      0.177552564710    0.857937063741   -6.533127125792
C     -0.323662937746    2.181391034858   -6.384417197237
C     -0.022709352312    2.944915208515   -5.254890726308
C      0.802030900003    2.369328773942   -4.246363296024
H      1.397647573221   -0.668466440596   -5.569310028929
H     -0.053956156480    0.261778679516   -7.408796583596
H     -0.952103385272    2.604827167409   -7.164731436886
H     -0.392071119499    3.955312707437   -5.117886506623
O      1.211744126654    2.898962555184   -3.107341271894
