53

C      2.441976637769    2.760380941531   -0.507292638855
C      3.397332764866    2.217057188238   -1.412555083268
C      3.162305829761    2.260485205615   -2.789553902546
C      1.970629432417    2.843902385409   -3.297811295125
C      1.016251862159    3.370950322521   -2.423618693516
C      1.235078776818    3.330198856982   -1.016644118506
H      1.894589631343   -1.183642639119    0.317830871691
H      4.315301660075    1.785525470911   -1.023481480160
H      3.899893572022    1.856740956741   -3.478804070514
H      1.808624915024    2.886063152300   -4.372112600486
H      0.112249780306    3.835964994226   -2.808845352028
H      0.582970209375    3.900705443535   -0.362460191578
C      0.336932319903    2.281572622257    1.685146303373
H     -0.517471060882    2.961513156181    1.605729160544
H      2.703754289952    2.882399339869    0.538470341897
C      1.059329023179    2.206081270304    2.826424200083
H      1.889641043224    1.512744568260    2.938804348831
C      0.794979704123    3.021704273997    4.033833996042
O      1.457394456978    2.962536582736    5.089201053214
O     -0.284639466471    3.890171941253    3.890841794485
C     -0.603974688335    4.733584406363    5.053360701473
H     -1.464977331266    5.328135113359    4.742839884158
H     -0.848812762124    4.111083574671    5.920218082793
H      0.246949712327    5.375688797727    5.303496353570
Pd     0.637030920230    1.189046666851    0.060411183581
C     -0.102568727463   -1.394454341785    1.816998728429
O      0.839161374668   -0.645131998891    1.226473831183
O      0.037198305646   -2.614267624123    2.064363028312
C     -1.434256249432   -0.670270451935    2.162472949127
H     -1.261248466208    0.406074721525    2.166813362217
C     -1.980187498377   -1.141404997072    3.517669772541
H     -2.948428586289   -0.671363211053    3.729549791861
H     -2.085269494808   -2.232746049646    3.532719972445
H     -1.280626368094   -0.869614085639    4.315863910654
N     -2.421387657557   -0.952016079657    1.092490646727
C     -2.589389401871   -0.183404006966   -0.022549198340
O     -1.901126685274    0.860972802259   -0.252088937081
C     -3.658707281950   -0.636585930164   -1.005295360820
H     -3.181398368533   -0.902452440946   -1.955720513385
H     -4.236593866931   -1.495280447648   -0.647300353993
H     -4.341105271183    0.197918537116   -1.199060780466
N      0.858056010066   -0.127190042123   -1.685124725584
C      0.117871106397    0.097325400283   -2.809440916250
C      0.295314944076   -0.634487087567   -3.984575638066
C      1.289746869746   -1.643074034607   -4.003150774499
C      2.028348765016   -1.904618774125   -2.848245368632
C      1.769479192734   -1.146581678723   -1.676899404600
H     -0.623696714912    0.884216698954   -2.731631996685
H     -0.313919910455   -0.421396199487   -4.856591866351
H      1.465604576753   -2.225267498076   -4.904207155596
H      2.774722602530   -2.688777527838   -2.794072828618
O      2.431188553450   -1.441751217643   -0.540583283212
H     -2.945517776732   -1.816304468414    1.175354494723
