53

C      0.295016156914    3.876292964397   -1.449241665746
C      1.616230218048    3.936879049009   -0.918309825451
C      2.720521894346    3.584122583240   -1.744096447190
C      2.508567168774    3.183118406295   -3.066382988594
C      1.190419778975    3.113483154602   -3.590108380531
C      0.093569132169    3.453171518732   -2.792689028149
H     -3.604248984995   -1.086091779099    0.973787729891
H      1.797789070040    4.389133085682    0.050566523250
H      3.728406779438    3.656682392252   -1.343953190752
H      3.353823764340    2.929739690087   -3.701579438375
H      1.035688867779    2.802233539760   -4.620101682307
H     -0.914293133902    3.403214146102   -3.193234116540
C     -0.077322763993    3.272145888950    1.575510622451
H     -0.538512647474    4.292289156220   -0.892064899114
H     -1.119650218609    3.595412581600    1.476076792661
C      0.631323705902    3.683896133273    2.653157355138
H      0.176151674021    4.329245291896    3.404849408177
C      2.012535947984    3.299286079781    3.000654332835
O      2.584140987999    3.602719793291    4.066094719193
O      2.663400388303    2.546823157498    2.016635342616
C      4.008309328558    2.059703670384    2.371201543369
H      4.358159903215    1.519054446319    1.489218941106
H      4.669767500190    2.899664043235    2.605714338145
H      3.950528734429    1.394109087996    3.237958400244
Pd     0.507465084416    2.003197984304    0.158917464523
C     -1.390619631076   -0.030763745999    1.203214078425
O     -2.056489367310    0.138227931627    0.114489622827
O     -0.243354493692    0.523191097568    1.469503071406
C     -1.947128166748   -0.968157288835    2.283057086079
H     -1.956485623077   -0.427647684067    3.237728834327
C     -1.031033540274   -2.208462104649    2.447996467371
H     -1.442186861120   -2.848168092432    3.234199864588
H     -0.978952640689   -2.779464243868    1.512463793048
H     -0.021676821902   -1.891891279038    2.731217030886
N     -3.322792996311   -1.325939165265    1.920054049858
C     -4.206869415366   -1.850769783438    2.828104350586
O     -3.880033557347   -2.088190763618    4.024844267724
C     -5.610629583460   -2.131524001012    2.305476047607
H     -6.335151540457   -1.582658344798    2.917626007947
H     -5.743260890069   -1.850843345255    1.254678862833
H     -5.828573759800   -3.199590365628    2.420057018207
N      1.094796658950    0.506430627957   -1.311656422210
C      2.404285455909    0.121753292717   -1.343544571918
C      2.918485393623   -0.724202065622   -2.325867367279
C      2.039554076162   -1.193085854569   -3.331834796727
C      0.693246089303   -0.827208849444   -3.293457857509
C      0.230278232250    0.009079693587   -2.244897125897
H      3.032242708222    0.523221965244   -0.555376708946
H      3.965787255329   -1.005973094843   -2.309481615628
H      2.404198037387   -1.846516623678   -4.120130331853
H     -0.029426521391   -1.181311318514   -4.019584809268
O     -1.079639625677    0.324064050523   -2.192629850759
H     -1.485991969602    0.402421408210   -1.235084991164
