53

C      0.042285989737    2.772605593866   -2.378568278463
C      1.283414181698    3.396759157946   -2.054839790125
C      2.382841168022    3.284157498136   -2.952845030745
C      2.240261139875    2.571633059757   -4.147272106120
C      1.005036788886    1.947545678783   -4.468615916453
C     -0.081837958305    2.042770063751   -3.596079513163
H     -2.294036317260   -1.174637150935    2.507859817202
H      1.341226341115    4.085396204453   -1.217476210719
H      3.319095379708    3.783482068012   -2.716798498544
H      3.073750195384    2.501597046091   -4.841958220281
H      0.905605201972    1.400049810808   -5.402384475807
H     -1.029795793946    1.573108416285   -3.841643227828
C      0.201141725734    2.672228738105    0.750023346984
H      0.931213213198    3.050263705078    1.470460391138
H     -0.844114710585    2.995185348238   -1.793552809512
C     -1.123018703706    2.845404392538    0.964053204599
H     -1.887080140804    2.435901891081    0.306005729242
C     -1.681956669580    3.441887363796    2.202274395191
O     -2.892662902648    3.378380234922    2.512001117156
O     -0.731419010796    4.023756209700    3.013972582877
C     -1.137082851747    4.339769680205    4.398832483303
H     -0.294161793209    4.892395410963    4.817607068558
H     -2.047666750047    4.946755356304    4.400289001433
H     -1.300504827131    3.400083833845    4.936481048572
Pd     0.981676853746    1.433492442546   -0.605098840965
C      0.042931872725   -0.546007072679    1.341698565178
O     -0.793338659300   -0.923947420727    0.442081653314
O      1.086653007845    0.205305026056    1.113217110345
C     -0.199423224723   -0.977568961650    2.800519414790
H      0.392467434170   -0.330821436675    3.451232892689
C      0.194482606764   -2.456994919866    3.000841886200
H      0.030863234513   -2.742643975006    4.045779550032
H     -0.405391131277   -3.111192213100    2.356150703585
H      1.253736223879   -2.607944242360    2.758631888408
N     -1.613525681501   -0.738015554993    3.120770924687
C     -2.033115827485    0.220725718079    4.021308100267
O     -1.223602654755    0.892032764572    4.720628297423
C     -3.536433439473    0.435587191683    4.102474603609
H     -3.836225708224    0.480359432082    5.154536453689
H     -3.770754397783    1.404133175433    3.643091839629
H     -4.109921662783   -0.349312633350    3.596347790503
N      1.824906670775   -0.135396182174   -1.866778702997
C      3.148883423275   -0.116823069987   -2.197348580555
C      3.719638939996   -1.037917101959   -3.076322036510
C      2.881336340564   -2.024959764218   -3.648037032392
C      1.531888365906   -2.070312462621   -3.294012095080
C      1.023819156366   -1.123225313901   -2.366970582830
H      3.741556436045    0.667429758726   -1.738687443938
H      4.778110840398   -0.986578392651   -3.307823540835
H      3.286296708358   -2.754129674278   -4.345019254821
H      0.851637375025   -2.821727324906   -3.678220782713
O     -0.272596824588   -1.196964528811   -2.006371723998
H     -0.510490801127   -0.969003530977   -1.010571558009
