29

H      1.575383535458    2.113214734266    0.610880794477
Pd     0.168844036871    0.106663251266   -0.062781733734
C     -1.886368671704   -1.830213503645   -0.447343923028
O     -0.566214974401   -1.660130498059   -0.740419976965
O     -2.520964120439   -2.844455581771   -0.788906730859
C     -2.619689130458   -0.686342010977    0.353395156036
H     -2.934865864234   -1.136402316768    1.307230288817
C     -3.871166117153   -0.222304698933   -0.422730302632
H     -4.459558130792    0.493712876670    0.163731287002
H     -3.584408578737    0.249881345583   -1.369610829720
H     -4.492724133631   -1.096287621022   -0.642893077990
N     -1.642259472776    0.374542839270    0.589810258734
C     -1.498301309903    1.536984963389    1.200406200085
O     -0.248514577288    2.021042819710    1.072079028453
C     -2.531781853717    2.305378814068    1.969498877199
H     -2.804262161447    3.214814973488    1.419545037455
H     -3.433565500228    1.709997103793    2.140798280749
H     -2.111072141607    2.617059388826    2.931811250830
N      2.143736181128   -0.003788376913   -0.662269967977
C      2.605766037081   -1.087647194269   -1.355904301113
C      3.935118027353   -1.175728572724   -1.767176003243
C      4.813324843763   -0.111154617978   -1.451362347698
C      4.340452286525    0.996029373051   -0.741159134463
C      2.983322851414    1.021642487487   -0.354365989395
H      1.870563029170   -1.860418407033   -1.557004946611
H      4.274874877316   -2.046826895927   -2.316013369365
H      5.854725204739   -0.150830816785   -1.758355212203
H      4.972162781344    1.835088031849   -0.474670006596
O      2.533105598719    2.105834398218    0.339335548887
