41

C     -0.380341646829   -2.334336162426    2.300292773022
H      0.110179311199   -2.064951475068    3.242291608078
H     -0.442348700662   -3.427532590694    2.198411300708
C     -1.790728168563   -1.753623432900    2.302186711376
H     -2.438909980047   -2.310630446919    2.991279178574
C     -1.856054359495   -0.274275103413    2.713205823242
O     -2.315223569843    0.653888241838    2.031642466682
O     -1.357470086633   -0.116334685614    3.982686976510
C     -1.346608589812    1.254122070794    4.536455404417
H     -0.926976369010    1.147186833324    5.537001413597
H     -0.722621713258    1.901249861158    3.912958923494
H     -2.365802265914    1.650621481030    4.573547847090
Pd     0.778788789138   -1.643948513918    0.762043768376
C      1.064906610993   -0.219452091305   -1.829396219995
O      1.502016244300    0.306564112834   -2.871988943479
O      1.803237849667   -0.835783204754   -0.905142882119
C     -0.452534482357   -0.147721898859   -1.522024785021
H     -0.955288401194   -0.537902625783   -2.415988794633
C     -0.847673628150    1.336641439012   -1.323585845569
H     -1.931119667624    1.451493627379   -1.213278081250
H     -0.371073387382    1.740715786607   -0.423633251451
H     -0.510960910937    1.910554492048   -2.192400395337
N     -0.835564252657   -0.965652283686   -0.323682762046
C     -2.076271322858   -1.300830084142   -0.129495360020
O     -2.510002346188   -1.914256163294    1.021515620848
C     -3.240358682720   -1.107861258670   -1.067550382674
H     -3.813299943120   -0.228389318937   -0.749740929160
H     -2.934904196398   -0.977303778431   -2.107028717289
H     -3.900589193439   -1.976567257640   -0.987091789637
N      2.574760037845   -2.367491787579    1.649617412850
C      2.538751397617   -3.299555708385    2.657696877496
C      3.672835948254   -3.781807516285    3.301403668249
C      4.937964716849   -3.283826530008    2.903260803858
C      5.001584398318   -2.356066488129    1.870734886678
C      3.808021672341   -1.917270231461    1.228646481058
H      1.560150382303   -3.657504054750    2.943042459570
H      3.572128929875   -4.520223514592    4.089354398172
H      5.847486313090   -3.627843830711    3.388255868113
H      5.936263135462   -1.948965720817    1.503179879602
O      3.949123769599   -1.060583004069    0.212709179341
H      3.112005621619   -0.876029031137   -0.395556026940
