41

C      1.024279551086    1.817681862196   -2.198741440222
C     -0.038247987465    1.610376276103   -3.136730418649
C      0.115343117610    0.634178288468   -4.163452127461
C      1.282663391550   -0.126857848016   -4.234676240054
C      2.332625945516    0.077699320404   -3.298005341764
C      2.214333137214    1.044265045203   -2.298679183284
H      0.991418961715    2.670185052502   -1.526577961055
H     -0.876930090288    2.298681880065   -3.173021950130
H     -0.683609542508    0.491779498393   -4.885716403520
H      1.389705797375   -0.890966708591   -4.998446223801
H      3.229377990488   -0.532151908145   -3.362173464962
H      3.022447625195    1.209225166016   -1.591441528757
Pd    -0.727778838945    0.601385351203   -1.068136013532
C     -0.577549102248   -2.236441745086   -2.305790827526
O      0.023271936749   -1.261017405555   -1.610861433827
O      0.032330406095   -3.002337082795   -3.090156167825
C     -2.118981023451   -2.509994832029   -2.076914786598
H     -2.173100905277   -3.524231820168   -1.661048470223
C     -2.899814567524   -2.467510551404   -3.400168744601
H     -3.937671294355   -2.783377923856   -3.244542797132
H     -2.910938702500   -1.451757827829   -3.815277631969
H     -2.423406992881   -3.135794809891   -4.122762752546
N     -2.660744135056   -1.537113333956   -1.110481909734
C     -2.162610063241   -1.478759172986    0.153978723734
O     -1.737869588891   -0.341869881735    0.612541112024
C     -2.039777230152   -2.710193159031    1.011805852359
H     -2.170844060348   -2.422375697685    2.059262218982
H     -2.769382450520   -3.476718071106    0.738561773989
H     -1.026691630401   -3.122400626420    0.909977369815
N     -1.691260629897    2.314636356460   -0.621115421666
C     -1.245628539386    3.356191792966    0.138103939658
C     -2.062749285656    4.438741122085    0.441374768001
C     -3.397573431620    4.429690044343   -0.058853947262
C     -3.862743118112    3.361019230161   -0.812638766490
C     -3.008402709101    2.237074441486   -1.104836260082
H     -0.225298676842    3.291239644646    0.505400615518
H     -1.685197448984    5.255323392189    1.046572703000
H     -4.059674865021    5.264727671881    0.159600625542
H     -4.877929326471    3.320266891057   -1.193790379383
O     -3.369830056861    1.186298816304   -1.769000455602
H     -2.927743490607   -0.607047566263   -1.497760052974
