53

C     -1.137373403819    0.899870351841   -2.013775024673
C     -0.251082221337    1.417060218142   -2.973277266942
C     -0.556885963931    1.258997603714   -4.342582501456
C     -1.736982577117    0.602038007521   -4.737432395296
C     -2.611457341332    0.087782930726   -3.760009028356
C     -2.315490668417    0.231365031469   -2.388749048330
H     -0.162173767633   -1.527910318149    4.315657275891
H      0.671677020328    1.911540333460   -2.683180331093
H      0.131651488125    1.647066992679   -5.090143204787
H     -1.968760272090    0.484557421525   -5.793449986034
H     -3.516928572052   -0.436591247489   -4.058077722859
H     -2.965407322664   -0.203370981128   -1.635809917621
C     -2.063540235590    2.650270486739    0.176132757579
H     -2.375311420439    2.652059371789    1.216758174629
H     -2.842677201974    2.563895778799   -0.575498558397
C     -0.793976044628    3.176727231690   -0.178729261042
H     -0.586780061372    3.440228598018   -1.211606349519
C      0.148384899074    3.814213236580    0.779161386596
O      1.328216929204    4.116756511257    0.501844165469
O     -0.417966269695    4.090957992972    2.006467940607
C      0.464951904072    4.700401040434    3.014555302511
H     -0.169085019699    4.852853133653    3.889379979224
H      1.298901091141    4.027891540569    3.239111120062
H      0.860070392603    5.651880170762    2.645109592284
Pd    -0.704005033469    0.992807190999   -0.069072117836
C     -0.764953122490   -1.708771243707    1.109262661808
O      0.418244613408   -2.146974571131    0.889422353898
O     -1.498963820306   -1.045146779399    0.262135151717
C     -1.321085350039   -1.891252432598    2.549371508165
H     -1.135224835515   -2.934073304163    2.832332285638
C     -2.813450742001   -1.554640867562    2.688365585572
H     -3.148177620238   -1.699412283242    3.723742021787
H     -3.002654623350   -0.520413896335    2.387657358006
H     -3.403410464944   -2.204229816010    2.032465152006
N     -0.478733111606   -1.071663099423    3.468519559823
C     -0.015462883086    0.188617474330    3.240453320027
O     -0.269967627933    0.871207577523    2.200081894844
C      0.873061893640    0.785017378790    4.322045608434
H      0.482032789852    1.768584754087    4.601411471094
H      0.943738305702    0.159546927548    5.218159927405
H      1.878484408661    0.927894699103    3.909355277986
N      3.323443365276   -0.924626040156   -1.299422371241
C      4.526400027396   -0.679346574851   -1.880046903905
C      5.030294852674    0.616640194634   -2.078004182212
C      4.248969961751    1.707777261799   -1.636043513322
C      3.006647790440    1.473271584013   -1.029733055405
C      2.588155624417    0.129193145937   -0.893403409291
H      5.089261931274   -1.556494719333   -2.189521596222
H      5.995957323800    0.764802369557   -2.551223611678
H      4.605613998161    2.727931885545   -1.753471571519
H      2.397189218333    2.286034494082   -0.648072179588
O      1.369058720282   -0.136756757658   -0.310612523536
H      1.187750778487   -1.112524653909   -0.036674441904
