53

C      1.284185418645    4.209288584278   -0.234838619723
C      1.891293485432    5.443541126569    0.078471855599
C      1.535414102314    6.611053382693   -0.623444239512
C      0.574159715929    6.553665317775   -1.650168413310
C     -0.029564789592    5.321853231794   -1.972609810138
C      0.325286794978    4.157290566908   -1.269671742505
H     -3.708010047617   -0.844757532956    1.311204576778
H      2.635061917295    5.494423008344    0.871098905734
H      2.007479002734    7.557523489594   -0.371510906620
H      0.302362413314    7.454351289725   -2.194960276142
H     -0.767202755437    5.269205689856   -2.769536374435
H     -0.136836402396    3.204633539458   -1.527985379326
C      1.655112876519    2.967442075531    0.554350791857
H      2.038058740096    2.176497257667   -0.237031428917
H      2.556111073166    3.088487055726    1.165589054519
C      0.557444104577    2.307149069211    1.351282486617
H     -0.447461464467    2.721605227831    1.289535187391
C      0.939052512565    1.809000391173    2.708866499867
O      2.117277321362    1.620064457476    3.082743962959
O     -0.163727638051    1.587686181545    3.495492101282
C      0.027557319408    0.946058309818    4.821742920453
H     -0.428014189289    1.612895866854    5.558982560302
H     -0.495292896226   -0.012890855714    4.779421225844
H      1.094279316697    0.817172041314    5.020467230477
Pd     0.767378782704    0.777384065705    0.006923111109
C     -1.047828243618   -1.607632588913    0.398622488960
O     -0.366341957172   -2.282241980017   -0.453980005568
O     -0.844138900278   -0.351564737265    0.697676969835
C     -2.190547674722   -2.327855180866    1.155911830146
H     -1.695270323785   -2.938193064972    1.921501817249
C     -2.997969416260   -3.234771524425    0.206985364745
H     -3.711304414779   -3.835156693177    0.782317941457
H     -3.556260006404   -2.641701392269   -0.530822105802
H     -2.320202974866   -3.896837974968   -0.337823993354
N     -3.052310886111   -1.383126800072    1.865133343527
C     -2.812642578868   -0.989303665241    3.161946676264
O     -1.932275332421   -1.537683803273    3.880584341173
C     -3.663613591225    0.164997115869    3.669482909848
H     -4.564071719319    0.331564675696    3.067055592927
H     -3.954398294167   -0.027324901209    4.706524718490
H     -3.052954602752    1.076628258356    3.649359464120
N      2.059798804877   -2.067895166941   -3.191955640930
C      2.867302883394   -2.225052414091   -4.271598030212
C      3.704099618165   -1.206251026144   -4.757180809040
C      3.696455663919    0.035349979095   -4.085172340931
C      2.866933854310    0.211349507080   -2.968309618399
C      2.065829250351   -0.878284986693   -2.560417289456
H      2.831501677691   -3.200648032828   -4.749381160850
H      4.334228460120   -1.378087530628   -5.623786179568
H      4.327034243929    0.852308567767   -4.426295940161
H      2.833357612863    1.152071966753   -2.428177769160
O      1.238084967064   -0.754311689027   -1.468635893515
H      0.620208043264   -1.582750205057   -1.170328789188
