53

C      0.490912846212    3.410748327494    1.325237599523
C      0.866717848019    4.570495010670    0.597579893074
C     -0.105879695500    5.448902884244    0.097125909805
C     -1.472752015673    5.173670315943    0.306824355093
C     -1.859621818290    4.026057699670    1.029990627500
C     -0.887330313617    3.158723391431    1.548841495498
H     -2.706716909124   -0.888322698919   -1.412968968924
H      1.922343153422    4.773149731864    0.424155464017
H      0.194830249189    6.335651764527   -0.455291124890
H     -2.230652314703    5.844063375815   -0.091660239256
H     -2.910125728266    3.788332162559    1.165754564023
H     -1.199486267425    2.288675093544    2.115625961044
C      1.563696770116    2.536292642217    1.820520102778
H      3.075240113437    0.941784012241    0.499479463644
H      2.570831880301    2.934430473014    1.714629204877
C      1.443002758237    1.358898662449    2.581539927258
H      0.477018105200    0.960366048265    2.891112238031
C      2.592136691449    0.803546994963    3.351832083129
O      2.530188167189   -0.199987311845    4.083089731864
O      3.760389167869    1.545555883130    3.211155649215
C      4.940815142214    1.053907380222    3.940510934097
H      5.729907306618    1.774398298074    3.719449247398
H      4.732623783460    1.015169113166    5.014252719744
H      5.212001954439    0.052390529779    3.590343669977
Pd     1.588785801054    0.573298158029    0.502154422798
C     -1.500176874417   -0.236233753254    1.301737169771
O     -0.522502872029   -0.019697094818    0.410917812334
O     -1.381953747144   -0.028193206251    2.531410706005
C     -2.821382884591   -0.806321325402    0.725778418866
H     -3.613253497433   -0.418241123938    1.372356947116
C     -2.791424386375   -2.348551040552    0.792535741339
H     -3.758639836841   -2.757941085643    0.478787992868
H     -2.008000665185   -2.760593465206    0.141993122731
H     -2.589799167987   -2.673169405356    1.818556587918
N     -3.087077746670   -0.349607128586   -0.642145270417
C     -3.642930059037    0.884638675942   -0.902148866795
O     -4.003985566851    1.663577509612    0.022133928388
C     -3.816203007362    1.237666423024   -2.372760253856
H     -4.881695051197    1.199802454881   -2.631035616908
H     -3.472748832419    2.264615566076   -2.532209676156
H     -3.262966673640    0.567253368800   -3.039076776779
N      1.950433861378   -0.417578070258   -1.370604623095
C      3.255311785131   -0.658660280283   -1.735844159508
C      3.610803262920   -1.235394092501   -2.950741474288
C      2.581825525196   -1.587207737418   -3.858790316532
C      1.255814221708   -1.360815405166   -3.504227067496
C      0.948583354509   -0.781248474287   -2.241520750301
H      4.008084991541   -0.368061653312   -1.015725625711
H      4.657053471807   -1.400129392881   -3.183454151164
H      2.822337639579   -2.033200924438   -4.820137883471
H      0.426033283995   -1.617664234273   -4.152582618850
O     -0.337199905763   -0.598258250078   -1.920104321253
H     -0.529784145462   -0.308969473690   -0.884949443187
