15

H     -2.593530964908   -3.143587948456    2.432676449815
H     -1.776836783826   -1.851619080723    1.527542720190
H     -1.061153480695   -3.482605047479    1.581790929591
N     -1.533351023074   -1.331288533068    4.248802092972
C     -0.731137557792   -0.329179487611    4.382002925516
O      0.555114366940   -0.473170621927    3.748541600807
C     -0.940552108908    0.959452138577    5.097386485918
H     -1.942585925296    0.976542764073    5.531626313617
H     -0.194238764444    1.080676864390    5.891621648996
H     -0.824324075748    1.803062605005    4.406604600775
C      0.546768765400   -1.761298045877    3.127886970030
O      1.496285678888   -2.199126929152    2.492220809687
C     -0.836862800408   -2.366796727807    3.434841906973
H     -0.701585225893   -3.267396741875    4.047407876784
C     -1.616815408465   -2.733932305594    2.156988971063
