53

C      1.406324702838    4.310249253996   -0.108240025141
C      2.078320333887    5.480495537384    0.302127372155
C      1.756258017393    6.726716256266   -0.268934765621
C      0.762379030780    6.814200242210   -1.261419832247
C      0.091462787110    5.647619531409   -1.680263814516
C      0.413550076949    4.404955718047   -1.108071750284
H     -3.090200076442   -0.612106048252    0.521201110371
H      2.846429589911    5.419974335306    1.070376315901
H      2.278985879909    7.621979999169    0.058790132440
H      0.515386928275    7.775770594591   -1.704515129277
H     -0.675021939802    5.707874554718   -2.449204365980
H     -0.104702794097    3.504974808551   -1.438332211646
C      1.750176566248    2.979835511482    0.536430962157
H      2.220686509288    2.311160620887   -0.324049710578
H      2.598163193905    3.038753233828    1.227639937585
C      0.621580633232    2.195644533639    1.151614213674
H     -0.391534298030    2.583042551325    1.055236740860
C      0.907192998804    1.553054721342    2.467694023312
O      2.035764731997    1.481460228856    3.001290872082
O     -0.232324558204    1.030947157072    3.035681229326
C     -0.081343546056    0.293250677076    4.312366600447
H     -1.044925025233   -0.193623626438    4.465808316109
H      0.726924684855   -0.438518224268    4.221902550893
H      0.151393797929    0.999855879236    5.115731231111
Pd     0.984509805369    0.854290464451   -0.373291552439
C     -0.516091187901   -1.440641350187    0.677057265483
O     -0.690391362067   -0.324403525030    0.013602591452
O      0.611720238143   -2.018371217872    0.842318581221
C     -1.775237195787   -2.101748678500    1.263853957488
H     -1.530216966831   -2.407790338338    2.285367350951
C     -2.149535900658   -3.353445354680    0.433802504465
H     -3.001286265796   -3.860487804390    0.899784830712
H     -2.426363062015   -3.078996817880   -0.592618795457
H     -1.301245738491   -4.045123336188    0.394436861285
N     -2.880318767494   -1.145430235779    1.357227453086
C     -3.390842338771   -0.720401355343    2.562553886604
O     -3.024181246017   -1.211756334001    3.666954262502
C     -4.425729523442    0.393247146427    2.487682797433
H     -5.279170179542    0.132057136587    3.121421386665
H     -3.983403033245    1.313335182883    2.888695011059
H     -4.778249433456    0.584720964739    1.467999273018
N      1.768388979339   -0.246292095093   -2.056727425340
C      1.673448079906    0.309792464575   -3.304917310341
C      2.333974259476   -0.210456681758   -4.415299358973
C      3.139318794498   -1.362984023815   -4.235785772509
C      3.227004898908   -1.950372801091   -2.975414588358
C      2.509605314752   -1.383975287273   -1.885916006739
H      1.052549519700    1.196454252111   -3.384263372633
H      2.231394608104    0.267332989193   -5.383502020646
H      3.679093356814   -1.792551463289   -5.075517162331
H      3.814095623222   -2.841159262923   -2.784401381563
O      2.601174641471   -1.976315459169   -0.686291015859
H      1.807207503612   -1.880545590880   -0.010616570198
