41

C     -0.080622724497    1.130199249003   -1.489046035100
C      0.588796166157    2.092903100747   -0.705465055991
C      0.298226596492    3.461531644260   -0.898600834828
C     -0.639942197636    3.862089103944   -1.868753395170
C     -1.299526799909    2.889488910156   -2.646099520032
C     -1.028982714582    1.517778598381   -2.457497652935
H      1.646393639253   -0.855153736207    1.292701480790
H      1.324193061310    1.802409528345    0.039650965391
H      0.811238887787    4.205784715670   -0.292969936339
H     -0.856076847784    4.917529792072   -2.016222918906
H     -2.031318196232    3.189904932472   -3.392786031280
H     -1.561249099097    0.770146579566   -3.037873242915
Pd     0.245533098821   -0.821452439985   -1.254771452933
C     -2.836284082587   -1.078766041348   -0.649056138753
O     -1.723367318823   -1.329011662624   -1.332936919865
O     -3.990093380312   -1.306594743480   -1.084982181930
C     -2.740497998837   -0.502156847538    0.807304770122
H     -3.402060862017   -1.133733470355    1.409963453015
C     -3.277845901787    0.942306539516    0.848235016953
H     -3.316432155389    1.312009220882    1.880168344274
H     -2.649016162246    1.617293079720    0.254439084970
H     -4.286887657571    0.958620381043    0.427052556271
N     -1.378195007065   -0.553804485872    1.367682351628
C     -0.715477895349   -1.678389630203    1.742103412711
O      0.560715184731   -1.682620146709    1.858749101976
C     -1.500146751618   -2.945106469500    2.005754253411
H     -2.336369333904   -2.769348541653    2.691700419267
H     -1.911046025441   -3.339259525381    1.067371457591
H     -0.823771325834   -3.685960364423    2.434986325401
N      2.297333404896   -0.584457783784   -1.310803134643
C      2.902889450195   -0.592554304230   -2.543456986717
C      4.271631351031   -0.405559220732   -2.707533916183
C      5.065191585259   -0.193009582519   -1.553794343274
C      4.461260910469   -0.186534413566   -0.298018324730
C      3.060469448040   -0.391719219595   -0.189030199246
H      2.244426356469   -0.740883333099   -3.391387651592
H      4.703798008621   -0.417500540369   -3.701912298372
H      6.137052302651   -0.039297964550   -1.643609610692
H      5.019280610818   -0.036975179006    0.618820730384
O      2.513415225831   -0.337134257116    1.035933646327
H     -0.795674122097    0.261126716166    1.183778924233
