41

C     -0.700003300481    2.674920225281   -0.638039131310
C     -0.328518000724    3.748240940120    0.196714182881
C     -0.657526325024    5.069642019985   -0.173890342801
C     -1.350140150808    5.322110173417   -1.374393848018
C     -1.715780790229    4.247413139220   -2.208065718934
C     -1.389463258728    2.922616478541   -1.844789455758
H     -1.683556481326   -0.221488041112    1.595718694563
H      0.206905384698    3.568129747191    1.126137402629
H     -0.371178249307    5.895082185424    0.474627630929
H     -1.600746661695    6.341981982984   -1.656473999190
H     -2.251688853386    4.433302742498   -3.136744061838
H     -1.674800443411    2.101886779327   -2.501319041808
Pd    -0.360689103065    0.801756795561   -0.063131944431
C     -0.916847978009   -2.302204518420    0.275511319266
O     -0.319139291282   -1.237831578617    0.891959576284
O     -0.341150769871   -3.036219985384   -0.545231556491
C     -2.395448472800   -2.522722962392    0.721025742759
H     -2.394278054829   -2.432204187389    1.820862211570
C     -2.904054939711   -3.910285997435    0.318923443245
H     -3.944342687453   -4.029311836269    0.640937243117
H     -2.855220213474   -4.025849631142   -0.767707605354
H     -2.290629091003   -4.695362126221    0.775196307748
N     -3.322771958241   -1.498929393430    0.151865733473
C     -3.263124233410   -0.235205406128    0.319033191015
O     -2.236877053831    0.450963463543    1.096304473576
C     -4.246529827007    0.756222908327   -0.230546967569
H     -4.964070324001    0.240566626448   -0.871279083429
H     -4.777328500189    1.249289152036    0.593376765415
H     -3.731000014084    1.539423667012   -0.797383758803
N      1.538751140146    0.779093386000   -0.894765891160
C      1.906313663753    1.574928137310   -1.951277475561
C      3.197212389390    1.582240523916   -2.469150742930
C      4.171256784604    0.741969947302   -1.876765282039
C      3.808003836659   -0.078343524005   -0.812707495174
C      2.471182063421   -0.064146844913   -0.334435901754
H      1.134154061946    2.213045214653   -2.357235906467
H      3.435648413456    2.229613414507   -3.305631737674
H      5.190818326120    0.728842857400   -2.252185331156
H      4.502113865882   -0.754981188277   -0.328427838524
O      2.156732628186   -0.878247633762    0.682395178375
H      1.143354974534   -1.105920044438    0.822510920463
