31

H     -3.270669468532   -1.186966559164    1.844907973945
H      1.741166361351    0.015559795409   -2.715007971886
Pd     1.047293784064   -0.608233596691   -1.503599201693
C     -1.250159477987   -0.250535754980   -0.372074360680
O     -0.480341768725   -1.157971670756    0.159703682662
O     -0.845887544418    0.374343211101   -1.441939272782
C     -2.654896837598    0.018880971228    0.185325404668
H     -3.317179043245   -0.669717929301   -0.361242760096
C     -3.124211368774    1.462958505785   -0.094897821148
H     -4.171040726439    1.574957466938    0.210753762475
H     -2.509242106627    2.173589377030    0.461548364508
H     -3.032896731018    1.680597233620   -1.163285666615
N     -2.739427309144   -0.360781800623    1.602559371060
C     -1.953921619531    0.226668141338    2.575027779537
O     -1.173721733819    1.178316960358    2.314719089832
C     -2.079651387397   -0.363793578639    3.972445073831
H     -1.185231777551   -0.961239240481    4.188159556374
H     -2.117559352080    0.451025541152    4.701823668911
H     -2.964692395211   -0.998775097243    4.094516895991
N      2.711725492654   -1.757947037905   -1.155109359666
C      3.829329668135   -1.743466755079   -1.951619649840
C      4.947619026224   -2.528872916025   -1.684415019638
C      4.928601242193   -3.371953197876   -0.547885726474
C      3.798774902795   -3.395212957421    0.268306895521
C      2.691201330232   -2.574963599144   -0.054163637322
H      3.790644046672   -1.080311766350   -2.804884309232
H      5.807420599991   -2.481879581329   -2.343336197102
H      5.785050881226   -3.996398386737   -0.309775735079
H      3.725612204966   -4.018525087196    1.151582648015
O      1.619302152525   -2.634814577074    0.768168244696
H      0.814359708938   -2.064631636430    0.568002363177
