53

C     -0.292452353846    4.228028095816    0.284008102278
C      0.645636046242    5.226516989521    0.623720552416
C      0.455939893950    6.560274791154    0.213004497400
C     -0.674983366243    6.912626653690   -0.547823339013
C     -1.616039570514    5.922174432789   -0.893232943210
C     -1.424961588334    4.591727931588   -0.479839089334
H     -2.547617142727    0.160808401590    1.037700474536
H      1.521629305285    4.956169174703    1.208860652052
H      1.185082785879    7.319819905158    0.486827156767
H     -0.822531617245    7.942205219032   -0.865687664345
H     -2.493357668448    6.186415494036   -1.479374178278
H     -2.158041958556    3.832208122560   -0.747212585190
C     -0.092954106800    2.775826330488    0.723184392103
H      0.634478234495    2.726730458545    1.538566747780
H     -1.050262418243    2.390282474980    1.091353833813
C      0.382132686485    1.884469096179   -0.449127525359
H     -0.292256255666    1.933763864500   -1.312349679424
C      1.768920911059    2.163385961812   -0.927215874280
O      2.156420410117    2.049640360158   -2.110743733063
O      2.635107129566    2.552353487560    0.082575415944
C      4.020510243819    2.858201452465   -0.311509238505
H      4.512486865011    3.172342278803    0.610418207668
H      4.500777891635    1.966871088350   -0.727456139524
H      4.032052033622    3.657912542236   -1.058673320159
Pd     0.002437982709   -0.073522586867    0.165902519733
C     -2.702732020781   -0.479731349776   -0.839418890725
O     -2.176147681038    0.439624280833    0.157889870741
O     -2.767915718261   -0.114966759525   -2.002991261323
C     -3.082110483033   -1.851594106629   -0.249802244628
H     -2.333876476073   -2.539599794846   -0.678620394946
C     -4.487728717153   -2.261286504819   -0.735059325994
H     -4.692457976093   -3.284960054717   -0.406680392960
H     -5.248471444054   -1.607231782884   -0.294977940942
H     -4.554409195304   -2.211434920275   -1.827281228958
N     -3.039425159195   -1.873191420039    1.231238024750
C     -1.873898130563   -1.997902163128    1.829767030464
O     -0.675442560657   -1.953360847895    1.195640105715
C     -1.827855499402   -2.197903985606    3.329457268078
H     -1.357729920994   -3.163906579031    3.555461156426
H     -1.218213173130   -1.421316430958    3.809895307981
H     -2.838423419965   -2.185635491575    3.742114971233
N      1.917897822839   -0.875907412950    0.016421582878
C      2.678099358744   -0.753077120645   -1.116712833976
C      3.963331084637   -1.283774590847   -1.211665546672
C      4.503028028795   -1.962157963285   -0.093607309110
C      3.719142780806   -2.131501823053    1.047071453628
C      2.397992970031   -1.619436848659    1.070471299792
H      2.242892536721   -0.198962603132   -1.937754584457
H      4.523951350371   -1.159590482053   -2.131315669419
H      5.510317415825   -2.368550755266   -0.127961669457
H      4.061230811899   -2.677275650080    1.918658549096
O      1.608700188856   -1.883329642726    2.125525937009
H      0.580807090505   -1.948679608586    1.868607261083
