53

C      1.341352789418    2.760540913877   -0.998471623835
C      2.742690195316    2.601935905008   -0.949964056799
C      3.570913046869    3.428085758931   -1.740705977429
C      3.004525225527    4.411196895133   -2.574393880241
C      1.604966904474    4.565985552469   -2.619065731039
C      0.770787595008    3.743300029298   -1.832807402747
H      0.681833431514   -3.347253992184    1.550913573043
H      3.198942975592    1.840844553810   -0.318888957278
H      4.650378755270    3.298597605960   -1.701510363223
H      3.644334475857    5.046842551962   -3.181719027953
H      1.159271295953    5.320649222670   -3.263644991618
H     -0.308714868599    3.869201271374   -1.883888149265
C      0.857851558945    2.511000231435    2.020548156956
H      0.651029918098    1.791631717317    2.804878448505
H      1.893131104813    2.769494778688    1.818732346110
C     -0.175038744107    3.282397208714    1.502054862726
H      0.026039476160    4.136495034649    0.862253346967
C     -1.592203298588    3.213989485572    1.981917908505
O     -2.545108435611    3.743326685808    1.381996691048
O     -1.716894320146    2.554134040153    3.179900750691
C     -3.087326473475    2.362488683864    3.690521080942
H     -2.962140715122    1.853456369847    4.646740375486
H     -3.580117109853    3.331082582031    3.818527088340
H     -3.658207996007    1.750080360304    2.986075411803
Pd     0.178835882193    1.531899263573    0.086668394003
C      2.144432390342   -2.289290491299    0.931550670085
O      3.198420125426   -2.103557125075    0.308409468657
O      1.534580495347   -3.512584672946    1.039438461479
C      1.391762480284   -1.174589792248    1.697095422407
H      1.410166889120   -0.281478372888    1.052635911173
C      2.160919875876   -0.867893161826    3.006757418824
H      1.655764405152   -0.073775248632    3.568103554837
H      2.193291714931   -1.758758655900    3.644386484351
H      3.187737187602   -0.555666490561    2.783546339772
N      0.043382236625   -1.681306487888    1.994227523531
C     -1.055345068050   -1.024948811061    1.738181426005
O     -1.175233487832    0.204616402077    1.171398102862
C     -2.385303468333   -1.665705854393    2.090527550790
H     -2.228971237649   -2.664385305181    2.503773672124
H     -2.908459631640   -1.046297335255    2.830173761860
H     -3.026822092215   -1.728440794860    1.202302627063
N     -0.212521323249    0.381594930841   -1.678357840982
C      0.757487127541    0.124202313610   -2.611617438954
C      0.482716445142   -0.522565073427   -3.813696514553
C     -0.851560367159   -0.908491618059   -4.085413963684
C     -1.843880232417   -0.664609740697   -3.136462785620
C     -1.496412403896   -0.036129851085   -1.915522922669
H      1.756699769278    0.461585059705   -2.370566107466
H      1.285312884580   -0.712603196096   -4.517156430196
H     -1.102130979718   -1.401815280707   -5.020510811576
H     -2.877974422437   -0.954817666679   -3.280697087117
O     -2.456644311206    0.152796662808   -0.986018736813
H     -2.081703357672    0.259292749769   -0.020185031573
