53

C      1.159503681091    3.167073553380    1.346098612231
C      2.548859333017    3.424845621080    1.303533948632
C      3.079977349118    4.618762920848    1.825693287416
C      2.226349357124    5.578463891795    2.404568291500
C      0.840566218853    5.332118974311    2.454860648403
C      0.313295113725    4.137078049380    1.929561686135
H     -0.951462260813   -1.903118309854    3.959981822000
H      3.215532441205    2.685533644611    0.861618652931
H      4.152009294138    4.799498859866    1.783564197292
H      2.634577551960    6.501994339512    2.809048964000
H      0.174344522670    6.068204649971    2.900274933426
H     -0.758024972157    3.952552063078    1.962562709902
C      0.594492661175    1.875858857664    0.758349048119
H      1.323082391920    1.069705699655    0.904467593295
H     -0.329957017774    1.601357410673    1.276311387131
C      0.307005778916    1.988625464922   -0.756301679431
H      1.196875266589    2.312325833636   -1.308300647209
C     -0.832374744091    2.867466603189   -1.150547148890
O     -0.882062552371    3.582615301552   -2.176627169939
O     -1.907096501232    2.818547429829   -0.260651390309
C     -3.096508908635    3.597072669765   -0.637175421385
H     -3.805560774900    3.445787658207    0.179332654601
H     -2.841386620849    4.656103379499   -0.747314872728
H     -3.505927055464    3.228512429047   -1.583502710868
Pd    -0.103577984536    0.134949207379   -1.625270793792
C      0.098734713854   -1.598050928880    0.944962045386
O      1.439018741706   -1.615585722640    0.901647881952
O     -0.581483346775   -0.871637855365    0.187470405808
C     -0.584874950742   -2.560730354168    1.949132742476
H     -0.182457884389   -3.560565968697    1.728600776161
C     -2.109792262991   -2.558490299675    1.795511361105
H     -2.560664953696   -3.287535980051    2.479478687699
H     -2.525619423267   -1.563341011314    1.989608719994
H     -2.382032942390   -2.826460412706    0.771312257531
N     -0.212129782087   -2.237067103864    3.351700915878
C      1.035645942034   -2.460987692121    3.863023384267
O      1.995873293281   -2.801171901609    3.095580034781
C      1.237952116856   -2.293424196808    5.351256635281
H      1.566904367905   -3.249611900813    5.773834306647
H      2.039150716967   -1.567943884564    5.526845635663
H      0.332973021234   -1.965982905647    5.872810095542
N      0.139792890721    0.610475019408   -3.581350048671
C      0.359164217318    1.679363310089   -4.384185814269
C      0.471872659964    1.505935035906   -5.768025827662
C      0.342668835028    0.196510183748   -6.304220802646
C      0.097614946757   -0.900416588478   -5.473688660791
C     -0.013052481843   -0.679218158966   -4.071920577904
H      0.406329949581    2.651217691236   -3.905084800064
H      0.645975906965    2.364014331595   -6.407922398216
H      0.428770428178    0.046186010703   -7.378476595267
H     -0.015999257326   -1.908935768199   -5.856719315916
O     -0.258396384147   -1.564883493525   -3.117487592259
H      1.855576541790   -2.189961393661    1.643481512785
