41

C      2.913007987908    2.406421743051   -1.258262250120
C      4.289551452557    2.343221615348   -0.948603995466
C      5.140048316014    3.403498910300   -1.329617955557
C      4.622076761798    4.505534072134   -2.037046548304
C      3.252020899703    4.549862839331   -2.364821436525
C      2.394368172767    3.495333015016   -1.988548744301
H     -2.858552388648   -0.660979990212    1.868538513950
H      4.705238581787    1.490861347115   -0.410504552903
H      6.197947435294    3.361657872661   -1.079272236265
H      5.279905833732    5.318546949952   -2.335026304228
H      2.849987380684    5.399099987663   -2.913206293494
H      1.339400656737    3.535521545626   -2.248820304007
Pd     1.761840264083    1.041931892456   -0.408008714968
C     -0.481003002305   -0.374832788035    1.235028998282
O      0.781383256863   -0.211963574446    1.018612561217
O     -1.415754703954    0.026910759099    0.432296942340
C     -0.892925593121   -1.121239527735    2.505105192987
H     -0.393174687459   -0.647406984363    3.359574009837
C     -0.417383995391   -2.596672726926    2.437754604016
H     -0.701064683837   -3.099845542138    3.366529946898
H     -0.884247556675   -3.115927645963    1.591686146346
H      0.671273122162   -2.635015152733    2.324594770575
N     -2.344399598556   -1.002461804067    2.675124151861
C     -2.957676926720   -1.237452983475    3.879897791768
O     -2.309741879989   -1.598257289480    4.902325738126
C     -4.467600086708   -1.037402198456    3.910310744759
H     -4.948826144551   -1.982356124517    4.187586449681
H     -4.714582279733   -0.304780969587    4.686821109433
H     -4.876225162988   -0.696389348565    2.952664913796
N      1.157156849430    0.430854901735   -2.282598156280
C      2.075224284429   -0.040497912465   -3.186144054605
C      1.719638758518   -0.411929825709   -4.478948833760
C      0.364440066229   -0.280970225440   -4.870256550197
C     -0.572176428476    0.190692829249   -3.953782257530
C     -0.170691916221    0.538179437542   -2.632516047159
H      3.100446383479   -0.093649462291   -2.843084431376
H      2.478272306211   -0.777793961181   -5.161803597428
H      0.054460214071   -0.550493136536   -5.876360525170
H     -1.622940136519    0.300033859442   -4.196340962754
O     -1.070226592980    1.000116043033   -1.768445701089
H     -1.167372035176    0.597736072560   -0.742469886576
