31

H     -3.191874836040    1.093326262920    0.842463458759
H      0.898653758307    1.733523991606   -1.807390829401
Pd     0.593941353335    0.390898334358   -1.145918753251
C     -1.364790758625   -0.500833971927    0.304209916322
O     -0.406357317789   -1.342970405404    0.053918508594
O     -1.286095185827    0.712836380362   -0.180496033757
C     -2.575027422429   -0.922432463816    1.117329667094
H     -2.222790907751   -1.334906162413    2.072255780606
C     -3.354799735008   -2.044213392350    0.379894362798
H     -4.200338068675   -2.348533710899    1.002949527332
H     -3.730216350954   -1.685282768906   -0.585941250233
H     -2.702770288645   -2.908058914232    0.211833783235
N     -3.397714822332    0.261755567373    1.387249168187
C     -4.327006921991    0.277231775521    2.399603781253
O     -4.536843248730   -0.733655053824    3.125449802040
C     -5.085586712056    1.583614770988    2.589809862199
H     -6.156531704198    1.400522602618    2.445426240593
H     -4.949126333780    1.928095829188    3.620946337878
H     -4.763082256516    2.373247038267    1.902254341193
N      2.353955456078   -0.353842665074   -1.888930850716
C      3.231583745151    0.378914910750   -2.649750748682
C      4.419819197990   -0.154883245328   -3.140314167146
C      4.732825951598   -1.502761906540   -2.842485074364
C      3.849810617538   -2.256006926296   -2.070832831907
C      2.656145636174   -1.659520194102   -1.599138679232
H      2.944047566004    1.402354140016   -2.847298102521
H      5.080782724131    0.463761341828   -3.736926336673
H      5.652115498807   -1.949790873269   -3.209892547632
H      4.034156945574   -3.291203121189   -1.809354983870
O      1.834840345671   -2.434853747493   -0.855130200902
H      0.980703009196   -2.047806398935   -0.496743253312
