41

C      2.413423497391    2.243978142189   -0.437513457090
C      3.580451399926    2.190874644842    0.355294293538
C      4.541685461873    3.220980087904    0.275157290498
C      4.339848753442    4.315742987946   -0.588241552415
C      3.171377383487    4.374709724710   -1.372754537562
C      2.213570389299    3.340755062752   -1.303700469712
H     -0.886751482938   -0.430394099735    3.757938917342
H      3.740305283448    1.363702760718    1.044036347390
H      5.439094664056    3.169248671811    0.889290435702
H      5.079437887906    5.111350089381   -0.646154721148
H      3.003555227401    5.218866326330   -2.039139311512
H      1.319616066995    3.398561849680   -1.921056463689
Pd     1.029927685062    0.815424680762   -0.258554686533
C     -0.904948556017   -1.472105342122    0.911977661309
O     -1.868630651970   -2.267617805434    0.910728983912
O     -0.623980453992   -0.595472200171   -0.049829004373
C      0.081615000946   -1.398976489961    2.117900521878
H      1.084162510312   -1.207676066210    1.719278367727
C      0.061173201051   -2.678769412522    2.959936685804
H      0.726357186450   -2.588956708579    3.827903880460
H     -0.958626141126   -2.907018615807    3.291162687190
H      0.393844781717   -3.525982302615    2.351901867693
N     -0.280826106810   -0.235349447512    2.967886375380
C      0.084916738137    1.050612765006    2.750193306081
O      0.785623744511    1.437783586335    1.755103006514
C     -0.345820894629    2.085407667447    3.770979808165
H      0.539717576251    2.621031764337    4.128733130206
H     -0.995753695349    2.819477380503    3.282017727184
H     -0.873984283070    1.649495699981    4.625185634622
N      1.261408286288    0.267720497470   -2.260418236650
C      2.491454616459    0.350389801472   -2.867370659779
C      2.688401980841    0.063965248453   -4.214881180691
C      1.570900204548   -0.315874380989   -4.997268838866
C      0.322140107689   -0.424440517759   -4.392000684475
C      0.182126416683   -0.154014558194   -3.003646879638
H      3.309071167765    0.669910425960   -2.236399506520
H      3.681993160313    0.147357346270   -4.641171547637
H      1.685241404442   -0.532057272992   -6.056172168339
H     -0.567054744792   -0.731555948671   -4.930091630407
O     -1.027127321833   -0.315411432578   -2.449703747840
H     -1.036208101678   -0.464173886241   -1.406780576839
