41

C      0.739548553702    3.936888626945    1.428214733721
C      0.977047031670    4.996403122257    0.515854113687
C      0.007520189674    5.987797043353    0.300052310134
C     -1.220563012831    5.929479396789    0.987892430778
C     -1.472792374624    4.873179570830    1.888215381556
C     -0.505376403274    3.883266221209    2.108969957067
H     -1.439683138662   -1.705673975105   -1.432950224832
H      1.924631940994    5.039350535757   -0.017638827554
H      0.204220475950    6.796935192279   -0.398207648578
H     -1.975883949667    6.693193807140    0.820096562016
H     -2.426207140983    4.818440451481    2.406560622707
H     -0.731336834205    3.062471936118    2.782581237518
C      1.810285147752    2.947838879999    1.631901104936
H      2.344558738895    0.685166668033    0.379308627057
H      2.725316878643    3.110192525739    1.063056462370
C      1.890837289933    1.982961265400    2.658785662263
H      1.138763055580    1.908833532991    3.440244980355
C      3.212438808357    1.381168539553    3.005375095248
O      4.289906315073    1.577435586561    2.414671933155
O      3.092760990854    0.579674310397    4.120946245387
C      4.317985368138   -0.092639567966    4.594030442758
H      4.005233171066   -0.658941733080    5.471722576210
H      4.705734450342   -0.754787016822    3.813636153816
H      5.078666682364    0.650653709170    4.852131497992
Pd     0.965966000650    0.930152803047    0.987402930470
C     -1.356337296870   -0.122701081001    0.478486055412
O     -0.237121631227   -0.399730886935   -0.174214252318
O     -1.316207386402    0.725425114581    1.451492303981
C     -2.641443685667   -0.830885805246    0.083620346995
H     -3.410445577610   -0.069361671145   -0.102859004547
C     -3.139922386028   -1.728110144577    1.247616103441
H     -4.082816380549   -2.196393637448    0.951429709735
H     -2.405732218313   -2.510336138823    1.475653924549
H     -3.304333877924   -1.120883860249    2.144263263110
N     -2.408601982947   -1.581865689140   -1.155504082770
C     -3.445328188018   -1.999093650145   -1.953495844542
O     -4.651296321958   -1.783545955984   -1.647991545561
C     -3.052754802883   -2.737260599882   -3.226488500383
H     -1.968423094911   -2.813422031639   -3.363226618474
H     -3.480818551354   -3.745949850353   -3.202403685451
H     -3.487428565819   -2.218285610570   -4.088028618552
