18

H     -1.557365918895   -3.537791981348   -0.473852476902
H     -2.674165556121   -2.912460875497   -1.730552932413
H     -0.935224733222   -2.792208735370   -1.965100232121
N     -2.744124776618   -1.324538844997    0.537397801705
C     -2.731444063310   -0.397120172144    1.542557974894
O     -1.893518845762    0.561255236299    1.530886453135
C     -3.739256696828   -0.555189606929    2.661364135627
H     -3.462037589579   -2.040028610673    0.522161773208
H     -4.330433827414    0.362798171138    2.745806433880
H     -4.413050755796   -1.405985871841    2.515387829332
H     -3.201957649952   -0.684992468799    3.607646793839
H     -1.593052472375    1.045606569842   -0.056925361873
C     -1.911640765192   -0.218057009526   -1.563363715559
O     -1.719770702850    1.038048542871   -1.057936208450
O     -2.189138958978   -0.415648359094   -2.751840760244
C     -1.711935840954   -1.369198142395   -0.530163209514
H     -0.744593039502   -1.189420778805   -0.040528605199
C     -1.724634286133   -2.741976722997   -1.209978069874
