41

C      3.411960048396    0.497772586839   -0.567146676006
H     -1.885790090989    0.813563431578    2.112477133919
H      3.934155661966    0.781940016506    0.354176256273
C      3.944797386265   -0.478875148165   -1.341169336458
H      4.883839088219   -0.961060014758   -1.071442128065
C      3.322003190960   -0.986144232992   -2.579810162134
O      2.230429484088   -0.651317374157   -3.082857581143
O      4.134771289027   -1.954256608747   -3.168200770465
C      3.636068919791   -2.559339078045   -4.412203592055
H      4.401948731387   -3.279981988746   -4.704048725104
H      2.675862601462   -3.055570433524   -4.236104749533
H      3.504013902927   -1.792300676681   -5.182526790905
Pd     1.675917321166    1.420441738886   -0.790225023201
C     -1.185524247159    2.814303962447   -0.179337528091
O     -0.310446106852    2.249619138270   -1.007819355787
O     -2.158746029316    3.514949718644   -0.536767034021
C     -0.955133280914    2.560917338485    1.337287092027
H     -1.825454864924    3.006498897064    1.829541579090
C      0.315130070143    3.252348381032    1.875672046825
H      0.410195046574    3.087421000578    2.956167030045
H      1.220035255839    2.887988269504    1.381827712681
H      0.234778183462    4.330754209213    1.695414771173
N     -1.019443771477    1.110535632566    1.677138303750
C     -0.110050957455    0.130359402255    1.454173074642
O      1.007880776890    0.276986395640    0.855631461357
C     -0.447671778920   -1.252390074979    1.984707528327
H      0.373962003701   -1.597805193057    2.620846549534
H     -1.381400360747   -1.280889974485    2.555842256667
H     -0.520761877984   -1.946164189825    1.139784551841
N      2.372852810400    2.514260612367   -2.425046476855
C      3.700714852009    2.847057018140   -2.529446584940
C      4.242105935040    3.458865297092   -3.654899040329
C      3.386425298651    3.738453805030   -4.749102367542
C      2.034547584270    3.428491244588   -4.650400647671
C      1.526570808770    2.835219503418   -3.461508736905
H      4.321302582281    2.593737608297   -1.681197509440
H      5.299367278702    3.698837391995   -3.680713941488
H      3.776795289446    4.200606033468   -5.651940317006
H      1.324115171389    3.635667370748   -5.442082109173
O      0.210868154353    2.614194227800   -3.387685447217
H     -0.172891798577    2.443414158264   -2.425763662516
