53

C      0.607247742389    4.220128759255    0.339273951586
C      1.610372340128    4.890419070112   -0.398193610905
C      1.292980402922    5.616806628241   -1.562156973886
C     -0.041493346882    5.686139547540   -2.009009962425
C     -1.050244635175    5.025333859317   -1.280322898721
C     -0.727667304784    4.298694385241   -0.118103673213
H     -1.196197501709   -3.514197912479    1.870776153741
H      2.642118661663    4.855053404421   -0.050014155269
H      2.078006002028    6.134359234878   -2.109917958552
H     -0.291415590255    6.252382166486   -2.903594905903
H     -2.084737761638    5.079909920373   -1.613275848013
H     -1.505900630806    3.788926999138    0.444887247791
C      0.965481325185    3.414602042332    1.579304880746
H      1.744869858757    3.943326002077    2.151845323051
H      0.102319953701    3.314323253169    2.244543264990
C      1.495059546746    2.012800481160    1.220885588472
H      2.237281044035    2.039413022337    0.417851368865
C      2.044555896801    1.260841885959    2.387229117882
O      1.793380066411    1.447618842541    3.594680083641
O      2.937967722583    0.259358467330    1.976451009491
C      3.510092691139   -0.577452323191    3.040821284877
H      4.161566842596   -1.285970675380    2.525830623554
H      4.078564315659    0.037348780577    3.746655464349
H      2.716179569976   -1.100595249055    3.584800704498
Pd    -0.073105608553    0.803410406296    0.557427604928
C     -2.638155638815   -2.534953295879    0.941113616125
O     -1.306747115553   -2.697555954875    1.332151745283
O     -3.509503597250   -3.341547390365    1.288071160544
C     -2.853373300835   -1.303993625235    0.051083487312
H     -3.936219881169   -1.115824577601    0.098826655180
C     -2.487347486623   -1.657827716459   -1.408755402803
H     -2.687672789661   -0.788167272078   -2.043446444158
H     -1.424457435906   -1.907767625936   -1.491163675202
H     -3.081942717536   -2.506215620016   -1.768123284874
N     -2.077694050545   -0.156497217109    0.514749039491
C     -2.487704854717    0.660682621689    1.483190225686
O     -1.577952170189    1.558994366399    1.847741774424
C     -3.825481641395    0.654141837919    2.184979308294
H     -4.659140222483    0.588512493110    1.475233177858
H     -3.900729993902   -0.199999638257    2.870994462824
H     -3.919784076948    1.572819241611    2.768790204945
N      1.208420005725   -0.010126024886   -0.855008199944
C      1.708116068700    0.802784516873   -1.839054433258
C      2.627795572090    0.349296474513   -2.782648486574
C      3.068292233797   -0.993040657552   -2.708607223293
C      2.553793656771   -1.829452268958   -1.716964665466
C      1.605560485814   -1.308489355766   -0.807437496214
H      1.349952658849    1.825406619424   -1.837535960135
H      2.995809591661    1.027614511598   -3.544310965262
H      3.796007931046   -1.374863518712   -3.419119073132
H      2.844210964866   -2.868716731191   -1.618139824987
O      1.092386038154   -2.162095620077    0.118031399260
H      0.299261888934   -1.848503825077    0.626137272901
