53

C      0.988924669596    4.024887530509   -0.262744189411
C      2.109472632593    3.284536503099    0.228740641237
C      3.283162096072    3.155323501910   -0.564760162578
C      3.351958495059    3.748612380772   -1.828294347400
C      2.239836121341    4.477179895222   -2.326764685224
C      1.074761291221    4.602237527460   -1.563555092557
H     -2.990614430606   -1.107021365028    2.250026095175
H      2.115743520535    2.956901893869    1.265053379693
H      4.129073333839    2.597786652563   -0.171280932112
H      4.254406398036    3.659247999116   -2.427746442135
H      2.297950318932    4.947934213844   -3.305631798300
H      0.226641689164    5.165619108107   -1.946375006408
C     -0.234099225292    4.242999509658    0.639868119209
H      0.055726487565    4.783939780554    1.548093732938
H     -0.982543584112    4.841544863093    0.108394328934
C     -0.811613886003    2.849796106264    0.958640032144
H     -1.826395861784    2.665319536039    0.604046615575
C     -0.614683813325    2.286300043935    2.314801470445
O     -1.279356327814    1.365867265198    2.844442652354
O      0.454051669120    2.878006624625    3.006900713364
C      0.749839662835    2.349445458437    4.346031430723
H      1.542323115169    2.990923104980    4.736515459041
H     -0.140479425821    2.397201595945    4.981122701489
H      1.090251620993    1.310461582247    4.277332824322
Pd     0.362269742067    1.689041966060   -0.321386665677
C     -2.271267798263    0.075017278216   -0.262062408915
O     -3.089738556324    1.018145205937   -0.403119406542
O     -0.953421430338    0.118163738879   -0.381722986647
C     -2.720245327063   -1.362750602148    0.151057622878
H     -2.109369332761   -2.071108593322   -0.415325319123
C     -4.217227309122   -1.598326686095   -0.073073452986
H     -4.504515275860   -2.603140870603    0.260407110297
H     -4.814021604237   -0.849000085329    0.460375699015
H     -4.455171854055   -1.497745554198   -1.137507988883
N     -2.368239575844   -1.543585774737    1.576392310620
C     -1.150391445877   -1.951324336820    2.027595984032
O     -0.225200833522   -2.356778616787    1.251312667812
C     -0.953958881532   -1.891493335594    3.533784553453
H     -1.797531854443   -2.343619385522    4.069982986803
H     -0.033985936353   -2.417766630641    3.795854104395
H     -0.877191645556   -0.839038377971    3.833902425452
N      1.492441431016    0.414882492535   -1.660049395077
C      1.666105243779    0.671072922229   -2.983941396297
C      2.099247721731   -0.308278128805   -3.884489387968
C      2.364013487673   -1.603662651977   -3.388439041143
C      2.201786420545   -1.864447686304   -2.022367109447
C      1.762161543082   -0.826457019179   -1.167349940882
H      1.435645717964    1.680094703467   -3.308922952839
H      2.217122038582   -0.066815695188   -4.935600768555
H      2.697479585428   -2.392450246869   -4.057929640021
H      2.409567912048   -2.838843814504   -1.593206428269
O      1.667383923512   -0.994176895601    0.177780027209
H      0.908779712642   -1.575097511727    0.542418825801
