53

C      1.361081588031    3.856676998301    0.135991580068
C      1.869741992937    2.921551902513    1.072232067945
C      3.135775003025    3.108886394054    1.643697854057
C      3.916045613861    4.233059421360    1.304160312734
C      3.428620575041    5.164725389576    0.367239546980
C      2.170846547729    4.966314774782   -0.222341685740
H     -2.043737761264   -0.383534907422    1.414284785690
H      1.284667227738    2.051264771817    1.336283224868
H      3.520450565896    2.373122580957    2.344740449653
H      4.896923165612    4.371828297961    1.752349602900
H      4.028807322103    6.027260164572    0.089650019437
H      1.807533832395    5.677040021418   -0.962832584176
C      0.061146789067    3.745105786972   -0.554553364007
H      0.002960540641    4.394184565521   -1.428160764514
H     -0.142870912992    2.551772340497   -2.749968307800
C     -1.171526618947    3.142041726971   -0.235016241615
H     -2.007030972392    3.379118864230   -0.892524030109
C     -1.674240325781    2.590205230865    1.056638256405
O     -2.792106331101    2.047589897552    1.169448199504
O     -0.845487051445    2.818064930810    2.126277801673
C     -1.310577846147    2.377756288296    3.457135669214
H     -0.552881151617    2.743853694469    4.150878163923
H     -2.290005193826    2.814429945284    3.675239042890
H     -1.375925825350    1.287074042057    3.484073973476
Pd    -0.165457415891    1.614611173870   -1.527421197686
C      0.330797783133   -0.629346093958    0.689796049808
O     -0.445260879886    0.251536468627    0.136289590457
O      1.568866449617   -0.808368100893    0.389532035154
C     -0.291814707493   -1.536850084744    1.759309868620
H      0.325468151837   -1.474965882115    2.664968659703
C     -0.275000313680   -3.011881198846    1.279639671007
H     -0.696545867569   -3.644598849707    2.066104200489
H     -0.872965336103   -3.128974034636    0.367158495792
H      0.753949188914   -3.325519832966    1.075364267458
N     -1.645007506301   -1.056574769472    2.064838800928
C     -2.333982741728   -1.454250882048    3.183848169042
O     -1.836406164836   -2.244378287755    4.035396813881
C     -3.743021908260   -0.889051405841    3.319663044945
H     -4.468743993286   -1.657399087473    3.023624483588
H     -3.931424567402   -0.648752177709    4.370843229289
H     -3.900627784121    0.001423304040    2.701353833483
N      0.512210917081    0.186366164255   -2.912861713796
C     -0.267573791691   -0.100313014788   -4.003314849564
C      0.185371155335   -0.885485249885   -5.059701496664
C      1.508924602493   -1.388381429626   -5.005223596199
C      2.301420542696   -1.114859020661   -3.892339652961
C      1.779588024743   -0.335927988436   -2.822574166202
H     -1.261028392297    0.332937213759   -4.005793218912
H     -0.466419630160   -1.086882158856   -5.902731844787
H      1.901731648521   -1.990985117781   -5.819911327404
H      3.312902583747   -1.490388710454   -3.788707429388
O      2.536887233312   -0.094040633968   -1.748122335181
H      2.117465641497   -0.305600096804   -0.771061308088
