41

C      0.865778861150    2.022315625894    0.958427488373
H      0.096072386852    2.485734832207    1.570356439646
H      1.693546337688    1.495161359274    1.422014429479
C      0.916243838711    2.275068738748   -0.404930821660
H      1.769314630255    1.937213384427   -0.987405035429
C     -0.007757769134    3.266417493356   -1.044682804148
O     -0.547542557808    4.219722028483   -0.464002831609
O     -0.144929877303    3.012033910436   -2.392395279956
C     -1.083840372746    3.879647337618   -3.130524900782
H     -1.078753209488    3.494824254569   -4.150959676967
H     -2.079441056813    3.808286355616   -2.682343582192
H     -0.740427886811    4.918562827841   -3.097700198745
Pd    -0.178874474051    0.287424241058   -0.123798609273
C     -3.027642849717    0.632808898390   -0.080923183777
O     -1.869935293409    1.331332327397    0.013171596110
O     -4.142088891706    1.181446772182   -0.141334779273
C     -2.891751845448   -0.904535546269   -0.034985110772
H     -3.602936606736   -1.310519224921   -0.764510625140
C     -3.284342190087   -1.383802832983    1.386390697619
H     -3.252672902914   -2.476871577155    1.462030010169
H     -2.597165620143   -0.967704425618    2.132225894650
H     -4.299686237888   -1.043959364626    1.616625416291
N     -1.499433733507   -1.294139733133   -0.384682430043
C     -1.210165396327   -2.482741943485   -0.880492694038
O      0.047966491604   -2.837352467688   -1.134975384163
C     -2.239993129342   -3.532319705018   -1.237753416984
H     -2.963021269109   -3.691929033236   -0.432844611210
H     -2.794691831360   -3.229177677614   -2.135226173101
H     -1.720050114057   -4.468147054116   -1.449305624998
N      3.330494735294    0.295379522762    0.120847231020
C      4.682082680316    0.375676990133    0.255892358099
C      5.545650121027   -0.698111198404    0.001531554873
C      4.972737193625   -1.922006019308   -0.414949069505
C      3.584877184563   -2.022251680516   -0.557744504727
C      2.788571535634   -0.876684513682   -0.277016109748
H      5.067905617420    1.339891818422    0.578071871526
H      6.617747397939   -0.583757877121    0.123174319531
H      5.602290872627   -2.783302491548   -0.623908410520
H      3.109656032714   -2.945095270414   -0.874823335533
O      1.437827652613   -0.974227494314   -0.421780862948
H      0.774998999632   -2.091114916026   -0.859456531350
