53

C      0.354990980156    3.638543211696    0.146191270382
C      1.195403278792    4.772642145146    0.089908253870
C      1.242385102567    5.586967903208   -1.059272462032
C      0.440714184627    5.279761134098   -2.174593800175
C     -0.403404350362    4.152020545015   -2.131072013800
C     -0.443552936172    3.342034292865   -0.983147533853
H     -1.465914542848   -0.028141148605    2.083209404997
H      1.811474907914    5.023591995179    0.951841314772
H      1.894917366739    6.456870813003   -1.079971543931
H      0.470948835536    5.907597580447   -3.061759723012
H     -1.025302984902    3.902671191560   -2.987412126907
H     -1.083673062911    2.462442656775   -0.978330364064
C      0.304728104138    2.785343099902    1.407315716178
H      0.828349013697    3.329113094488    2.210268165433
H     -0.728296142496    2.676380216653    1.748919290735
C      0.954233630273    1.380110357032    1.288946356069
H      1.999179798252    1.447693438876    0.981514993902
C      0.884683099607    0.625052757583    2.572508163849
O     -0.153487572872    0.456285462789    3.277235953869
O      2.092338132431    0.083102556523    2.951211713856
C      2.118282225619   -0.748309076728    4.170745132961
H      3.168947501392   -1.005833557502    4.308775588838
H      1.731980971967   -0.181784776118    5.023106146620
H      1.511303909977   -1.647896122637    4.025582459800
Pd     0.043684252162    0.026116846183   -0.056516993648
C     -1.723144971669   -2.338983634233   -0.403273821611
O     -0.847000713723   -1.594549622368   -1.107544461645
O     -2.242793464193   -3.391228440734   -0.809928838735
C     -1.938492001411   -1.836149085833    1.047474405797
H     -1.095592147815   -2.245291989609    1.623314644325
C     -3.253448212376   -2.332217473745    1.666459554217
H     -3.320015367960   -2.051611217877    2.725651549915
H     -4.120941556732   -1.942822099547    1.126734045909
H     -3.282755465473   -3.423235480145    1.586742505522
N     -1.754154008837   -0.328559017132    1.134438754136
C     -2.855487134029    0.461200729623    0.604905671988
O     -3.511883911372    0.057529771048   -0.367226654483
C     -3.169355849542    1.761083899269    1.326030618170
H     -2.698327645170    1.828512517902    2.310209235543
H     -2.853413097475    2.615742247774    0.716474137150
H     -4.256792296863    1.829618684194    1.436071057736
N      1.683564388872    0.114027545956   -1.397134454681
C      2.429867060227    1.259818929138   -1.535746425680
C      3.559616797543    1.340442742854   -2.341666322620
C      3.969445066566    0.186145227866   -3.052538260135
C      3.205793095848   -0.971379403369   -2.956330960881
C      2.035535980579   -0.987487047943   -2.147206321775
H      2.086474600847    2.127149863358   -0.992126706080
H      4.101126483955    2.277216338183   -2.410793960286
H      4.856760488579    0.206634110945   -3.679430784321
H      3.442090592611   -1.879611058008   -3.498303602094
O      1.300382472598   -2.104290245367   -2.155247739496
H      0.319440863442   -2.023983538357   -1.782060673944
