53

C      0.128936670941    3.605585751926   -0.282109768440
C      1.107204234947    4.562991369038   -0.631374323593
C      1.228341382462    5.024269817969   -1.956454709373
C      0.367100839145    4.532284678170   -2.956541888780
C     -0.614901249004    3.579771389485   -2.618921317187
C     -0.732101303794    3.122844935958   -1.293021428184
H      2.704952288576   -0.207702416976    1.799254432024
H      1.769422433355    4.957478167051    0.138457004880
H      1.983462782081    5.766991595583   -2.205279056556
H      0.454782721742    4.890763536286   -3.979804641683
H     -1.289917511504    3.196099518520   -3.380486418548
H     -1.497030022498    2.392837439455   -1.040054857588
C      0.021170443014    3.090659409491    1.145274571620
H      0.311858509429    3.885237747894    1.850775382383
H     -1.008333335670    2.810919296046    1.388943086909
C      0.929731136235    1.872858796421    1.400166328083
H      1.940253014252    2.022154474930    1.002888358871
C      0.987913001624    1.469774832804    2.836957859042
O      0.309627417909    1.879837840828    3.786982684890
O      1.998635132717    0.489785119343    3.055566964555
C      2.213507968691    0.031304427708    4.440614498429
H      3.037230541552   -0.682536901109    4.382441855667
H      2.474014349281    0.883000034339    5.074909237264
H      1.304425793158   -0.443249403895    4.820897846692
Pd     0.207788029288    0.207613800839    0.402189664881
C     -2.061722780200   -0.897933499468   -1.182611328285
O     -0.928292042989   -1.585078338850   -0.624346574638
O     -1.893739408032   -0.260519276720   -2.217815763426
C     -3.360177282415   -1.101956451681   -0.383083535433
H     -3.810603219214   -2.021600006764   -0.788967476290
C     -4.342653486988    0.063589603818   -0.626415988339
H     -5.284452715900   -0.155448496918   -0.112994670910
H     -3.931138336044    0.995121440849   -0.226299913580
H     -4.539165506208    0.191152187078   -1.696536805691
N     -3.137153752287   -1.368829313562    1.062983562658
C     -2.360378065369   -0.552031040525    1.746282393754
O     -1.680192618703    0.494309542416    1.206953406970
C     -2.228062434976   -0.748937309562    3.241170539333
H     -2.855678573673   -1.578236920839    3.575067352408
H     -1.181206580336   -0.942963509125    3.510747016354
H     -2.520220651522    0.174501171161    3.755307100541
N      1.955278033497   -0.094255389982   -0.673149243338
C      1.790131022154    0.011465345672   -2.033211766039
C      2.807158136156   -0.300829928905   -2.930368730944
C      4.049710747087   -0.744033669662   -2.417969073547
C      4.225892869599   -0.847801712164   -1.038503810040
C      3.155600107810   -0.505604870848   -0.175781323542
H      0.812889980689    0.338866294679   -2.369874162527
H      2.631636699660   -0.204486543337   -3.995774130996
H      4.863476747008   -0.999874431162   -3.090861348608
H      5.155591541795   -1.176634701800   -0.589390480556
O      3.367238343207   -0.620775419416    1.154549455470
H     -1.221195314183   -2.159440825776    0.125788301777
