53

C      0.784726461968    4.094081736457    0.469249027729
C      1.389882783399    5.341820911896    0.728080711695
C      0.692563084030    6.538932773794    0.476404582882
C     -0.614044847269    6.496067779924   -0.044661995303
C     -1.217695270388    5.250336185566   -0.310676945166
C     -0.525710585947    4.052403890287   -0.058012099432
H     -2.932478595354   -1.871630157861    0.249218757861
H      2.399903548242    5.379435393169    1.132074975447
H      1.166533056919    7.495263925037    0.684595564584
H     -1.153718334601    7.419228705866   -0.242644976348
H     -2.225973315965    5.211450199537   -0.716385549303
H     -1.000971445540    3.096953479580   -0.270578846929
C      1.558284770056    2.819477378500    0.766223974998
H      1.754098579760    2.323824168044   -0.296544885994
H      2.580076052072    3.011762409830    1.109848567606
C      0.899875217400    1.775575014521    1.622215796391
H     -0.155084787580    1.913715088199    1.848062198621
C      1.699705906422    1.199834178585    2.733585469666
O      2.928435810213    1.339826130531    2.905807764331
O      0.905362274703    0.443771137435    3.580041353015
C      1.597463562947   -0.291301669858    4.656246762866
H      0.800876037190   -0.757048372151    5.237764126688
H      2.255857540018   -1.049243700515    4.221141009338
H      2.184788679309    0.399600089436    5.268609986963
Pd     1.106637078354    0.566854504346   -0.044792054954
C     -0.344438359592   -1.858823834498    1.445082407504
O      0.649661487712   -1.349202044044    0.694630581832
O     -0.306912532566   -3.022086199639    1.900654414057
C     -1.588217619146   -0.953065243693    1.638009416686
H     -1.255977226825    0.079379055320    1.733871132691
C     -2.412364645965   -1.372542723053    2.861699653237
H     -3.314765369114   -0.754761531540    2.943320767253
H     -2.693414923785   -2.430360231820    2.802736619783
H     -1.814787972839   -1.241980831329    3.769979471254
N     -2.401757894764   -1.020978436358    0.402034471623
C     -2.429131331373   -0.040467914685   -0.553500396596
O     -1.758463667860    1.029472093835   -0.451182363458
C     -3.313456885644   -0.303654426980   -1.763438969143
H     -2.684025045922   -0.356205008338   -2.659438551877
H     -3.892114200718   -1.230245481864   -1.683147719958
H     -4.001683137099    0.538473146290   -1.893446402100
N      1.585640417730   -0.306532030071   -1.970530499216
C      1.530771322988    0.495699974693   -3.080116832361
C      1.958483220176    0.076846008829   -4.337769023498
C      2.473179531782   -1.237867353921   -4.467455961985
C      2.518605266034   -2.071180970065   -3.352173845111
C      2.051739141745   -1.587675215335   -2.099236151789
H      1.129166678612    1.492122553494   -2.926741009401
H      1.899046646070    0.751165899687   -5.185107920660
H      2.824965759901   -1.597754792303   -5.430701016433
H      2.889390617906   -3.088750544089   -3.394863203396
O      2.083353156834   -2.415065891973   -1.042707380842
H      1.544597230825   -2.094360445988   -0.209414852197
