53

C      0.413473577434    3.947293140498    0.398098358925
C      1.543774814213    4.757416279640    0.153016902917
C      1.529450022163    5.730497172808   -0.863744748150
C      0.376730431373    5.909536482583   -1.652714368920
C     -0.756533012482    5.107817735628   -1.415072381230
C     -0.737555761952    4.135790079590   -0.397836810470
H     -4.091216026290   -1.048636460902    1.827981648547
H      2.438099194518    4.627473870049    0.761077520137
H      2.409056551957    6.347029183624   -1.036850369524
H      0.361637536842    6.661969013743   -2.438177120397
H     -1.650690175143    5.238196167689   -2.021180769841
H     -1.613101661530    3.516496632337   -0.218999595292
C      0.447504909527    2.891745105690    1.494017770059
H      1.107064261620    3.239696492914    2.307273366072
H     -0.542920828658    2.749522514046    1.937460583916
C      0.996326037600    1.533068677102    1.021877971534
H      1.871319446924    1.618709661625    0.375763820769
C      1.220010431705    0.547429682478    2.131176527923
O      0.425550106475    0.285908515028    3.066655327063
O      2.451054073866   -0.071571348819    2.025487343110
C      2.743870364054   -1.152964977356    2.981484121409
H      3.775724117081   -1.439209317206    2.773060838688
H      2.631629789240   -0.795802410980    4.010035580264
H      2.063309015882   -1.993254458404    2.808007913326
Pd    -0.354653565292    0.516693780887   -0.154484920126
C     -1.422379434530   -1.795222421716    0.236926325207
O     -0.249586493250   -2.484406822731    0.293150807356
O     -1.963703150208   -1.398888590642   -0.831076937257
C     -2.043680327421   -1.596578200605    1.633827001246
H     -1.261202830919   -1.160052573438    2.265304930388
C     -2.496499799581   -2.942756586950    2.234273546175
H     -2.859788737425   -2.803137564911    3.259680510973
H     -3.289358952287   -3.403223202975    1.629844824950
H     -1.646043313985   -3.628920722832    2.260064215665
N     -3.187746519909   -0.663119492347    1.578518453286
C     -3.166563226938    0.638272697876    1.196233788282
O     -2.132106703594    1.265889692771    0.780658213840
C     -4.473859832947    1.402700509652    1.280054182261
H     -5.282638698292    0.820456898985    1.733140892350
H     -4.316301287615    2.313622019426    1.866719758535
H     -4.773909875249    1.706626220188    0.270995095943
N      1.951242856376    0.966382965297   -2.243886727554
C      2.830804919922    1.388478675028   -3.187666287893
C      3.767549383321    0.541335339290   -3.801022300575
C      3.791147016528   -0.814790776285   -3.401492739352
C      2.895684102339   -1.266263409719   -2.424519267163
C      1.975911209301   -0.336491679546   -1.867152499772
H      2.768810737047    2.442130285369   -3.450146644709
H      4.447806134835    0.924482586941   -4.555041171185
H      4.501325085368   -1.507872433815   -3.846911116582
H      2.885731563878   -2.298378657652   -2.089161659920
O      1.083984806626   -0.738769440199   -0.930200345699
H      0.428907094188   -2.085315468344   -0.375022692053
