# sto-3g

title

0 1
 O                 -4.98238724    3.51852785   -0.00233659 0 4 3 1
 H                 -5.90518107    3.21548875    0.00158582 0
 N                 -4.84447663    1.23178575    0.00341332 5
 C                 -4.23527716    2.39950321   -0.00181184 5
 C                 -2.81747351    2.53807767   -0.00700485 5
 C                 -2.06578432    1.36596729   -0.00629903 5
 C                 -2.72458663    0.12236575   -0.00066951 5
 C                 -4.11154709    0.10515610    0.00401885 5
 H                 -0.97583997    1.40463974   -0.01007817 5
 H                 -2.15344388   -0.80816095   -0.00003564 5
 H                 -4.66626639   -0.83893282    0.00844636 5
 O                 -2.33306105    3.80032838   -0.01217776 5
 C                 -0.93664442    3.98973445   -0.01760840 5
 H                 -0.46576028    3.55056509   -0.91630056 5
 H                 -0.76746926    5.07469692   -0.02127564 5
 H                 -0.45942145    3.55565886    0.88020160 5

