# STO-3G

title

0 1
O     -5.072816440300     3.486354446433     0.003845099522 0 4 3 1
H     -5.983865818465     3.152920445929    -0.055691388000 0
N     -4.846798032854     1.215879438511    -0.083677669146 5
C     -4.273360654668     2.410776960349    -0.003390726996 5
C     -2.877904908822     2.599181649729     0.071825222955 5
C     -2.076392610374     1.470194327878     0.063395239750 5
C     -2.674177733137     0.199188855350    -0.018102465994 5
C     -4.065756277826     0.132252591841    -0.090582563204 5
H     -2.467261179006     3.607700678747     0.131364119491 5
H     -0.989168240389     1.565300210631     0.115013658702 5
H     -4.569382083764    -0.836479930661    -0.160581317304 5
C     -1.823018771354    -1.038982987099    -0.000708625121 5
F     -0.811406852998    -0.954600221677    -0.886550829335 5
F     -1.257833462546    -1.238860628651     1.206654851895 5
F     -2.529748093503    -2.142405917310    -0.296374987214 5

