# STO-3G

title

0 1
O     -5.075086951388     3.490300774008    -0.000393933294 0 4 3 1
H     -5.983171229710     3.145405659210    -0.000271589005 0
N     -4.842932820259     1.216296596564    -0.000203677806 5
C     -4.267102429696     2.408639363180    -0.000363822345 5
C     -2.868091174873     2.625664738718    -0.000464042684 5
C     -2.079230605428     1.476793052325    -0.000375825007 5
C     -2.670109699108     0.204233050625    -0.000217685204 5
C     -4.059669318400     0.129847526392    -0.000133342216 5
H     -0.989740066929     1.577009966503    -0.000422810339 5
H     -2.062447655219    -0.702658916276    -0.000105734605 5
H     -4.570753069818    -0.839559417609     0.000070478253 5
C     -2.312784261813     4.022662894088    -0.000376901817 5
H     -2.657021073735     4.587611569209    -0.882527084176 5
H     -2.656921511024     4.587149761778     0.882061746757 5
H     -1.212977282593     4.014096701288    -0.000401506512 5

