# STO-3G

title

0 1
O     -3.243932608204    -2.894564905791    -0.000541578039 0 4 3 1
H     -3.920769376824    -3.591839687929    -0.000461521334 0
N     -5.223946563933    -1.768777544682     0.000645253878 5
C     -3.916279690041    -1.728274977996     0.000187247947 5
C     -3.145244701011    -0.517108833305     0.000319579482 5
C     -3.878674783455     0.709147737683     0.000452145877 5
C     -5.303076106478     0.639084346743     0.000719279578 5
C     -5.909126441855    -0.595230305783     0.000940169198 5
C     -1.728024919210    -0.501298758051     0.000296709813 5
C     -1.050781030389     0.702887707194     0.000350124712 5
C     -1.769353064142     1.923722788905     0.000313351098 5
C     -3.150517226986     1.929791345473     0.000356598126 5
H     -1.190002040735    -1.450566225412     0.000298943510 5
H      0.041820375690     0.717699458315     0.000412397940 5
H     -1.221883776168     2.869994003382     0.000250828433 5
H     -3.701000376078     2.874199311864     0.000314234247 5
H     -5.899034922014     1.554253201929     0.000792748590 5
H     -7.000726508166    -0.682429302540     0.001276796943 5

