# STO-3G

title

0 1
C      0.272613993583     2.651136593701    -1.799401774925
C      1.633464935670     2.988131573216    -1.929551641617
C      1.981927349335     4.244967052855    -2.465767754704
C      0.982364671411     5.145603577743    -2.885703340269
C     -0.375808889822     4.792583515078    -2.770537794046
C     -0.735464132794     3.534897553875    -2.240728096296
H     -0.494867498116    -1.112620825522     0.640874211980
H      2.410445021524     2.302492342355    -1.602985608469
H      3.031775844757     4.516673627942    -2.549589552777
H      1.259873151162     6.111001916681    -3.301618614391
H     -1.152066490839     5.480607407183    -3.097203723662
H     -1.789779168629     3.263290616995    -2.168690558512
C      2.124771522326     1.217180104813     2.780397957664
H      2.049079008606     1.542851830107     3.813728125857
H      2.920533271313     0.516290259788     2.543210396723
C      1.260167737102     1.597250056533     1.817573330643
H      1.383247429875     1.198497623763     0.819128125469
C      0.104725688953     2.481082093528     2.012608574351
O     -0.747340784790     2.556190980208     1.081633254270
O     -0.051587097768     3.195231343337     3.213735073484
C     -1.212584275221     4.031469464709     3.304930825789
H     -1.211747688243     4.551725425469     4.287180585072
H     -1.209103732927     4.804188199822     2.503019717811
H     -2.142873419318     3.425051504371     3.238836801930
Pd    -0.433419643313     1.080113437401    -0.842705044105
C      0.617536389548    -1.740733412707     2.619613704567
O      0.662392569401    -1.537905029432     1.271432593173
O      1.618576732493    -1.942229824256     3.318975403038
C     -0.827962873478    -1.710738530333     3.218037892304
H     -0.670850186657    -1.496748591458     4.280613147117
C     -1.481167080667    -3.076086276627     3.118757170252
H     -2.449006888589    -3.067762353758     3.662364727014
H     -1.670465574803    -3.313190101078     2.051761720521
H     -0.824877302327    -3.853541186851     3.562453089054
N     -1.817144417378    -0.745353608233     2.730165690576
C     -2.053431180457    -0.299889613191     1.560868138328
O     -1.356431048358    -0.553064161746     0.382906585778
C     -3.236081190663     0.552505213719     1.405691446190
H     -4.111480862692    -0.033962037955     1.733095906087
H     -3.101128257960     1.428145788190     2.060380224721
H     -3.343485266761     0.860901746706     0.352265490311
N      0.818895633277    -0.100671231681    -1.985919188005
C      0.549421991661    -0.092851613590    -3.327715907982
C      1.451373218735    -0.631014577642    -4.218599425868
C      2.627510145179    -1.187751199107    -3.773054866313
C      2.875200509591    -1.199104730812    -2.427094399702
C      1.933828944711    -0.648333599470    -1.523582398933
H     -0.370954658088     0.349935057899    -3.690263706989
H      1.231838774121    -0.610871214605    -5.273263434106
H      3.342167886804    -1.612152279131    -4.473162890831
H      3.769476215735    -1.627043403957    -2.020148165048
O      2.269210682210    -0.724853444660    -0.279531076627
H      1.528486446630    -1.172424047791     0.654661058578

