# STO-3G

title

0 1
C     -0.982844406385    -2.382969813194     2.187141413316
C     -0.779086187796    -3.595312362518     2.884130421502
C     -1.367830376783    -4.786033136984     2.418448257826
C     -2.159558318958    -4.773157189534     1.247802781855
C     -2.368640705048    -3.567523253172     0.552930727157
C     -1.789927516240    -2.366962784596     1.024102812059
H     -0.567931316642    -1.450685912017     2.559341819803
H     -0.184323130583    -3.601365983012     3.795326841066
H     -1.226074439040    -5.714878725194     2.967126914563
H     -2.623366215055    -5.692483555720     0.896414784575
H     -2.998550872932    -3.551191514050    -0.333787305792
H     -2.002490798852    -1.426093126382     0.520481787717
C      2.634794755518    -1.393826075736     1.413477728103
H      2.370971882224    -1.129909821411     2.433328409654
H      2.916095178220    -2.420420554920     1.213115944509
C      2.917145302811    -0.387636874797     0.462640661908
H      3.278165599057    -0.649534018678    -0.521915856151
C      3.006653576209     1.044987893518     0.798857434444
O      3.198966868316     1.399155047547     1.991743503673
O      2.928950799621     1.986554412792    -0.240706524123
C      2.971282387585     3.363296629401     0.161771096413
H      2.888995955423     4.013388805257    -0.735699551238
H      2.124991257909     3.603195616446     0.846678606993
H      3.933035084361     3.596599629802     0.672825726446
Pd     0.803899903606    -1.130886503592     0.220674165117
C     -0.348412405606     1.479807302574     1.111512920429
O      0.276752400774     0.329151552835     1.483008976828
O     -0.617316536345     2.360182810550     1.947047853035
C     -0.623062058054     1.600310349816    -0.412911482848
H      0.286238917390     2.014146729016    -0.878446760582
C     -1.785962775596     2.518172115629    -0.712918103332
H     -1.932869801490     2.589499586773    -1.810296239066
H     -2.707874653598     2.106406209787    -0.252320130267
H     -1.591697878842     3.532552335361    -0.306441853531
N     -0.986789743444     0.284756172564    -0.972891934757
C     -0.336538621858    -0.178900361336    -2.002877099901
O      0.772482978409     0.372766528027    -2.547386169243
C     -0.969797468230    -1.303358004076    -2.715949618281
H     -0.286662005923    -2.160473976100    -2.770303832543
H     -1.896883880599    -1.595055941548    -2.188095012361
H     -1.222016717666    -0.955355084473    -3.732998630169
N      1.454807021158    -2.736793860234    -0.887247139101
C      1.149524634366    -3.991353588856    -0.432574777598
C      1.633080798801    -5.100108376200    -1.089827802227
C      2.425357755506    -4.967578498349    -2.206807868112
C      2.713057095359    -3.707348697703    -2.657508616084
C      2.204316779578    -2.574995277081    -1.979127741618
H      0.550994788287    -4.112967823886     0.456415165119
H      1.391598801573    -6.082136425479    -0.715814457655
H      2.811165690040    -5.843669557432    -2.721775121703
H      3.320357490661    -3.541931195960    -3.525567938599
O      2.496607086506    -1.436217176288    -2.490447905974
H      1.552365602701    -0.314931984706    -2.633766996241

